ITEM: TIMESTEP
15000
ITEM: NUMBER OF ATOMS
2
ITEM: BOX BOUNDS pp pp pp
-1.8329075954980109e+01 1.6510056176054672e+01
-2.4268871353470988e+01 1.4041463111383582e+01
-9.0375186976907216e+00 2.0410177524428477e+01
ITEM: ATOMS id type mol x y z
3641 21 11 -15.1888 11.2831 17.457
3654 21 16 14.8989 4.14378 15.1271
ITEM: TIMESTEP
20000
ITEM: NUMBER OF ATOMS
3
ITEM: BOX BOUNDS pp pp pp
-1.8449328330986280e+01 1.6630308552060843e+01
-2.4121623388839236e+01 1.3894215146751829e+01
-8.9250981921695178e+00 2.0297757018889556e+01
ITEM: ATOMS id type mol x y z
3659 21 19 -9.74382 9.9345 2.42514
3641 21 11 -15.2874 11.1571 17.3671
3654 21 16 15.008 4.07262 15.055
ITEM: TIMESTEP
25000
ITEM: NUMBER OF ATOMS
6
ITEM: BOX BOUNDS pp pp pp
-1.8415432742766509e+01 1.6596412963841072e+01
-2.4283316914035819e+01 1.4055908671948412e+01
-8.8593472711821519e+00 2.0232006097884621e+01
ITEM: ATOMS id type mol x y z
3661 21 21 -16.8295 -12.9824 -7.29677
3660 21 20 -11.4487 -12.7045 16.6534
3659 21 19 -9.72675 10.0625 2.43982
3641 21 11 -15.2596 11.2955 17.3146
3662 21 22 13.6303 -18.848 11.8809
3654 21 16 14.9773 4.15076 15.0128
ITEM: TIMESTEP
30000
ITEM: NUMBER OF ATOMS
8
ITEM: BOX BOUNDS pp pp pp
-1.8376639905129387e+01 1.6557620126203950e+01
-2.3992139394869923e+01 1.3764731152782517e+01
-9.1138092330574842e+00 2.0486468059741298e+01
ITEM: ATOMS id type mol x y z
3661 21 21 -16.7942 -12.8629 -7.52389
3660 21 20 -11.4253 -12.5892 16.8453
3659 21 19 -9.70721 9.83199 2.38302
3641 21 11 -15.2278 11.0462 17.518
3664 21 24 -7.25397 -18.1395 -1.78807
3663 21 23 2.92783 0.794509 4.72463
3662 21 22 13.5981 -18.6394 11.9893
3654 21 16 14.942 4.01004 15.176
ITEM: TIMESTEP
35000
ITEM: NUMBER OF ATOMS
13
ITEM: BOX BOUNDS pp pp pp
-1.8376189241123335e+01 1.6557169462197898e+01
-2.4059500146755752e+01 1.3832091904668346e+01
-9.0603702863099507e+00 2.0433029112976445e+01
ITEM: ATOMS id type mol x y z
3661 21 21 -16.7938 -12.8905 -7.47619
3660 21 20 -11.4251 -12.6159 16.805
3680 21 34 -15.565 -5.68241 -1.76427
3641 21 11 -15.2274 11.1039 17.4753
3664 21 24 -7.25381 -18.1859 -1.76108
3671 21 29 -6.00355 1.48523 5.37254
3667 21 27 -9.24973 9.59673 2.32422
3666 21 26 7.41601 -22.4427 -4.36628
3665 21 25 -0.7022 -14.9529 -0.50492
3673 21 31 7.56258 -2.91039 14.204
3672 21 30 7.54617 1.16228 -1.88553
3662 21 22 13.5977 -18.6876 11.9665
3654 21 16 14.9416 4.04259 15.1417
ITEM: TIMESTEP
40000
ITEM: NUMBER OF ATOMS
13
ITEM: BOX BOUNDS pp pp pp
-1.8497224085305174e+01 1.6678204306379737e+01
-2.4027257701111981e+01 1.3799849459024575e+01
-9.1377241237162821e+00 2.0510382950364278e+01
ITEM: ATOMS id type mol x y z
3661 21 21 -16.9039 -12.8773 -7.54524
3660 21 20 -11.4979 -12.6031 16.8633
3680 21 34 -15.6666 -5.68144 -1.80336
3641 21 11 -15.3266 11.0763 17.5371
3664 21 24 -7.29777 -18.1637 -1.80015
3671 21 29 -6.03885 1.474 5.3709
3667 21 27 -9.30752 9.5717 2.30659
3666 21 26 7.4737 -22.4132 -4.41902
3665 21 25 -0.700763 -14.9361 -0.537396
3673 21 31 7.62129 -2.91414 14.2486
3672 21 30 7.60477 1.1516 -1.92524
3662 21 22 13.6982 -18.6645 11.9995
3654 21 16 15.0515 4.02701 15.1913
ITEM: TIMESTEP
45000
ITEM: NUMBER OF ATOMS
15
ITEM: BOX BOUNDS pp pp pp
-1.8224106755544735e+01 1.6405086976619298e+01
-2.4364052157967102e+01 1.4136643915879695e+01
-9.0230096821903949e+00 2.0395668508821561e+01
ITEM: ATOMS id type mol x y z
3661 21 21 -16.6555 -13.0155 -7.44285
3660 21 20 -11.3335 -12.7365 16.7768
3680 21 34 -15.4374 -5.69155 -1.7454
3641 21 11 -15.1027 11.3646 17.4454
3664 21 24 -7.19857 -18.3961 -1.74221
3671 21 29 -5.9592 1.59131 5.37334
3667 21 27 -9.17711 9.8332 2.33274
3666 21 26 7.34352 -22.7212 -4.34082
3681 21 35 3.29889 -23.8749 6.62444
3665 21 25 -0.704005 -15.111 -0.489235
3673 21 31 7.48881 -2.87498 14.1824
3672 21 30 7.47255 1.26317 -1.86634
3662 21 22 13.4714 -18.9058 11.9506
3682 21 36 8.88573 -3.60219 0.826884
3654 21 16 14.8036 4.18978 15.1178
ITEM: TIMESTEP
50000
ITEM: NUMBER OF ATOMS
16
ITEM: BOX BOUNDS pp pp pp
-1.8346959608283150e+01 1.6527939829357713e+01
-2.4191478582181794e+01 1.3964070340094388e+01
-9.1065843640295832e+00 2.0479243190641981e+01
ITEM: ATOMS id type mol x y z
3661 21 21 -16.7673 -12.9447 -7.51744
3660 21 20 -11.4075 -12.6681 16.8399
3680 21 34 -15.5405 -5.68637 -1.78762
3641 21 11 -15.2035 11.2169 17.5122
3664 21 24 -7.24319 -18.277 -1.78442
3671 21 29 -5.99503 1.5312 5.37156
3667 21 27 -9.23577 9.69921 2.31369
3666 21 26 7.40208 -22.5634 -4.39779
3681 21 35 3.32875 -23.7067 6.62977
3665 21 25 -0.702546 -15.0214 -0.524323
3673 21 31 7.5484 -2.89505 14.2307
3672 21 30 7.53202 1.206 -1.90925
3662 21 22 13.5734 -18.7822 11.9862
3683 21 37 13.4872 -2.13265 9.05212
3682 21 36 8.95523 -3.61574 0.799274
3654 21 16 14.9151 4.10638 15.1714
ITEM: TIMESTEP
55000
ITEM: NUMBER OF ATOMS
18
ITEM: BOX BOUNDS pp pp pp
-1.8249966275840780e+01 1.6430946496915343e+01
-2.4371578867159634e+01 1.4144170625072228e+01
-9.0357078888282558e+00 2.0408366715423487e+01
ITEM: ATOMS id type mol x y z
3661 21 21 -16.679 -13.0186 -7.45418
3660 21 20 -11.3491 -12.7394 16.7864
3680 21 34 -15.4591 -5.69178 -1.75181
3641 21 11 -15.1239 11.371 17.4555
3664 21 24 -7.20796 -18.4013 -1.74863
3671 21 29 -5.96674 1.59393 5.37307
3667 21 27 -9.18946 9.83905 2.32985
3666 21 26 7.35585 -22.7281 -4.34947
3681 21 35 3.30517 -23.8822 6.62525
3665 21 25 -0.703698 -15.1149 -0.494566
3684 21 38 -0.831327 -9.38657 19.3312
3685 21 39 0.289444 -3.76372 8.24954
3673 21 31 7.50136 -2.8741 14.1897
3672 21 30 7.48507 1.26566 -1.87286
3662 21 22 13.4928 -18.9112 11.956
3683 21 37 13.4071 -2.10451 9.036
3682 21 36 8.90036 -3.60159 0.822689
3654 21 16 14.8271 4.19342 15.1259
ITEM: TIMESTEP
60000
ITEM: NUMBER OF ATOMS
17
ITEM: BOX BOUNDS pp pp pp
-1.8261136585086593e+01 1.6442116806161156e+01
-2.4128808579386845e+01 1.3901400337299439e+01
-9.2334683913539202e+00 2.0606127217929064e+01
ITEM: ATOMS id type mol x y z
3661 21 21 -16.6892 -12.919 -7.6307
3660 21 20 -11.3558 -12.6433 16.9355
3680 21 34 -15.4685 -5.68449 -1.85173
3641 21 11 -15.1331 11.1632 17.6136
3664 21 24 -7.21202 -18.2338 -1.8485
3671 21 29 -5.97 1.50937 5.36886
3667 21 27 -9.19479 9.65055 2.28476
3666 21 26 7.36117 -22.506 -4.48428
3681 21 35 3.30789 -23.6456 6.63786
3665 21 25 -0.703565 -14.9889 -0.577593
3684 21 38 -0.831276 -9.3327 19.5145
3685 21 39 0.290217 -3.78074 8.28397
3673 21 31 7.50677 -2.90233 14.3039
3662 21 22 13.5021 -18.7373 12.0402
3683 21 37 13.4163 -2.14244 9.08099
3682 21 36 8.90668 -3.62066 0.757356
3654 21 16 14.8372 4.07609 15.2527
ITEM: TIMESTEP
65000
ITEM: NUMBER OF ATOMS
19
ITEM: BOX BOUNDS pp pp pp
-1.8248530998788976e+01 1.6429511219863539e+01
-2.4152479158469596e+01 1.3925070916382190e+01
-9.1420369480699861e+00 2.0514695774628535e+01
ITEM: ATOMS id type mol x y z
3661 21 21 -16.6777 -12.9287 -7.54909
3660 21 20 -11.3482 -12.6527 16.8666
3680 21 34 -15.4579 -5.6852 -1.80554
3641 21 11 -15.1228 11.1835 17.5405
3664 21 24 -7.20744 -18.2501 -1.80233
3671 21 29 -5.96632 1.51762 5.37081
3693 21 43 -3.76854 8.09804 -8.73377
3667 21 27 -9.18877 9.66893 2.30561
3666 21 26 7.35516 -22.5277 -4.42196
3681 21 35 3.30483 -23.6687 6.63203
3665 21 25 -0.703715 -15.0012 -0.539207
3684 21 38 -0.831333 -9.33796 19.4297
3685 21 39 0.289345 -3.77908 8.26805
3673 21 31 7.50066 -2.89958 14.2511
3662 21 22 13.4917 -18.7543 12.0013
3683 21 37 13.4059 -2.13874 9.06019
3682 21 36 8.89954 -3.6188 0.787562
3654 21 16 14.8258 4.08753 15.1941
3692 21 42 11.6051 6.44222 -4.58899
ITEM: TIMESTEP
70000
ITEM: NUMBER OF ATOMS
19
ITEM: BOX BOUNDS pp pp pp
-1.8304739391670601e+01 1.6485719612745164e+01
-2.4329906231754915e+01 1.4102497989667508e+01
-9.0855932614569248e+00 2.0458252087998318e+01
ITEM: ATOMS id type mol x y z
3661 21 21 -16.7289 -13.0015 -7.49871
3660 21 20 -11.382 -12.7229 16.824
3680 21 34 -15.5051 -5.69053 -1.77702
3641 21 11 -15.1688 11.3354 17.4954
3664 21 24 -7.22786 -18.3725 -1.77382
3671 21 29 -5.98271 1.57941 5.37201
3693 21 43 -3.77781 8.22116 -8.67888
3667 21 27 -9.21561 9.80669 2.31847
3666 21 26 7.38196 -22.69 -4.38348
3681 21 35 3.31849 -23.8416 6.62843
3665 21 25 -0.703048 -15.0933 -0.51551
3684 21 38 -0.83108 -9.37732 19.3774
3685 21 39 0.293232 -3.76664 8.25823
3673 21 31 7.52792 -2.87895 14.2185
3662 21 22 13.5383 -18.8814 11.9773
3683 21 37 13.4523 -2.11102 9.04735
3682 21 36 8.93134 -3.60487 0.806209
3654 21 16 14.8768 4.17328 15.1579
3692 21 42 11.6457 6.54991 -4.54988
ITEM: TIMESTEP
75000
ITEM: NUMBER OF ATOMS
18
ITEM: BOX BOUNDS pp pp pp
-1.8382855465288291e+01 1.6563835686362854e+01
-2.4093815485360249e+01 1.3866407243272842e+01
-9.1652641441449987e+00 2.0537922970667452e+01
ITEM: ATOMS id type mol x y z
3661 21 21 -16.7999 -12.9046 -7.56982
3660 21 20 -11.4291 -12.6295 16.8841
3680 21 34 -15.5706 -5.68344 -1.81727
3694 21 44 -11.4992 -1.73017 7.74314
3641 21 11 -15.2329 11.1333 17.5591
3664 21 24 -7.25623 -18.2096 -1.81406
3671 21 29 -6.0055 1.49718 5.37031
3693 21 43 -3.79069 8.05733 -8.75635
3667 21 27 -9.25291 9.62338 2.30031
3666 21 26 7.41919 -22.474 -4.43779
3681 21 35 3.33747 -23.6115 6.63351
3665 21 25 -0.70212 -14.9707 -0.548959
3685 21 39 0.298633 -3.78319 8.2721
3673 21 31 7.56581 -2.9064 14.2646
3662 21 22 13.6032 -18.7122 12.0112
3683 21 37 13.5168 -2.14791 9.06547
3682 21 36 8.97553 -3.6234 0.779888
3654 21 16 14.9477 4.05918 15.209
ITEM: TIMESTEP
80000
ITEM: NUMBER OF ATOMS
19
ITEM: BOX BOUNDS pp pp pp
-1.8636552666233996e+01 1.6817532887308559e+01
-2.4214527594836738e+01 1.3987119352749332e+01
-8.9064044144142862e+00 2.0279063240923467e+01
ITEM: ATOMS id type mol x y z
3661 21 21 -17.0306 -12.9542 -7.33877
3660 21 20 -11.5818 -12.6773 16.6889
3680 21 34 -15.7835 -5.68706 -1.68649
3694 21 44 -11.6529 -1.70865 7.70729
3695 21 45 -18.4704 5.55189 16.8038
3641 21 11 -15.4408 11.2366 17.3522
3664 21 24 -7.34838 -18.2929 -1.68333
3671 21 29 -6.07949 1.53923 5.37582
3693 21 43 -3.83252 8.1411 -8.50462
3667 21 27 -9.37405 9.7171 2.35933
3666 21 26 7.54012 -22.5845 -4.26133
3681 21 35 3.39914 -23.7292 6.61701
3665 21 25 -0.699109 -15.0334 -0.440279
3685 21 39 0.316174 -3.77473 8.22703
3673 21 31 7.68887 -2.89237 14.115
3662 21 22 13.8139 -18.7987 11.901
3683 21 37 13.7262 -2.12905 9.00658
3682 21 36 9.11906 -3.61393 0.865406
3654 21 16 15.1779 4.11752 15.043
ITEM: TIMESTEP
85000
ITEM: NUMBER OF ATOMS
22
ITEM: BOX BOUNDS pp pp pp
-1.8382346938118605e+01 1.6563327159193168e+01
-2.4083420790496081e+01 1.3856012548408675e+01
-9.0863703927607276e+00 2.0459029219248968e+01
ITEM: ATOMS id type mol x y z
3661 21 21 -16.7994 -12.9003 -7.4994
3660 21 20 -11.4288 -12.6253 16.8246
3680 21 34 -15.5702 -5.68313 -1.77741
3694 21 44 -11.4989 -1.73202 7.73222
3695 21 45 -18.2185 5.47868 16.9409
3701 21 49 -15.4323 6.65033 17.9327
3641 21 11 -15.2325 11.1244 17.496
3664 21 24 -7.25605 -18.2024 -1.77421
3700 21 48 -1.09521 -17.0311 -4.13917
3671 21 29 -6.00535 1.49356 5.37199
3693 21 43 -3.79061 8.05012 -8.67963
3667 21 27 -9.25267 9.61531 2.3183
3666 21 26 7.41895 -22.4645 -4.38401
3681 21 35 3.33735 -23.6014 6.62848
3665 21 25 -0.702126 -14.9653 -0.515836
3685 21 39 0.298598 -3.78392 8.25836
3673 21 31 7.56557 -2.90761 14.219
3662 21 22 13.6028 -18.7048 11.9776
3683 21 37 13.5164 -2.14953 9.04752
3682 21 36 8.97525 -3.62422 0.805952
3696 21 46 7.9378 -1.94622 11.0423
3654 21 16 14.9472 4.05415 15.1584
ITEM: TIMESTEP
90000
ITEM: NUMBER OF ATOMS
21
ITEM: BOX BOUNDS pp pp pp
-1.8453055124489314e+01 1.6634035345563877e+01
-2.4165651622929214e+01 1.3938243380841808e+01
-8.9196552328357086e+00 2.0292314059309668e+01
ITEM: ATOMS id type mol x y z
3661 21 21 -16.8637 -12.9341 -7.3506
3660 21 20 -11.4713 -12.6579 16.6989
3680 21 34 -15.6295 -5.6856 -1.69318
3694 21 44 -11.5417 -1.71736 7.70913
3695 21 45 -18.2886 5.5246 16.8138
3701 21 49 -15.4911 6.70132 17.7945
3641 21 11 -15.2904 11.1948 17.3628
3664 21 24 -7.28173 -18.2592 -1.69002
3700 21 48 -1.09597 -17.0827 -4.02828
3671 21 29 -6.02597 1.5222 5.37554
3693 21 43 -3.80226 8.10718 -8.51751
3667 21 27 -9.28643 9.67915 2.35631
3666 21 26 7.45265 -22.5397 -4.27036
3681 21 35 3.35454 -23.6815 6.61785
3665 21 25 -0.701287 -15.008 -0.445842
3685 21 39 0.303486 -3.77816 8.22934
3673 21 31 7.59986 -2.89805 14.1227
3683 21 37 13.5748 -2.13669 9.00959
3682 21 36 9.01525 -3.61776 0.861029
3696 21 46 7.9736 -1.93249 10.9819
3654 21 16 15.0114 4.0939 15.0515
ITEM: TIMESTEP
95000
ITEM: NUMBER OF ATOMS
25
ITEM: BOX BOUNDS pp pp pp
-1.8453019270438528e+01 1.6633999491513091e+01
-2.4206309004157475e+01 1.3978900762070069e+01
-9.0880664624597074e+00 2.0460725288912741e+01
ITEM: ATOMS id type mol x y z
3661 21 21 -16.8637 -12.9508 -7.50092
3660 21 20 -11.4713 -12.674 16.8259
3680 21 34 -15.6295 -5.68682 -1.77827
3694 21 44 -11.5417 -1.71012 7.73245
3705 21 53 -11.2804 5.26356 20.2059
3695 21 45 -18.2886 5.5473 16.9422
3701 21 49 -15.4911 6.72654 17.9341
3641 21 11 -15.2904 11.2296 17.4974
3664 21 24 -7.28172 -18.2872 -1.77507
3700 21 48 -1.09597 -17.1083 -4.1403
3671 21 29 -6.02596 1.53636 5.37195
3693 21 43 -3.80226 8.13539 -8.68128
3667 21 27 -9.28641 9.71072 2.31791
3704 21 52 -3.42232 7.9212 12.7558
3666 21 26 7.45263 -22.5769 -4.38516
3681 21 35 3.35453 -23.7212 6.62859
3665 21 25 -0.701288 -15.0291 -0.516548
3685 21 39 0.303484 -3.77531 8.25866
3673 21 31 7.59985 -2.89332 14.22
3706 21 54 8.32741 -21.585 13.7327
3683 21 37 13.5747 -2.13033 9.04791
3682 21 36 9.01523 -3.61457 0.805392
3696 21 46 7.97359 -1.9257 11.0429
3702 21 50 10.0362 -1.1217 7.32643
3654 21 16 15.0114 4.11355 15.1595
ITEM: TIMESTEP
100000
ITEM: NUMBER OF ATOMS
25
ITEM: BOX BOUNDS pp pp pp
-1.8554584868519687e+01 1.6735565089594250e+01
-2.4171269907193530e+01 1.3943861665106123e+01
-9.0258517786276222e+00 2.0398510605064295e+01
ITEM: ATOMS id type mol x y z
3661 21 21 -16.9561 -12.9364 -7.44538
3660 21 20 -11.5325 -12.6601 16.779
3680 21 34 -15.7147 -5.68577 -1.74683
3694 21 44 -11.6032 -1.71636 7.72384
3705 21 53 -11.3404 5.24451 20.1448
3695 21 45 -18.3892 5.52774 16.8948
3701 21 49 -15.5755 6.70481 17.8825
3641 21 11 -15.3736 11.1996 17.4477
3664 21 24 -7.31861 -18.2631 -1.74365
3700 21 48 -1.09705 -17.0862 -4.09892
3671 21 29 -6.05558 1.52416 5.37328
3693 21 43 -3.81901 8.11108 -8.62078
3667 21 27 -9.33491 9.68352 2.33209
3704 21 52 -3.43687 7.89728 12.726
3666 21 26 7.50105 -22.5449 -4.34275
3681 21 35 3.37921 -23.687 6.62462
3665 21 25 -0.700082 -15.0109 -0.490428
3685 21 39 0.310506 -3.77776 8.24783
3673 21 31 7.64911 -2.8974 14.184
3706 21 54 8.38089 -21.5547 13.6989
3683 21 37 13.6586 -2.13581 9.03375
3682 21 36 9.07269 -3.61732 0.825945
3696 21 46 8.02501 -1.93155 11.0204
3702 21 50 10.0996 -1.12903 7.31952
3654 21 16 15.1035 4.09661 15.1196
ITEM: TIMESTEP
105000
ITEM: NUMBER OF ATOMS
26
ITEM: BOX BOUNDS pp pp pp
-1.8445229090065347e+01 1.6626209311139910e+01
-2.4416850418535521e+01 1.4189442176448114e+01
-9.0488642249649516e+00 2.0421523051383474e+01
ITEM: ATOMS id type mol x y z
3661 21 21 -16.8566 -13.0372 -7.46592
3660 21 20 -11.4666 -12.7574 16.7963
3680 21 34 -15.623 -5.69314 -1.75846
3694 21 44 -11.537 -1.67258 7.72702
3705 21 53 -11.2757 5.37799 20.1674
3695 21 45 -18.2808 5.66487 16.9123
3701 21 49 -15.4846 6.85711 17.9016
3641 21 11 -15.284 11.4098 17.4661
3664 21 24 -7.27889 -18.4325 -1.75527
3700 21 48 -1.09588 -17.2405 -4.11422
3671 21 29 -6.02369 1.6097 5.37279
3693 21 43 -3.80097 8.2815 -8.64316
3667 21 27 -9.28269 9.8742 2.32685
3704 21 52 -3.4212 8.06494 12.7371
3666 21 26 7.44892 -22.7695 -4.35844
3681 21 35 3.35263 -23.9264 6.62609
3665 21 25 -0.70138 -15.1385 -0.500089
3685 21 39 0.302945 -3.76055 8.25183
3673 21 31 7.59607 -2.86884 14.1973
3710 21 56 14.6087 -17.6354 -1.48716
3706 21 54 8.32331 -21.7666 13.7114
3683 21 37 13.5683 -2.09743 9.03899
3682 21 36 9.01082 -3.59804 0.818343
3696 21 46 7.96964 -1.89055 11.0287
3702 21 50 10.0314 -1.07768 7.32208
3654 21 16 15.0043 4.2153 15.1343
ITEM: TIMESTEP
110000
ITEM: NUMBER OF ATOMS
28
ITEM: BOX BOUNDS pp pp pp
-1.8528909001387419e+01 1.6709889222461982e+01
-2.4200980434874648e+01 1.3973572192787241e+01
-9.1392256578472058e+00 2.0511884484245872e+01
ITEM: ATOMS id type mol x y z
3661 21 21 -16.9327 -12.9486 -7.54658
3660 21 20 -11.517 -12.6719 16.8645
3680 21 34 -15.6932 -5.68666 -1.80412
3694 21 44 -11.5877 -1.71107 7.73954
3715 21 59 -10.168 2.18659 8.06221
3705 21 53 -11.3252 5.26066 20.2562
3695 21 45 -18.3637 5.54433 16.9811
3701 21 49 -15.5541 6.72323 17.9765
3641 21 11 -15.3526 11.225 17.5383
3664 21 24 -7.30928 -18.2836 -1.80091
3700 21 48 -1.09677 -17.1049 -4.17432
3671 21 29 -6.04809 1.53451 5.37087
3693 21 43 -3.81477 8.1317 -8.73103
3667 21 27 -9.32265 9.70659 2.30625
3704 21 52 -3.43319 7.91757 12.7803
3666 21 26 7.48881 -22.5721 -4.42004
3681 21 35 3.37297 -23.716 6.63185
3665 21 25 -0.700387 -15.0263 -0.538027
3685 21 39 0.308731 -3.77568 8.26756
3673 21 31 7.63665 -2.89394 14.2495
3714 21 58 -0.906496 11.5905 15.2135
3710 21 56 14.6828 -17.4954 -1.53115
3706 21 54 8.36737 -21.5804 13.7606
3683 21 37 13.6374 -2.13117 9.05955
3682 21 36 9.05816 -3.61499 0.78849
3696 21 46 8.01201 -1.92659 11.0615
3702 21 50 10.0836 -1.12282 7.33211
3654 21 16 15.0802 4.11097 15.1923
ITEM: TIMESTEP
115000
ITEM: NUMBER OF ATOMS
31
ITEM: BOX BOUNDS pp pp pp
-1.8419211360777194e+01 1.6600191581851757e+01
-2.4119212311553564e+01 1.3891804069466158e+01
-9.1731426812452845e+00 2.0545801507625292e+01
ITEM: ATOMS id type mol x y z
3717 21 61 -14.6206 -21.7091 9.80871
3661 21 21 -16.833 -12.915 -7.57685
3660 21 20 -11.451 -12.6395 16.89
3680 21 34 -15.6011 -5.6842 -1.82125
3694 21 44 -11.5212 -1.72564 7.74424
3718 21 62 -15.3968 -2.97365 13.0906
3715 21 59 -10.1104 2.15532 8.06764
3705 21 53 -11.2604 5.21622 20.2896
3695 21 45 -18.2551 5.49867 17.007
3701 21 49 -15.463 6.67253 18.0047
3641 21 11 -15.2627 11.155 17.5654
3664 21 24 -7.26944 -18.2271 -1.81804
3700 21 48 -1.09561 -17.0535 -4.19688
3716 21 60 -2.96851 -12.0273 8.36098
3671 21 29 -6.0161 1.50603 5.37014
3693 21 43 -3.79668 8.07495 -8.76401
3667 21 27 -9.27027 9.6431 2.29851
3704 21 52 -3.41748 7.86174 12.7965
3666 21 26 7.43652 -22.4973 -4.44316
3681 21 35 3.34631 -23.6363 6.63402
3665 21 25 -0.701689 -14.9839 -0.552266
3685 21 39 0.301146 -3.78141 8.27347
3673 21 31 7.58345 -2.90345 14.2691
3714 21 58 -0.906515 11.519 15.2353
3710 21 56 14.5857 -17.4423 -1.54766
3706 21 54 8.30961 -21.5098 13.7791
3683 21 37 13.5468 -2.14394 9.06727
3682 21 36 8.9961 -3.62141 0.777285
3696 21 46 7.95647 -1.94024 11.0738
3702 21 50 10.0151 -1.13992 7.33587
3654 21 16 14.9807 4.07145 15.214
ITEM: TIMESTEP
120000
ITEM: NUMBER OF ATOMS
31
ITEM: BOX BOUNDS pp pp pp
-1.8633732124739328e+01 1.6814712345813891e+01
-2.4063493321243509e+01 1.3836085079156103e+01
-9.1013714165698190e+00 2.0474030242933999e+01
ITEM: ATOMS id type mol x y z
3717 21 61 -14.7886 -21.6605 9.7888
3661 21 21 -17.028 -12.8922 -7.51279
3660 21 20 -11.5801 -12.6175 16.8359
3680 21 34 -15.7811 -5.68253 -1.78499
3694 21 44 -11.6512 -1.73558 7.7343
3718 21 62 -15.5743 -2.97992 13.0549
3715 21 59 -10.2231 2.13401 8.05614
3705 21 53 -11.3872 5.18593 20.219
3695 21 45 -18.4676 5.46756 16.9523
3701 21 49 -15.6413 6.63797 17.9452
3641 21 11 -15.4385 11.1073 17.508
3664 21 24 -7.34736 -18.1887 -1.78179
3700 21 48 -1.09789 -17.0185 -4.14915
3671 21 29 -6.07866 1.48662 5.37167
3693 21 43 -3.83206 8.03629 -8.69422
3667 21 27 -9.3727 9.59983 2.31488
3704 21 52 -3.4482 7.8237 12.7622
3666 21 26 7.53877 -22.4463 -4.39423
3681 21 35 3.39845 -23.582 6.62944
3665 21 25 -0.699143 -14.9549 -0.522134
3685 21 39 0.315979 -3.78532 8.26097
3673 21 31 7.6875 -2.90993 14.2276
3714 21 58 -0.906478 11.4702 15.1892
3710 21 56 14.7755 -17.4062 -1.51272
3706 21 54 8.42256 -21.4618 13.74
3719 21 63 14.9002 -13.6492 0.364227
3683 21 37 13.7239 -2.15265 9.05094
3682 21 36 9.11746 -3.62578 0.800996
3696 21 46 8.06509 -1.94955 11.0478
3702 21 50 10.149 -1.15157 7.32791
3654 21 16 15.1754 4.04452 15.168
ITEM: TIMESTEP
125000
ITEM: NUMBER OF ATOMS
33
ITEM: BOX BOUNDS pp pp pp
-1.8351162715213526e+01 1.6532142936288089e+01
-2.4251391616856370e+01 1.4023983374768964e+01
-9.1859054113223984e+00 2.0558564237666609e+01
ITEM: ATOMS id type mol x y z
3717 21 61 -14.5674 -21.8246 9.81225
3661 21 21 -16.7711 -12.9693 -7.58824
3660 21 20 -11.41 -12.6919 16.8997
3680 21 34 -15.544 -5.68817 -1.8277
3694 21 44 -11.48 -1.70208 7.746
3718 21 62 -15.3405 -2.95877 13.097
3715 21 59 -10.0746 2.20587 8.06969
3705 21 53 -11.2201 5.28806 20.3021
3695 21 45 -18.1877 5.57248 17.0167
3701 21 49 -15.4064 6.7545 18.0152
3641 21 11 -15.2069 11.2682 17.5756
3664 21 24 -7.24472 -18.3183 -1.82448
3700 21 48 -1.09488 -17.1366 -4.20537
3671 21 29 -5.99625 1.55207 5.36987
3693 21 43 -3.78546 8.16668 -8.77643
3667 21 27 -9.23778 9.74573 2.2956
3704 21 52 -3.40773 7.95198 12.8026
3666 21 26 7.40408 -22.6182 -4.45186
3681 21 35 3.32977 -23.7651 6.63483
3665 21 25 -0.702497 -15.0525 -0.557625
3685 21 39 0.296441 -3.77215 8.27569
3673 21 31 7.55044 -2.88808 14.2765
3714 21 58 -0.906526 11.6346 15.2435
3710 21 56 14.5255 -17.5281 -1.55387
3706 21 54 8.27378 -21.6239 13.786
3720 21 64 13.3256 -22.2588 19.0767
3719 21 63 14.6481 -13.7339 0.333803
3683 21 37 13.4906 -2.12329 9.07017
3682 21 36 8.95761 -3.61103 0.773069
3696 21 46 7.92201 -1.91817 11.0784
3702 21 50 9.97267 -1.11228 7.33729
3654 21 16 14.9189 4.13533 15.2222
3724 21 66 12.0216 6.60475 -4.4198
ITEM: TIMESTEP
130000
ITEM: NUMBER OF ATOMS
34
ITEM: BOX BOUNDS pp pp pp
-1.8452564319838746e+01 1.6633544540913309e+01
-2.4226751220618592e+01 1.3999342978531185e+01
-9.1037959848617191e+00 2.0476454811190447e+01
ITEM: ATOMS id type mol x y z
3717 21 61 -14.6468 -21.803 9.78947
3661 21 21 -16.8633 -12.9592 -7.51496
3660 21 20 -11.471 -12.6821 16.8378
3680 21 34 -15.6291 -5.68743 -1.78621
3694 21 44 -11.5414 -1.70647 7.73463
3718 21 62 -15.4244 -2.96154 13.0561
3715 21 59 -10.1279 2.19645 8.05653
3705 21 53 -11.2801 5.27467 20.2214
3695 21 45 -18.2881 5.55872 16.9541
3701 21 49 -15.4907 6.73922 17.9472
3641 21 11 -15.29 11.2471 17.51
3664 21 24 -7.28155 -18.3013 -1.78301
3700 21 48 -1.09596 -17.1211 -4.15076
3671 21 29 -6.02583 1.54348 5.37162
3693 21 43 -3.80218 8.14958 -8.69658
3725 21 67 -4.09005 12.2755 -6.47044
3667 21 27 -9.28619 9.72659 2.31432
3704 21 52 -3.42225 7.93516 12.7633
3666 21 26 7.45242 -22.5956 -4.39589
3681 21 35 3.35442 -23.7411 6.62959
3665 21 25 -0.701293 -15.0397 -0.523152
3685 21 39 0.303453 -3.77388 8.2614
3673 21 31 7.59962 -2.89094 14.229
3714 21 58 -0.906509 11.6131 15.1907
3710 21 56 14.6152 -17.5121 -1.5139
3706 21 54 8.32717 -21.6026 13.7413
3720 21 64 13.4083 -22.2368 19.0028
3719 21 63 14.7386 -13.7228 0.363354
3683 21 37 13.5743 -2.12714 9.05149
3682 21 36 9.01497 -3.61297 0.800195
3696 21 46 7.97336 -1.92229 11.0486
3702 21 50 10.0359 -1.11743 7.32818
3654 21 16 15.0109 4.12342 15.1696
3724 21 66 12.0968 6.58966 -4.364
ITEM: TIMESTEP
135000
ITEM: NUMBER OF ATOMS
33
ITEM: BOX BOUNDS pp pp pp
-1.8504968421261587e+01 1.6685948642336150e+01
-2.4099307808473924e+01 1.3871899566386517e+01
-9.1803262435789286e+00 2.0552985069887203e+01
ITEM: ATOMS id type mol x y z
3717 21 61 -14.6878 -21.6918 9.81071
3661 21 21 -16.911 -12.9069 -7.58326
3660 21 20 -11.5026 -12.6316 16.8955
3680 21 34 -15.6731 -5.68361 -1.82488
3694 21 44 -11.5732 -1.72919 7.74523
3718 21 62 -15.4678 -2.97589 13.0942
3715 21 59 -10.1554 2.1477 8.06879
3695 21 45 -18.34 5.48756 17.0124
3701 21 49 -15.5342 6.66018 18.0106
3641 21 11 -15.333 11.138 17.5712
3664 21 24 -7.30059 -18.2134 -1.82166
3700 21 48 -1.09652 -17.041 -4.20166
3671 21 29 -6.04111 1.4991 5.36999
3693 21 43 -3.81082 8.06114 -8.771
3725 21 67 -4.09955 12.1596 -6.53334
3667 21 27 -9.31122 9.62764 2.29688
3704 21 52 -3.42976 7.84815 12.8
3666 21 26 7.4774 -22.4791 -4.44806
3681 21 35 3.36715 -23.6169 6.63448
3665 21 25 -0.700671 -14.9735 -0.555282
3685 21 39 0.307076 -3.78281 8.27472
3673 21 31 7.62504 -2.90576 14.2733
3714 21 58 -0.9065 11.5015 15.2399
3706 21 54 8.35476 -21.4926 13.783
3720 21 64 13.4511 -22.1226 19.0717
3719 21 63 14.7853 -13.6654 0.335811
3683 21 37 13.6176 -2.14705 9.0689
3682 21 36 9.04462 -3.62297 0.774912
3696 21 46 7.99989 -1.94357 11.0764
3726 21 68 8.89193 -0.589001 -1.86828
3702 21 50 10.0686 -1.14408 7.33667
3654 21 16 15.0585 4.06183 15.2186
3724 21 66 12.1357 6.51163 -4.416
ITEM: TIMESTEP
140000
ITEM: NUMBER OF ATOMS
33
ITEM: BOX BOUNDS pp pp pp
-1.8654761534439871e+01 1.6835741755514434e+01
-2.4330525929466415e+01 1.4103117687379008e+01
-9.0655525638938421e+00 2.0438211390187988e+01
ITEM: ATOMS id type mol x y z
3717 21 61 -14.8051 -21.8937 9.77886
3661 21 21 -17.0472 -13.0018 -7.48082
3660 21 20 -11.5928 -12.7232 16.8089
3680 21 34 -15.7988 -5.69055 -1.76689
3694 21 44 -11.664 -1.68797 7.72934
3718 21 62 -15.5917 -2.94986 13.037
3715 21 59 -10.2342 2.23614 8.0504
3695 21 45 -18.4884 5.61666 16.925
3701 21 49 -15.6587 6.80357 17.9155
3641 21 11 -15.4558 11.3359 17.4794
3664 21 24 -7.35499 -18.3729 -1.7637
3700 21 48 -1.09811 -17.1863 -4.12532
3671 21 29 -6.0848 1.57963 5.37243
3693 21 43 -3.83552 8.22159 -8.65939
3725 21 67 -4.1267 12.37 -6.439
3667 21 27 -9.38274 9.80717 2.32304
3704 21 52 -3.45122 8.00601 12.745
3666 21 26 7.54879 -22.6906 -4.36982
3681 21 35 3.40356 -23.8422 6.62716
3665 21 25 -0.698893 -15.0936 -0.507096
3685 21 39 0.317433 -3.7666 8.25474
3673 21 31 7.6977 -2.87888 14.207
3714 21 58 -0.906474 11.7039 15.1661
3706 21 54 8.43363 -21.6921 13.7205
3720 21 64 13.5734 -22.3297 18.9683
3719 21 63 14.9189 -13.7695 0.377118
3683 21 37 13.7413 -2.11092 9.04279
3682 21 36 9.12936 -3.60482 0.812829
3696 21 46 8.07574 -1.90496 11.0348
3726 21 68 8.97538 -0.533897 -1.80996
3702 21 50 10.1621 -1.09573 7.32393
3654 21 16 15.1944 4.17358 15.145
3724 21 66 12.2467 6.65321 -4.33801
ITEM: TIMESTEP
145000
ITEM: NUMBER OF ATOMS
34
ITEM: BOX BOUNDS pp pp pp
-1.8536493274118701e+01 1.6717473495193264e+01
-2.4230423382666800e+01 1.4003015140579393e+01
-9.0761413590534055e+00 2.0448800185329397e+01
ITEM: ATOMS id type mol x y z
3717 21 61 -14.7125 -21.8063 9.7818
3661 21 21 -16.9396 -12.9607 -7.49027
3660 21 20 -11.5216 -12.6836 16.8169
3680 21 34 -15.6996 -5.68754 -1.77224
3694 21 44 -11.5923 -1.70582 7.7308
3718 21 62 -15.4938 -2.96113 13.0423
3715 21 59 -10.172 2.19785 8.0521
3695 21 45 -18.3712 5.56077 16.9331
3701 21 49 -15.5604 6.74149 17.9242
3641 21 11 -15.3588 11.2502 17.4879
3664 21 24 -7.31204 -18.3039 -1.76905
3700 21 48 -1.09685 -17.1234 -4.13237
3730 21 70 -5.80129 -9.34929 8.12477
3671 21 29 -6.0503 1.54476 5.37221
3693 21 43 -3.81602 8.15213 -8.66968
3725 21 67 -4.10526 12.2789 -6.44771
3667 21 27 -9.32627 9.72945 2.32063
3704 21 52 -3.43428 7.93767 12.7501
3666 21 26 7.49242 -22.599 -4.37704
3681 21 35 3.37482 -23.7447 6.62783
3665 21 25 -0.700297 -15.0416 -0.511541
3685 21 39 0.309256 -3.77362 8.25658
3673 21 31 7.64033 -2.89052 14.2131
3714 21 58 -0.906494 11.6163 15.1729
3720 21 64 13.4768 -22.24 18.9779
3706 21 54 8.37136 -21.6058 13.7263
3719 21 63 14.8135 -13.7244 0.373307
3683 21 37 13.6436 -2.12656 9.0452
3682 21 36 9.06245 -3.61268 0.809331
3696 21 46 8.01585 -1.92167 11.0386
3726 21 68 8.9095 -0.557753 -1.81534
3702 21 50 10.0883 -1.11666 7.32511
3654 21 16 15.0871 4.1252 15.1518
3724 21 66 12.159 6.59191 -4.34521
ITEM: TIMESTEP
150000
ITEM: NUMBER OF ATOMS
35
ITEM: BOX BOUNDS pp pp pp
-1.8481817661373100e+01 1.6662797882447663e+01
-2.4403350490088684e+01 1.4175942248001277e+01
-9.0080271874375732e+00 2.0380686013697972e+01
ITEM: ATOMS id type mol x y z
3717 21 61 -14.6697 -21.9573 9.76291
3661 21 21 -16.8899 -13.0317 -7.42947
3660 21 20 -11.4886 -12.752 16.7655
3680 21 34 -15.6537 -5.69273 -1.73783
3694 21 44 -11.5591 -1.67499 7.72137
3718 21 62 -15.4486 -2.94166 13.0083
3715 21 59 -10.1433 2.26399 8.04118
3695 21 45 -18.3171 5.65733 16.8812
3701 21 49 -15.515 6.84873 17.8678
3641 21 11 -15.314 11.3982 17.4334
3664 21 24 -7.29218 -18.4232 -1.73465
3700 21 48 -1.09627 -17.232 -4.08706
3730 21 70 -5.78612 -9.38761 8.11352
3671 21 29 -6.03436 1.605 5.37366
3693 21 43 -3.80701 8.27213 -8.60345
3725 21 67 -4.09535 12.4362 -6.39172
3667 21 27 -9.30016 9.86372 2.33616
3731 21 71 -6.89137 7.66249 3.4689
3704 21 52 -3.42644 8.05573 12.7175
3666 21 26 7.46636 -22.7572 -4.3306
3681 21 35 3.36153 -23.9132 6.62349
3665 21 25 -0.700946 -15.1314 -0.482944
3685 21 39 0.305475 -3.7615 8.24472
3673 21 31 7.61381 -2.87041 14.1737
3714 21 58 -0.906504 11.7676 15.1292
3720 21 64 13.4322 -22.395 18.9165
3706 21 54 8.34257 -21.7549 13.6892
3719 21 63 14.7647 -13.8023 0.397821
3683 21 37 13.5985 -2.09954 9.0297
3682 21 36 9.03152 -3.5991 0.831834
3696 21 46 7.98817 -1.8928 11.0139
3726 21 68 8.87904 -0.516541 -1.78073
3702 21 50 10.0542 -1.08051 7.31754
3654 21 16 15.0375 4.20877 15.1082
3724 21 66 12.1185 6.6978 -4.29892
ITEM: TIMESTEP
155000
ITEM: NUMBER OF ATOMS
36
ITEM: BOX BOUNDS pp pp pp
-1.8498522254781200e+01 1.6679502475855763e+01
-2.4399169601152565e+01 1.4171761359065158e+01
-9.0041061297462122e+00 2.0376764955989255e+01
ITEM: ATOMS id type mol x y z
3717 21 61 -14.6827 -21.9536 9.76182
3661 21 21 -16.9051 -13.03 -7.42597
3660 21 20 -11.4987 -12.7504 16.7626
3680 21 34 -15.6677 -5.69261 -1.73585
3694 21 44 -11.5693 -1.67574 7.72083
3718 21 62 -15.4624 -2.94213 13.0064
3715 21 59 -10.1521 2.26239 8.04055
3695 21 45 -18.3336 5.65499 16.8782
3701 21 49 -15.5289 6.84614 17.8645
3641 21 11 -15.3277 11.3947 17.4303
3664 21 24 -7.29824 -18.4203 -1.73267
3700 21 48 -1.09645 -17.2294 -4.08445
3730 21 70 -5.79075 -9.38668 8.11287
3671 21 29 -6.03923 1.60354 5.37374
3693 21 43 -3.80976 8.26923 -8.59963
3725 21 67 -4.09838 12.4324 -6.3885
3667 21 27 -9.30814 9.86047 2.33705
3731 21 71 -6.89706 7.65972 3.46949
3704 21 52 -3.42884 8.05287 12.7156
3666 21 26 7.47432 -22.7533 -4.32793
3681 21 35 3.36559 -23.9091 6.62324
3665 21 25 -0.700748 -15.1293 -0.481298
3685 21 39 0.30663 -3.76179 8.24404
3673 21 31 7.62192 -2.87089 14.1715
3714 21 58 -0.906501 11.764 15.1266
3720 21 64 13.4458 -22.3912 18.913
3706 21 54 8.35137 -21.7513 13.687
3719 21 63 14.7796 -13.8004 0.399232
3683 21 37 13.6123 -2.1002 9.02881
3682 21 36 9.04097 -3.59943 0.833129
3696 21 46 7.99663 -1.8935 11.0125
3726 21 68 8.88834 -0.517537 -1.77873
3702 21 50 10.0646 -1.08138 7.31711
3654 21 16 15.0527 4.20675 15.1056
3724 21 66 12.1309 6.69524 -4.29626
3732 21 72 14.5275 8.36844 -1.7457
ITEM: TIMESTEP
160000
ITEM: NUMBER OF ATOMS
37
ITEM: BOX BOUNDS pp pp pp
-1.8508389936327017e+01 1.6689370157401580e+01
-2.4338270478972021e+01 1.4110862236884614e+01
-9.0722670445766269e+00 2.0444925870799384e+01
ITEM: ATOMS id type mol x y z
3717 21 61 -14.6905 -21.9004 9.78073
3661 21 21 -16.9141 -13.005 -7.48681
3660 21 20 -11.5046 -12.7263 16.814
3680 21 34 -15.676 -5.69078 -1.77029
3694 21 44 -11.5752 -1.68659 7.73026
3718 21 62 -15.4706 -2.94898 13.0404
3715 21 59 -10.1572 2.2391 8.05147
3695 21 45 -18.3434 5.62099 16.9301
3734 21 74 -10.1735 11.6206 4.15845
3701 21 49 -15.5371 6.80837 17.921
3641 21 11 -15.3358 11.3425 17.4848
3664 21 24 -7.30183 -18.3783 -1.76709
3700 21 48 -1.09655 -17.1912 -4.12979
3730 21 70 -5.79349 -9.37319 8.12413
3671 21 29 -6.04211 1.58233 5.37229
3693 21 43 -3.81139 8.22697 -8.66592
3725 21 67 -4.10017 12.377 -6.44452
3731 21 71 -6.90041 7.61938 3.45921
3704 21 52 -3.43025 8.0113 12.7483
3666 21 26 7.47903 -22.6976 -4.37439
3681 21 35 3.36799 -23.8498 6.62758
3665 21 25 -0.70063 -15.0976 -0.509915
3685 21 39 0.307312 -3.76606 8.25591
3673 21 31 7.6267 -2.87797 14.2108
3733 21 73 2.57763 -0.560362 16.6229
3714 21 58 -0.906499 11.7107 15.1705
3706 21 54 8.35656 -21.6988 13.7241
3719 21 63 14.7884 -13.773 0.374701
3735 21 75 12.7905 -12.9948 4.91216
3683 21 37 13.6204 -2.10971 9.04431
3682 21 36 9.04655 -3.60421 0.810611
3696 21 46 8.00162 -1.90367 11.0372
3726 21 68 8.89384 -0.532051 -1.81337
3702 21 50 10.0708 -1.09411 7.32468
3654 21 16 15.0616 4.17732 15.1494
3724 21 66 12.1382 6.65795 -4.34258
3732 21 72 14.5362 8.32587 -1.78019
ITEM: TIMESTEP
165000
ITEM: NUMBER OF ATOMS
37
ITEM: BOX BOUNDS pp pp pp
-1.8477606584297479e+01 1.6658586805372043e+01
-2.4364800188480228e+01 1.4137391946392821e+01
-9.0628966129239075e+00 2.0435555439129526e+01
ITEM: ATOMS id type mol x y z
3717 21 61 -14.6664 -21.9236 9.77813
3661 21 21 -16.8861 -13.0158 -7.47845
3660 21 20 -11.4861 -12.7368 16.8069
3680 21 34 -15.6501 -5.69158 -1.76555
3694 21 44 -11.5566 -1.68186 7.72897
3718 21 62 -15.4451 -2.946 13.0357
3715 21 59 -10.1411 2.24925 8.04997
3695 21 45 -18.3129 5.6358 16.923
3734 21 74 -10.1573 11.6437 4.15942
3701 21 49 -15.5115 6.82483 17.9133
3641 21 11 -15.3105 11.3652 17.4773
3664 21 24 -7.29065 -18.3966 -1.76236
3700 21 48 -1.09623 -17.2078 -4.12356
3730 21 70 -5.78495 -9.37906 8.12258
3671 21 29 -6.03313 1.59157 5.37249
3693 21 43 -3.80631 8.24538 -8.6568
3725 21 67 -4.09459 12.4011 -6.43682
3731 21 71 -6.88994 7.63695 3.46062
3704 21 52 -3.42584 8.02941 12.7438
3666 21 26 7.46435 -22.7219 -4.36801
3681 21 35 3.3605 -23.8756 6.62699
3665 21 25 -0.700996 -15.1114 -0.505981
3685 21 39 0.305184 -3.7642 8.25428
3673 21 31 7.61177 -2.87489 14.2054
3733 21 73 2.57154 -0.554078 16.6159
3714 21 58 -0.906505 11.7339 15.1644
3706 21 54 8.34036 -21.7217 13.719
3719 21 63 14.7609 -13.785 0.378074
3735 21 75 12.7666 -13.0057 4.91265
3683 21 37 13.595 -2.10557 9.04218
3682 21 36 9.02914 -3.60213 0.813707
3696 21 46 7.98604 -1.89924 11.0338
3726 21 68 8.87669 -0.525728 -1.80861
3702 21 50 10.0516 -1.08857 7.32364
3654 21 16 15.0337 4.19014 15.1433
3724 21 66 12.1154 6.67419 -4.33621
3732 21 72 14.5092 8.34442 -1.77545
ITEM: TIMESTEP
170000
ITEM: NUMBER OF ATOMS
37
ITEM: BOX BOUNDS pp pp pp
-1.8577274594659198e+01 1.6758254815733761e+01
-2.4414913384868520e+01 1.4187505142781113e+01
-8.9711186849787019e+00 2.0343777511170078e+01
ITEM: ATOMS id type mol x y z
3717 21 61 -14.7444 -21.9673 9.75267
3661 21 21 -16.9767 -13.0364 -7.39653
3660 21 20 -11.5461 -12.7566 16.7377
3680 21 34 -15.7338 -5.69308 -1.71918
3694 21 44 -11.617 -1.67293 7.71626
3718 21 62 -15.5276 -2.94035 12.9899
3715 21 59 -10.1934 2.26841 8.03527
3695 21 45 -18.4116 5.66378 16.8531
3734 21 74 -10.2097 11.6873 4.16892
3701 21 49 -15.5943 6.8559 17.8372
3641 21 11 -15.3922 11.4081 17.4039
3664 21 24 -7.32685 -18.4312 -1.71601
3700 21 48 -1.09729 -17.2393 -4.06251
3730 21 70 -5.81261 -9.39017 8.10743
3671 21 29 -6.0622 1.60902 5.37444
3693 21 43 -3.82275 8.28015 -8.56755
3725 21 67 -4.11266 12.4467 -6.36138
3731 21 71 -6.92386 7.67014 3.47447
3704 21 52 -3.44012 8.06362 12.6999
3666 21 26 7.51186 -22.7677 -4.30544
3681 21 35 3.38473 -23.9245 6.62113
3665 21 25 -0.699813 -15.1374 -0.467449
3685 21 39 0.312075 -3.76069 8.2383
3673 21 31 7.66011 -2.86906 14.1524
3733 21 73 2.59128 -0.542209 16.5479
3714 21 58 -0.906487 11.7777 15.1055
3706 21 54 8.39283 -21.7649 13.6691
3719 21 63 14.8498 -13.8075 0.411105
3735 21 75 12.8442 -13.0263 4.91747
3683 21 37 13.6773 -2.09774 9.0213
3682 21 36 9.08552 -3.59819 0.844027
3696 21 46 8.0365 -1.89087 11.0005
3726 21 68 8.93221 -0.513785 -1.76197
3702 21 50 10.1137 -1.07809 7.31345
3654 21 16 15.1241 4.21436 15.0845
3724 21 66 12.1893 6.70488 -4.27384
3732 21 72 14.5966 8.37945 -1.72902
ITEM: TIMESTEP
175000
ITEM: NUMBER OF ATOMS
38
ITEM: BOX BOUNDS pp pp pp
-1.8523498139769348e+01 1.6704478360843911e+01
-2.4167668127532174e+01 1.3940259885444767e+01
-9.1254437679821407e+00 2.0498102594149731e+01
ITEM: ATOMS id type mol x y z
3717 21 61 -14.7023 -21.7515 9.79548
3661 21 21 -16.9278 -12.9349 -7.53428
3660 21 20 -11.5137 -12.6587 16.8541
3680 21 34 -15.6886 -5.68566 -1.79715
3694 21 44 -11.5844 -1.71701 7.73763
3718 21 62 -15.4831 -2.96819 13.0668
3715 21 59 -10.1652 2.17385 8.06
3695 21 45 -18.3584 5.52573 16.9706
3734 21 74 -10.1814 11.4721 4.15295
3701 21 49 -15.5496 6.70258 17.9651
3641 21 11 -15.3482 11.1965 17.5273
3664 21 24 -7.30732 -18.2606 -1.79395
3700 21 48 -1.09671 -17.084 -4.16516
3730 21 70 -5.79768 -9.33539 8.13292
3671 21 29 -6.04651 1.52291 5.37116
3693 21 43 -3.81388 8.10858 -8.71763
3725 21 67 -4.10291 12.2218 -6.48823
3731 21 71 -6.90556 7.50639 3.45118
3704 21 52 -3.43241 7.89482 12.7737
3666 21 26 7.48623 -22.5416 -4.41064
3681 21 35 3.37166 -23.6835 6.63098
3665 21 25 -0.700451 -15.009 -0.53224
3685 21 39 0.308357 -3.77802 8.26517
3673 21 31 7.63403 -2.89781 14.2416
3733 21 73 2.58063 -0.600769 16.6623
3714 21 58 -0.906497 11.5614 15.2046
3706 21 54 8.36452 -21.5516 13.7531
3719 21 63 14.8019 -13.6962 0.355563
3735 21 75 12.8023 -12.9249 4.90937
3683 21 37 13.6329 -2.13637 9.05641
3682 21 36 9.0551 -3.61761 0.793043
3696 21 46 8.00927 -1.93215 11.0565
3726 21 68 8.90226 -0.572709 -1.84039
3702 21 50 10.0802 -1.12978 7.33058
3739 21 77 10.5856 4.41949 20.2464
3654 21 16 15.0753 4.09487 15.1834
3724 21 66 12.1494 6.55349 -4.37871
3732 21 72 14.5494 8.20661 -1.80709
ITEM: TIMESTEP
180000
ITEM: NUMBER OF ATOMS
38
ITEM: BOX BOUNDS pp pp pp
-1.8488989947797453e+01 1.6669970168872016e+01
-2.4269107283038746e+01 1.4041699040951340e+01
-9.1169782168326172e+00 2.0489637042982679e+01
ITEM: ATOMS id type mol x y z
3717 21 61 -14.6753 -21.84 9.79313
3661 21 21 -16.8964 -12.9766 -7.52672
3660 21 20 -11.493 -12.6989 16.8477
3680 21 34 -15.6597 -5.6887 -1.79288
3694 21 44 -11.5635 -1.69892 7.73646
3718 21 62 -15.4545 -2.95677 13.0626
3715 21 59 -10.147 2.21265 8.05864
3695 21 45 -18.3242 5.58237 16.9642
3734 21 74 -10.1633 11.5604 4.15382
3701 21 49 -15.5209 6.76548 17.9581
3641 21 11 -15.3199 11.2833 17.5205
3664 21 24 -7.29478 -18.3306 -1.78967
3700 21 48 -1.09635 -17.1477 -4.15953
3730 21 70 -5.78811 -9.35786 8.13152
3671 21 29 -6.03645 1.55824 5.37134
3693 21 43 -3.80819 8.17897 -8.7094
3725 21 67 -4.09665 12.3141 -6.48127
3740 21 78 -9.55265 7.52574 3.90999
3704 21 52 -3.42747 7.96408 12.7696
3666 21 26 7.46978 -22.6344 -4.40487
3681 21 35 3.36327 -23.7824 6.63044
3665 21 25 -0.700861 -15.0617 -0.528686
3685 21 39 0.305971 -3.77091 8.26369
3673 21 31 7.61729 -2.88602 14.2367
3733 21 73 2.57379 -0.576743 16.656
3714 21 58 -0.906503 11.6501 15.1992
3706 21 54 8.34635 -21.6391 13.7485
3719 21 63 14.7711 -13.7419 0.35861
3735 21 75 12.7754 -12.9665 4.90982
3683 21 37 13.6044 -2.12052 9.05449
3682 21 36 9.03558 -3.60964 0.79584
3696 21 46 7.9918 -1.91522 11.0534
3726 21 68 8.88303 -0.548534 -1.83609
3702 21 50 10.0587 -1.10857 7.32964
3739 21 77 10.5631 4.47025 20.2381
3654 21 16 15.044 4.14389 15.178
3732 21 72 14.5192 8.27752 -1.80281
3724 21 66 12.1238 6.6156 -4.37296
ITEM: TIMESTEP
185000
ITEM: NUMBER OF ATOMS
38
ITEM: BOX BOUNDS pp pp pp
-1.8481820530060464e+01 1.6662800751135027e+01
-2.4354579845481410e+01 1.4127171603394004e+01
-8.9995131315743642e+00 2.0372171957711725e+01
ITEM: ATOMS id type mol x y z
3717 21 61 -14.6697 -21.9147 9.76054
3661 21 21 -16.8899 -13.0116 -7.42188
3660 21 20 -11.4886 -12.7327 16.7591
3680 21 34 -15.6537 -5.69127 -1.73353
3694 21 44 -11.5591 -1.68369 7.72019
3718 21 62 -15.4486 -2.94715 13.0041
3715 21 59 -10.1433 2.24534 8.03982
3695 21 45 -18.3171 5.6301 16.8747
3734 21 74 -10.1595 11.6348 4.16598
3701 21 49 -15.515 6.81849 17.8607
3641 21 11 -15.314 11.3565 17.4266
3664 21 24 -7.29218 -18.3895 -1.73035
3700 21 48 -1.09627 -17.2014 -4.0814
3730 21 70 -5.78612 -9.3768 8.11212
3671 21 29 -6.03436 1.58801 5.37384
3693 21 43 -3.80701 8.23828 -8.59517
3725 21 67 -4.09535 12.3918 -6.38472
3740 21 78 -9.54912 7.58214 3.92408
3704 21 52 -3.42644 8.02243 12.7134
3666 21 26 7.46636 -22.7126 -4.3248
3681 21 35 3.36153 -23.8657 6.62294
3665 21 25 -0.700946 -15.1061 -0.47937
3685 21 39 0.305475 -3.76491 8.24324
3673 21 31 7.61381 -2.87608 14.1688
3733 21 73 2.57237 -0.556499 16.5689
3714 21 58 -0.906504 11.7249 15.1237
3706 21 54 8.34257 -21.7129 13.6845
3719 21 63 14.7647 -13.7804 0.400885
3735 21 75 12.7698 -13.0015 4.91598
3683 21 37 13.5985 -2.10716 9.02776
3682 21 36 9.03152 -3.60293 0.834646
3696 21 46 7.98817 -1.90094 11.0108
3726 21 68 8.87904 -0.528164 -1.7764
3702 21 50 10.0542 -1.0907 7.3166
3739 21 77 10.5584 4.51301 20.1227
3654 21 16 15.0375 4.1852 15.1027
3732 21 72 14.5129 8.33727 -1.74338
3724 21 66 12.1185 6.66794 -4.29314
ITEM: TIMESTEP
190000
ITEM: NUMBER OF ATOMS
36
ITEM: BOX BOUNDS pp pp pp
-1.8486338637907689e+01 1.6667318858982252e+01
-2.4540335750534375e+01 1.4312927508446968e+01
-9.0042357305105689e+00 2.0376894556630205e+01
ITEM: ATOMS id type mol x y z
3717 21 61 -14.6732 -22.0769 9.76185
3661 21 21 -16.894 -13.0879 -7.42609
3660 21 20 -11.4914 -12.8063 16.7627
3680 21 34 -15.6575 -5.69684 -1.73591
3694 21 44 -11.5619 -1.65057 7.72084
3718 21 62 -15.4523 -2.92623 13.0065
3715 21 59 -10.1457 2.31638 8.04057
3695 21 45 -18.3216 5.73382 16.8783
3734 21 74 -10.1619 11.7965 4.1655
3701 21 49 -15.5187 6.93368 17.8646
3641 21 11 -15.3177 11.5155 17.4304
3664 21 24 -7.29382 -18.5177 -1.73273
3730 21 70 -5.78737 -9.41796 8.1129
3671 21 29 -6.03568 1.65271 5.37374
3693 21 43 -3.80775 8.36719 -8.59976
3740 21 78 -9.55134 7.70471 3.92351
3704 21 52 -3.42709 8.14925 12.7157
3666 21 26 7.46852 -22.8825 -4.32802
3681 21 35 3.36263 -24.0467 6.62324
3665 21 25 -0.700892 -15.2026 -0.481353
3685 21 39 0.305788 -3.75189 8.24406
3673 21 31 7.61601 -2.85448 14.1715
3733 21 73 2.57327 -0.512503 16.5724
3714 21 58 -0.906503 11.8875 15.1267
3706 21 54 8.34495 -21.8731 13.6871
3719 21 63 14.7687 -13.864 0.399186
3735 21 75 12.7734 -13.0777 4.91573
3683 21 37 13.6022 -2.07814 9.02883
3682 21 36 9.03408 -3.58834 0.833086
3696 21 46 7.99046 -1.86993 11.0125
3726 21 68 8.88156 -0.483894 -1.7788
3702 21 50 10.057 -1.05186 7.31712
3739 21 77 10.5614 4.60595 20.1273
3654 21 16 15.0416 4.27498 15.1057
3732 21 72 14.5168 8.46713 -1.74577
3724 21 66 12.1218 6.78168 -4.29635
ITEM: TIMESTEP
195000
ITEM: NUMBER OF ATOMS
35
ITEM: BOX BOUNDS pp pp pp
-1.8368462818141666e+01 1.6549443039216229e+01
-2.4317241390708617e+01 1.4089833148621210e+01
-9.1823043644856739e+00 2.0554963190579585e+01
ITEM: ATOMS id type mol x y z
3717 21 61 -14.5809 -21.8821 9.81125
3660 21 20 -11.4204 -12.7179 16.8969
3680 21 34 -15.5586 -5.69015 -1.82588
3694 21 44 -11.4904 -1.69034 7.7455
3715 21 59 -10.0837 2.23106 8.06911
3695 21 45 -18.2048 5.60925 17.0139
3734 21 74 -10.0998 11.6023 4.14706
3701 21 49 -15.4208 6.79533 18.0122
3641 21 11 -15.2211 11.3245 17.5727
3664 21 24 -7.251 -18.3638 -1.82266
3730 21 70 -5.75466 -9.36853 8.14231
3671 21 29 -6.0013 1.575 5.36995
3693 21 43 -3.78832 8.21237 -8.77292
3740 21 78 -9.49339 7.5575 3.90215
3704 21 52 -3.41021 7.99694 12.8009
3666 21 26 7.41233 -22.6784 -4.44941
3681 21 35 3.33398 -23.8293 6.6346
3665 21 25 -0.702291 -15.0867 -0.556113
3685 21 39 0.297638 -3.76753 8.27507
3673 21 31 7.55883 -2.88042 14.2744
3733 21 73 2.54991 -0.565343 16.7044
3714 21 58 -0.906523 11.6923 15.2412
3747 21 81 15.9326 -19.9349 11.7709
3706 21 54 8.28289 -21.6807 13.7841
3719 21 63 14.6636 -13.7635 0.335099
3735 21 75 12.6816 -12.9862 4.90639
3683 21 37 13.5049 -2.113 9.06935
3682 21 36 8.96739 -3.60586 0.774259
3696 21 46 7.93077 -1.90718 11.0771
3726 21 68 8.81589 -0.537063 -1.86929
3702 21 50 9.98347 -1.09851 7.33689
3739 21 77 10.4845 4.49433 20.3023
3654 21 16 14.9346 4.16716 15.2199
3732 21 72 14.4134 8.31117 -1.83586
3724 21 66 12.0345 6.64507 -4.41735
ITEM: TIMESTEP
200000
ITEM: NUMBER OF ATOMS
36
ITEM: BOX BOUNDS pp pp pp
-1.8512810043508395e+01 1.6693790264582958e+01
-2.4115544197334074e+01 1.3888135955246668e+01
-9.1814133973976766e+00 2.0554072223473796e+01
ITEM: ATOMS id type mol x y z
3717 21 61 -14.6939 -21.7059 9.81101
3660 21 20 -11.5073 -12.6381 16.8963
3680 21 34 -15.6797 -5.68409 -1.82543
3694 21 44 -11.5779 -1.7263 7.74538
3715 21 59 -10.1596 2.15391 8.06897
3695 21 45 -18.3478 5.49662 17.0133
3734 21 74 -10.1758 11.4267 4.14715
3701 21 49 -15.5407 6.67025 18.0115
3641 21 11 -15.3394 11.1519 17.572
3664 21 24 -7.30343 -18.2246 -1.82221
3748 21 82 -4.97419 -20.6034 -1.57285
3730 21 70 -5.79472 -9.32384 8.14216
3671 21 29 -6.0434 1.50475 5.36997
3693 21 43 -3.81212 8.07241 -8.77206
3740 21 78 -9.56436 7.42441 3.90225
3704 21 52 -3.43088 7.85924 12.8005
3666 21 26 7.48113 -22.4939 -4.4488
3681 21 35 3.36906 -23.6327 6.63454
3665 21 25 -0.700578 -14.982 -0.555739
3685 21 39 0.307618 -3.78167 8.27491
3673 21 31 7.62885 -2.90388 14.2739
3733 21 73 2.57851 -0.613115 16.7037
3714 21 58 -0.906499 11.5158 15.2406
3747 21 81 16.0719 -19.7793 11.7706
3706 21 54 8.35889 -21.5067 13.7836
3719 21 63 14.7923 -13.6727 0.335419
3735 21 75 12.794 -12.9035 4.90644
3683 21 37 13.6241 -2.14452 9.06915
3682 21 36 9.04905 -3.6217 0.774553
3696 21 46 8.00386 -1.94086 11.0768
3726 21 68 8.8963 -0.585132 -1.86883
3702 21 50 10.0735 -1.14068 7.33679
3739 21 77 10.5787 4.39341 20.3015
3654 21 16 15.0656 4.06968 15.2193
3732 21 72 14.5401 8.17017 -1.83541
3724 21 66 12.1415 6.52157 -4.41674
ITEM: TIMESTEP
205000
ITEM: NUMBER OF ATOMS
35
ITEM: BOX BOUNDS pp pp pp
-1.8465713793354876e+01 1.6646694014429439e+01
-2.4188533736346475e+01 1.3961125494259068e+01
-9.1499748998582184e+00 2.0522633725918109e+01
ITEM: ATOMS id type mol x y z
3717 21 61 -14.6571 -21.7697 9.80228
3660 21 20 -11.479 -12.667 16.8726
3680 21 34 -15.6402 -5.68628 -1.80955
3694 21 44 -11.5494 -1.71329 7.74103
3715 21 59 -10.1348 2.18183 8.06393
3695 21 45 -18.3011 5.53738 16.9893
3734 21 74 -10.151 11.4903 4.15041
3701 21 49 -15.5016 6.71552 17.9854
3641 21 11 -15.3008 11.2144 17.5469
3664 21 24 -7.28633 -18.275 -1.80634
3748 21 82 -4.96332 -20.6628 -1.5575
3730 21 70 -5.78165 -9.34001 8.13697
3671 21 29 -6.02966 1.53017 5.37064
3693 21 43 -3.80435 8.12306 -8.74149
3740 21 78 -9.5412 7.47257 3.90603
3704 21 52 -3.42414 7.90907 12.7854
3666 21 26 7.45868 -22.5607 -4.42737
3681 21 35 3.35761 -23.7038 6.63254
3665 21 25 -0.701137 -15.0199 -0.54254
3685 21 39 0.304362 -3.77655 8.26944
3673 21 31 7.606 -2.89539 14.2557
3733 21 73 2.56918 -0.595827 16.6804
3714 21 58 -0.906507 11.5796 15.2204
3747 21 81 16.0265 -19.8356 11.7577
3706 21 54 8.33409 -21.5696 13.7665
3719 21 63 14.7503 -13.7056 0.346734
3683 21 37 13.5852 -2.13311 9.06199
3682 21 36 9.02241 -3.61597 0.784939
3696 21 46 7.98001 -1.92867 11.0654
3726 21 68 8.87007 -0.567737 -1.85286
3702 21 50 10.0441 -1.12542 7.3333
3739 21 77 10.5479 4.42993 20.2706
3654 21 16 15.0229 4.10495 15.1992
3732 21 72 14.4987 8.22119 -1.8195
3724 21 66 12.1066 6.56626 -4.39538
ITEM: TIMESTEP
210000
ITEM: NUMBER OF ATOMS
37
ITEM: BOX BOUNDS pp pp pp
-1.8502360949879396e+01 1.6683341170953959e+01
-2.4146917323608854e+01 1.3919509081521447e+01
-9.1958406426677683e+00 2.0568499468707884e+01
ITEM: ATOMS id type mol x y z
3717 21 61 -14.6858 -21.7333 9.81501
3660 21 20 -11.501 -12.6505 16.9072
3680 21 34 -15.6709 -5.68503 -1.83272
3694 21 44 -11.5716 -1.7207 7.74738
3715 21 59 -10.1541 2.16591 8.07128
3695 21 45 -18.3374 5.51414 17.0243
3734 21 74 -10.1703 11.454 4.14566
3701 21 49 -15.5321 6.68971 18.0235
3641 21 11 -15.3308 11.1787 17.5836
3664 21 24 -7.29964 -18.2463 -1.8295
3748 21 82 -4.97178 -20.6289 -1.57989
3730 21 70 -5.79182 -9.33079 8.14454
3671 21 29 -6.04035 1.51568 5.36966
3693 21 43 -3.81039 8.09418 -8.78609
3740 21 78 -9.55922 7.44511 3.90052
3704 21 52 -3.42939 7.88066 12.8074
3666 21 26 7.47615 -22.5226 -4.45863
3681 21 35 3.36652 -23.6633 6.63546
3665 21 25 -0.700702 -14.9983 -0.561796
3685 21 39 0.306896 -3.77947 8.27742
3673 21 31 7.62378 -2.90023 14.2822
3733 21 73 2.57644 -0.605684 16.7144
3714 21 58 -0.9065 11.5432 15.2499
3747 21 81 16.0618 -19.8035 11.7765
3706 21 54 8.35339 -21.5337 13.7914
3719 21 63 14.783 -13.6868 0.330227
3749 21 83 11.0756 -9.05001 7.2568
3750 21 84 11.1008 -7.98673 -8.96195
3683 21 37 13.6155 -2.13961 9.07243
3682 21 36 9.04314 -3.61923 0.769787
3696 21 46 7.99857 -1.93562 11.082
3726 21 68 8.89048 -0.577655 -1.87617
3702 21 50 10.067 -1.13412 7.33839
3739 21 77 10.5718 4.40911 20.3156
3654 21 16 15.0561 4.08484 15.2286
3732 21 72 14.5309 8.1921 -1.8427
3724 21 66 12.1337 6.54078 -4.42655
ITEM: TIMESTEP
215000
ITEM: NUMBER OF ATOMS
38
ITEM: BOX BOUNDS pp pp pp
-1.8305871674767850e+01 1.6486851895842413e+01
-2.4556859076063350e+01 1.4329450833975944e+01
-9.1331394994573465e+00 2.0505798325482946e+01
ITEM: ATOMS id type mol x y z
3717 21 61 -14.5319 -22.0913 9.79761
3660 21 20 -11.3827 -12.8128 16.8599
3680 21 34 -15.506 -5.69734 -1.80104
3694 21 44 -11.4525 -1.64763 7.7387
3715 21 59 -10.0508 2.3227 8.06123
3695 21 45 -18.1428 5.74304 16.9765
3734 21 74 -10.0669 11.8109 4.15215
3701 21 49 -15.3687 6.94393 17.9715
3641 21 11 -15.1698 11.5296 17.5334
3664 21 24 -7.22827 -18.5291 -1.79783
3748 21 82 -4.92641 -20.9631 -1.54928
3730 21 70 -5.73729 -9.42162 8.13419
3671 21 29 -5.98305 1.65846 5.371
3693 21 43 -3.778 8.37865 -8.72511
3740 21 78 -9.46262 7.71561 3.90805
3704 21 52 -3.40124 8.16053 12.7774
3666 21 26 7.3825 -22.8976 -4.41589
3681 21 35 3.31876 -24.0628 6.63147
3665 21 25 -0.703034 -15.2112 -0.535471
3685 21 39 0.29331 -3.75074 8.26651
3673 21 31 7.52847 -2.85255 14.246
3733 21 73 2.53751 -0.508589 16.668
3751 21 85 5.35961 9.13012 14.7236
3714 21 58 -0.906534 11.902 15.2096
3747 21 81 15.8723 -20.1199 11.7508
3706 21 54 8.24994 -21.8874 13.7573
3719 21 63 14.6077 -13.8715 0.352793
3749 21 83 10.9418 -9.13479 7.25019
3750 21 84 10.9667 -8.04861 -8.90024
3683 21 37 13.4532 -2.07556 9.05816
3682 21 36 8.93198 -3.58705 0.790501
3696 21 46 7.89908 -1.86717 11.0593
3726 21 68 8.78103 -0.479956 -1.8443
3702 21 50 9.94441 -1.04841 7.33143
3739 21 77 10.4436 4.61422 20.254
3654 21 16 14.8778 4.28296 15.1884
3732 21 72 14.3584 8.47868 -1.81098
3724 21 66 11.9881 6.7918 -4.38394
ITEM: TIMESTEP
220000
ITEM: NUMBER OF ATOMS
39
ITEM: BOX BOUNDS pp pp pp
-1.8349848168900575e+01 1.6530828389975138e+01
-2.4372149788254077e+01 1.4144741546166671e+01
-9.1435489972659134e+00 2.0516207823273554e+01
ITEM: ATOMS id type mol x y z
3717 21 61 -14.5663 -21.93 9.8005
3660 21 20 -11.4092 -12.7397 16.8677
3680 21 34 -15.5429 -5.6918 -1.8063
3694 21 44 -11.4792 -1.68055 7.74014
3715 21 59 -10.0739 2.25206 8.0629
3695 21 45 -18.1864 5.63991 16.9844
3734 21 74 -10.09 11.6501 4.15107
3701 21 49 -15.4053 6.82938 17.9801
3641 21 11 -15.2058 11.3715 17.5418
3664 21 24 -7.24424 -18.4017 -1.80309
3748 21 82 -4.93657 -20.8125 -1.55436
3730 21 70 -5.74949 -9.38069 8.13591
3671 21 29 -5.99587 1.59413 5.37077
3693 21 43 -3.78525 8.25048 -8.73524
3740 21 78 -9.48424 7.59373 3.9068
3704 21 52 -3.40754 8.03443 12.7824
3666 21 26 7.40346 -22.7286 -4.42299
3681 21 35 3.32945 -23.8828 6.63213
3665 21 25 -0.702512 -15.1152 -0.539842
3685 21 39 0.296351 -3.76368 8.26832
3673 21 31 7.5498 -2.87403 14.252
3733 21 73 2.54622 -0.552338 16.6757
3751 21 85 5.37546 8.99481 14.73
3714 21 58 -0.906526 11.7403 15.2163
3747 21 81 15.9147 -19.9773 11.7551
3706 21 54 8.27309 -21.728 13.763
3719 21 63 14.647 -13.7883 0.349047
3749 21 83 10.9717 -9.09659 7.25128
3750 21 84 10.9967 -8.02073 -8.91048
3683 21 37 13.4895 -2.10442 9.06053
3682 21 36 8.95686 -3.60155 0.787062
3696 21 46 7.92135 -1.89801 11.0631
3752 21 86 10.4636 -2.4568 16.0362
3726 21 68 8.80553 -0.523977 -1.84959
3702 21 50 9.97185 -1.08703 7.33259
3739 21 77 10.4723 4.5218 20.2642
3654 21 16 14.9177 4.19369 15.1951
3732 21 72 14.397 8.34955 -1.81625
3724 21 66 12.0207 6.67869 -4.39101
ITEM: TIMESTEP
225000
ITEM: NUMBER OF ATOMS
40
ITEM: BOX BOUNDS pp pp pp
-1.8299903887912329e+01 1.6480884108986892e+01
-2.4346325228838253e+01 1.4118916986750847e+01
-9.1625996267506622e+00 2.0535258452739900e+01
ITEM: ATOMS id type mol x y z
3753 21 87 -17.4802 -20.9288 -2.01872
3717 21 61 -14.5272 -21.9075 9.80579
3660 21 20 -11.3791 -12.7294 16.8821
3680 21 34 -15.501 -5.69102 -1.81592
3694 21 44 -11.4489 -1.68516 7.74278
3715 21 59 -10.0477 2.24218 8.06595
3695 21 45 -18.1369 5.62549 16.9989
3734 21 74 -10.0637 11.6276 4.1491
3701 21 49 -15.3638 6.81337 17.9959
3641 21 11 -15.1649 11.3494 17.557
3664 21 24 -7.2261 -18.3838 -1.81271
3748 21 82 -4.92503 -20.7915 -1.56366
3730 21 70 -5.73563 -9.37497 8.13905
3671 21 29 -5.9813 1.58513 5.37037
3693 21 43 -3.77701 8.23256 -8.75376
3740 21 78 -9.45968 7.57669 3.90451
3704 21 52 -3.40039 8.01679 12.7915
3666 21 26 7.37965 -22.705 -4.43597
3681 21 35 3.31731 -23.8576 6.63334
3665 21 25 -0.703105 -15.1018 -0.54784
3685 21 39 0.292897 -3.76549 8.27163
3673 21 31 7.52558 -2.87704 14.263
3733 21 73 2.53632 -0.558454 16.6898
3751 21 85 5.35746 8.97589 14.7416
3714 21 58 -0.906535 11.7177 15.2285
3747 21 81 15.8665 -19.9574 11.7629
3706 21 54 8.24679 -21.7058 13.7733
3719 21 63 14.6024 -13.7766 0.34219
3749 21 83 10.9377 -9.09125 7.25329
3750 21 84 10.9626 -8.01683 -8.92923
3683 21 37 13.4483 -2.10845 9.06487
3682 21 36 8.92861 -3.60358 0.780768
3696 21 46 7.89606 -1.90232 11.07
3752 21 86 10.4311 -2.46037 16.0495
3726 21 68 8.7777 -0.530131 -1.85927
3702 21 50 9.94069 -1.09243 7.3347
3739 21 77 10.4397 4.50888 20.283
3654 21 16 14.8724 4.18121 15.2073
3732 21 72 14.3532 8.3315 -1.82589
3724 21 66 11.9836 6.66288 -4.40396
ITEM: TIMESTEP
230000
ITEM: NUMBER OF ATOMS
40
ITEM: BOX BOUNDS pp pp pp
-1.8397912706082931e+01 1.6578892927157494e+01
-2.4421859652931069e+01 1.4194451410843662e+01
-9.1415240107471760e+00 2.0514182836719723e+01
ITEM: ATOMS id type mol x y z
3753 21 87 -17.5736 -20.9909 -2.00779
3717 21 61 -14.604 -21.9734 9.79994
3660 21 20 -11.4381 -12.7594 16.8662
3680 21 34 -15.5833 -5.69329 -1.80528
3694 21 44 -11.5083 -1.67169 7.73986
3715 21 59 -10.0992 2.27107 8.06257
3695 21 45 -18.234 5.66766 16.9829
3734 21 74 -10.1153 11.6934 4.15128
3701 21 49 -15.4452 6.86021 17.9784
3641 21 11 -15.2452 11.4141 17.5401
3664 21 24 -7.2617 -18.436 -1.80207
3748 21 82 -4.94766 -20.853 -1.55337
3730 21 70 -5.76283 -9.39171 8.13557
3671 21 29 -6.00989 1.61144 5.37082
3693 21 43 -3.79317 8.28497 -8.73327
3740 21 78 -9.50787 7.62653 3.90704
3704 21 52 -3.41443 8.06836 12.7814
3666 21 26 7.42637 -22.7741 -4.42161
3681 21 35 3.34113 -23.9312 6.632
3665 21 25 -0.701942 -15.1411 -0.538992
3685 21 39 0.299674 -3.7602 8.26797
3673 21 31 7.57312 -2.86825 14.2508
3733 21 73 2.55574 -0.540564 16.6742
3751 21 85 5.39278 9.03122 14.7287
3714 21 58 -0.906518 11.7838 15.215
3747 21 81 15.961 -20.0157 11.7542
3706 21 54 8.2984 -21.7709 13.7619
3719 21 63 14.6898 -13.8107 0.349776
3749 21 83 11.0045 -9.10687 7.25107
3750 21 84 11.0295 -8.02823 -8.90849
3683 21 37 13.5292 -2.09665 9.06007
3682 21 36 8.98405 -3.59765 0.787731
3696 21 46 7.94568 -1.88971 11.0623
3752 21 86 10.495 -2.44995 16.0348
3726 21 68 8.8323 -0.51213 -1.84856
3702 21 50 10.0018 -1.07664 7.33236
3739 21 77 10.5037 4.54667 20.2623
3654 21 16 14.9614 4.21772 15.1938
3732 21 72 14.4392 8.38431 -1.81523
3724 21 66 12.0563 6.70913 -4.38964
ITEM: TIMESTEP
235000
ITEM: NUMBER OF ATOMS
40
ITEM: BOX BOUNDS pp pp pp
-1.8374416594527052e+01 1.6555396815601615e+01
-2.4362518811205724e+01 1.4135110569118318e+01
-9.1379385756809093e+00 2.0510597401636090e+01
ITEM: ATOMS id type mol x y z
3753 21 87 -17.5512 -20.9421 -2.00593
3717 21 61 -14.5856 -21.9216 9.79895
3660 21 20 -11.424 -12.7359 16.8635
3680 21 34 -15.5636 -5.69151 -1.80347
3694 21 44 -11.4941 -1.68227 7.73936
3715 21 59 -10.0868 2.24838 8.062
3695 21 45 -18.2107 5.63453 16.9801
3734 21 74 -10.103 11.6417 4.15165
3701 21 49 -15.4257 6.82341 17.9755
3641 21 11 -15.226 11.3633 17.5373
3664 21 24 -7.25317 -18.395 -1.80026
3748 21 82 -4.94224 -20.8047 -1.55162
3730 21 70 -5.75631 -9.37856 8.13498
3671 21 29 -6.00304 1.59077 5.37089
3693 21 43 -3.7893 8.24379 -8.72978
3740 21 78 -9.49632 7.58738 3.90747
3704 21 52 -3.41106 8.02785 12.7797
3666 21 26 7.41517 -22.7198 -4.41916
3681 21 35 3.33542 -23.8734 6.63177
3665 21 25 -0.702221 -15.1102 -0.537486
3685 21 39 0.298049 -3.76436 8.26734
3673 21 31 7.56172 -2.87515 14.2488
3733 21 73 2.55109 -0.554619 16.6715
3751 21 85 5.38431 8.98775 14.7266
3714 21 58 -0.906522 11.7319 15.2127
3747 21 81 15.9384 -19.9699 11.7528
3706 21 54 8.28603 -21.7197 13.7599
3719 21 63 14.6689 -13.7839 0.351066
3749 21 83 10.9885 -9.0946 7.25069
3750 21 84 11.0135 -8.01928 -8.90496
3683 21 37 13.5098 -2.10592 9.05926
3682 21 36 8.97076 -3.60231 0.788916
3696 21 46 7.93379 -1.89962 11.061
3752 21 86 10.4797 -2.45813 16.0323
3726 21 68 8.81921 -0.526272 -1.84674
3702 21 50 9.98718 -1.08904 7.33197
3739 21 77 10.4884 4.51698 20.2587
3654 21 16 14.94 4.18904 15.1915
3732 21 72 14.4186 8.34282 -1.81341
3724 21 66 12.0389 6.6728 -4.3872
ITEM: TIMESTEP
240000
ITEM: NUMBER OF ATOMS
40
ITEM: BOX BOUNDS pp pp pp
-1.8451277486398716e+01 1.6632257707473279e+01
-2.4325271214296336e+01 1.4097862972208929e+01
-9.2088184895718186e+00 2.0581477315505307e+01
ITEM: ATOMS id type mol x y z
3753 21 87 -17.6245 -20.9115 -2.04271
3717 21 61 -14.6457 -21.8891 9.81861
3660 21 20 -11.4703 -12.7211 16.9169
3680 21 34 -15.6281 -5.69039 -1.83928
3694 21 44 -11.5406 -1.68891 7.74918
3715 21 59 -10.1272 2.23413 8.07336
3695 21 45 -18.2868 5.61373 17.0341
3734 21 74 -10.1434 11.6093 4.14432
3701 21 49 -15.4896 6.80031 18.0342
3641 21 11 -15.289 11.3314 17.5939
3664 21 24 -7.28108 -18.3693 -1.83605
3748 21 82 -4.95999 -20.7743 -1.58623
3730 21 70 -5.77764 -9.37031 8.14669
3671 21 29 -6.02545 1.5778 5.36939
3693 21 43 -3.80197 8.21795 -8.79871
3740 21 78 -9.53411 7.5628 3.89897
3704 21 52 -3.42207 8.00242 12.8136
3666 21 26 7.4518 -22.6857 -4.46748
3681 21 35 3.3541 -23.8371 6.63629
3665 21 25 -0.701308 -15.0909 -0.567244
3685 21 39 0.303364 -3.76697 8.27968
3673 21 31 7.599 -2.87949 14.2897
3733 21 73 2.56632 -0.563441 16.724
3751 21 85 5.41201 8.96046 14.7698
3714 21 58 -0.906509 11.6993 15.2582
3747 21 81 16.0125 -19.9411 11.7818
3706 21 54 8.32649 -21.6876 13.7985
3719 21 63 14.7374 -13.7672 0.325556
3749 21 83 11.0408 -9.08689 7.25817
3750 21 84 11.066 -8.01365 -8.97473
3683 21 37 13.5733 -2.11174 9.07538
3682 21 36 9.01424 -3.60523 0.765499
3696 21 46 7.9727 -1.90584 11.0867
3752 21 86 10.5298 -2.46327 16.0818
3726 21 68 8.86203 -0.535149 -1.88276
3702 21 50 10.0351 -1.09683 7.33983
3739 21 77 10.5385 4.49835 20.3284
3654 21 16 15.0098 4.17104 15.2369
3732 21 72 14.4861 8.31678 -1.84927
3724 21 66 12.0959 6.64999 -4.43537
ITEM: TIMESTEP
245000
ITEM: NUMBER OF ATOMS
40
ITEM: BOX BOUNDS pp pp pp
-1.8449084575707193e+01 1.6630064796781756e+01
-2.4267576104732271e+01 1.4040167862644864e+01
-9.1886583900982508e+00 2.0561317216014938e+01
ITEM: ATOMS id type mol x y z
3753 21 87 -17.6224 -20.8641 -2.03225
3754 21 88 -18.0189 -19.8312 2.59779
3717 21 61 -14.644 -21.8387 9.81302
3660 21 20 -11.4689 -12.6983 16.9017
3680 21 34 -15.6262 -5.68866 -1.82909
3694 21 44 -11.5393 -1.6992 7.74638
3715 21 59 -10.1261 2.21206 8.07013
3695 21 45 -18.2847 5.58151 17.0188
3734 21 74 -10.1423 11.5591 4.1464
3701 21 49 -15.4878 6.76453 18.0175
3641 21 11 -15.2872 11.282 17.5778
3664 21 24 -7.28029 -18.3295 -1.82587
3748 21 82 -4.95948 -20.7273 -1.57639
3671 21 29 -6.02481 1.5577 5.36981
3693 21 43 -3.80161 8.17791 -8.7791
3740 21 78 -9.53303 7.52473 3.90138
3704 21 52 -3.42176 7.96303 12.8039
3666 21 26 7.45076 -22.633 -4.45374
3681 21 35 3.35357 -23.7809 6.63501
3665 21 25 -0.701334 -15.0609 -0.55878
3685 21 39 0.303212 -3.77101 8.27617
3673 21 31 7.59794 -2.8862 14.2781
3733 21 73 2.56588 -0.577106 16.7091
3751 21 85 5.41122 8.9182 14.7575
3714 21 58 -0.906509 11.6488 15.2452
3747 21 81 16.0104 -19.8966 11.7735
3706 21 54 8.32534 -21.6378 13.7875
3719 21 63 14.7355 -13.7412 0.332812
3749 21 83 11.0394 -9.07496 7.25604
3750 21 84 11.0645 -8.00494 -8.95488
3683 21 37 13.5715 -2.12076 9.0708
3682 21 36 9.013 -3.60976 0.77216
3696 21 46 7.97159 -1.91547 11.0794
3752 21 86 10.5284 -2.47123 16.0677
3726 21 68 8.8608 -0.548899 -1.87252
3702 21 50 10.0338 -1.10889 7.3376
3739 21 77 10.5371 4.46948 20.3086
3654 21 16 15.0078 4.14315 15.224
3732 21 72 14.4841 8.27645 -1.83907
3724 21 66 12.0942 6.61466 -4.42167
ITEM: TIMESTEP
250000
ITEM: NUMBER OF ATOMS
40
ITEM: BOX BOUNDS pp pp pp
-1.8451133571410583e+01 1.6632113792485146e+01
-2.4331407484116696e+01 1.4103999242029289e+01
-9.0909830365775655e+00 2.0463641862482245e+01
ITEM: ATOMS id type mol x y z
3753 21 87 -17.6243 -20.9166 -1.98156
3754 21 88 -18.0209 -19.8803 2.61807
3717 21 61 -14.6456 -21.8944 9.78592
3660 21 20 -11.4702 -12.7235 16.8281
3680 21 34 -15.6279 -5.69057 -1.77974
3694 21 44 -11.5405 -1.68782 7.73286
3715 21 59 -10.1272 2.23648 8.05447
3695 21 45 -18.2867 5.61716 16.9444
3734 21 74 -10.1433 11.6146 4.15652
3701 21 49 -15.4895 6.80412 17.9365
3641 21 11 -15.2888 11.3367 17.4997
3664 21 24 -7.28103 -18.3735 -1.77654
3748 21 82 -4.95995 -20.7793 -1.5287
3671 21 29 -6.02541 1.57994 5.37189
3693 21 43 -3.80195 8.2222 -8.68412
3740 21 78 -9.53404 7.56685 3.91311
3704 21 52 -3.42205 8.00661 12.7572
3666 21 26 7.45174 -22.6914 -4.38715
3681 21 35 3.35407 -23.8431 6.62878
3665 21 25 -0.70131 -15.0941 -0.517772
3685 21 39 0.303354 -3.76654 8.25917
3673 21 31 7.59893 -2.87877 14.2216
3733 21 73 2.56629 -0.561988 16.6367
3751 21 85 5.41196 8.96496 14.6979
3714 21 58 -0.906509 11.7047 15.1825
3747 21 81 16.0124 -19.9459 11.7336
3706 21 54 8.32642 -21.6929 13.7343
3719 21 63 14.7373 -13.7699 0.367965
3749 21 83 11.0407 -9.08816 7.24574
3750 21 84 11.0659 -8.01458 -8.85874
3683 21 37 13.5732 -2.11079 9.04857
3682 21 36 9.01416 -3.60475 0.804428
3696 21 46 7.97263 -1.90481 11.044
3752 21 86 10.5297 -2.46242 15.9995
3726 21 68 8.86195 -0.533687 -1.82288
3702 21 50 10.035 -1.09555 7.32675
3739 21 77 10.5384 4.50142 20.2126
3654 21 16 15.0097 4.174 15.1614
3732 21 72 14.4859 8.32107 -1.78966
3724 21 66 12.0957 6.65375 -4.35529
ITEM: TIMESTEP
255000
ITEM: NUMBER OF ATOMS
40
ITEM: BOX BOUNDS pp pp pp
-1.8397267303245947e+01 1.6578247524320510e+01
-2.4232150119906780e+01 1.4004741877819374e+01
-9.2408597824255061e+00 2.0613518608303764e+01
ITEM: ATOMS id type mol x y z
3753 21 87 -17.573 -20.8349 -2.05933
3754 21 88 -17.9683 -19.804 2.58696
3717 21 61 -14.6035 -21.8078 9.8275
3660 21 20 -11.4377 -12.6842 16.9411
3680 21 34 -15.5827 -5.68759 -1.85546
3694 21 44 -11.5079 -1.70551 7.75361
3715 21 59 -10.0988 2.19851 8.07849
3695 21 45 -18.2333 5.56173 17.0586
3734 21 74 -10.115 11.5282 4.141
3701 21 49 -15.4447 6.74256 18.0608
3641 21 11 -15.2447 11.2517 17.6196
3664 21 24 -7.26147 -18.3051 -1.85223
3748 21 82 -4.94752 -20.6984 -1.60187
3671 21 29 -6.0097 1.54537 5.3687
3693 21 43 -3.79307 8.15333 -8.82987
3740 21 78 -9.50755 7.50135 3.89512
3704 21 52 -3.41433 7.93885 12.8289
3666 21 26 7.42606 -22.6006 -4.48932
3681 21 35 3.34098 -23.7464 6.63834
3665 21 25 -0.701949 -15.0425 -0.580697
3685 21 39 0.299629 -3.7735 8.28526
3673 21 31 7.5728 -2.89032 14.3082
3733 21 73 2.55562 -0.585497 16.7478
3751 21 85 5.39255 8.89224 14.7893
3714 21 58 -0.906518 11.6178 15.2788
3747 21 81 15.9604 -19.8693 11.7949
3706 21 54 8.29806 -21.6073 13.816
3719 21 63 14.6893 -13.7252 0.314025
3749 21 83 11.0041 -9.06763 7.26155
3750 21 84 11.0291 -7.9996 -9.00626
3683 21 37 13.5287 -2.12629 9.08267
3682 21 36 8.98369 -3.61254 0.754914
3696 21 46 7.94536 -1.92139 11.0983
3752 21 86 10.4946 -2.47612 16.1041
3726 21 68 8.83194 -0.557342 -1.89904
3702 21 50 10.0014 -1.1163 7.34339
3739 21 77 10.5033 4.45176 20.3599
3654 21 16 14.9608 4.12603 15.2574
3732 21 72 14.4387 8.25168 -1.86548
3724 21 66 12.0558 6.59297 -4.45714
ITEM: TIMESTEP
260000
ITEM: NUMBER OF ATOMS
40
ITEM: BOX BOUNDS pp pp pp
-1.8507607801203918e+01 1.6688588022278481e+01
-2.4338564098769837e+01 1.4111155856682430e+01
-9.1493123655202666e+00 2.0521971191386140e+01
ITEM: ATOMS id type mol x y z
3753 21 87 -17.6781 -20.9224 -2.01183
3754 21 88 -18.076 -19.8858 2.60596
3717 21 61 -14.6899 -21.9007 9.8021
3660 21 20 -11.5042 -12.7264 16.8721
3680 21 34 -15.6753 -5.69079 -1.80921
3694 21 44 -11.5748 -1.68654 7.74093
3715 21 59 -10.1568 2.23921 8.06382
3695 21 45 -18.3426 5.62115 16.9888
3734 21 74 -10.1731 11.6209 4.15048
3701 21 49 -15.5364 6.80856 17.9849
3641 21 11 -15.3351 11.3428 17.5464
3664 21 24 -7.30154 -18.3785 -1.806
3748 21 82 -4.97299 -20.7851 -1.55718
3671 21 29 -6.04188 1.58243 5.37065
3693 21 43 -3.81126 8.22717 -8.74084
3740 21 78 -9.5618 7.57157 3.90611
3704 21 52 -3.43014 8.0115 12.7851
3666 21 26 7.47865 -22.6979 -4.42692
3681 21 35 3.3678 -23.8501 6.6325
3665 21 25 -0.70064 -15.0978 -0.542261
3685 21 39 0.307258 -3.76604 8.26932
3673 21 31 7.62632 -2.87794 14.2553
3733 21 73 2.57748 -0.560293 16.6799
3751 21 85 5.43231 8.9702 14.7335
3714 21 58 -0.906499 11.7109 15.22
3747 21 81 16.0669 -19.9514 11.7574
3706 21 54 8.35615 -21.6991 13.7661
3719 21 63 14.7877 -13.7731 0.346973
3749 21 83 11.0792 -9.08964 7.25189
3750 21 84 11.1044 -8.01566 -8.91615
3683 21 37 13.6198 -2.10967 9.06184
3682 21 36 9.04611 -3.60419 0.785158
3696 21 46 8.00123 -1.90362 11.0651
3752 21 86 10.5665 -2.46144 16.0402
3726 21 68 8.8934 -0.531981 -1.85252
3702 21 50 10.0703 -1.09405 7.33323
3739 21 77 10.5753 4.505 20.2699
3654 21 16 15.0609 4.17746 15.1988
3732 21 72 14.5355 8.32608 -1.81917
3724 21 66 12.1376 6.65813 -4.39493
ITEM: TIMESTEP
265000
ITEM: NUMBER OF ATOMS
41
ITEM: BOX BOUNDS pp pp pp
-1.8508185369911445e+01 1.6689165590986008e+01
-2.4190899982011420e+01 1.3963491739924013e+01
-9.3174410812444108e+00 2.0690099907082427e+01
ITEM: ATOMS id type mol x y z
3753 21 87 -17.6787 -20.801 -2.09907
3754 21 88 -18.0765 -19.7723 2.57105
3717 21 61 -14.6903 -21.7717 9.84874
3660 21 20 -11.5045 -12.6679 16.9988
3680 21 34 -15.6758 -5.68636 -1.89416
3694 21 44 -11.5751 -1.71286 7.76422
3715 21 59 -10.1571 2.18274 8.09077
3695 21 45 -18.3432 5.5387 17.1169
3734 21 74 -10.1734 11.4923 4.13307
3701 21 49 -15.5369 6.71698 18.1243
3641 21 11 -15.3356 11.2164 17.6808
3664 21 24 -7.30175 -18.2766 -1.89091
3748 21 82 -4.97313 -20.6648 -1.63926
3671 21 29 -6.04205 1.531 5.36707
3755 21 89 -9.59175 1.19387 20.2371
3693 21 43 -3.81136 8.1247 -8.90434
3740 21 78 -9.56209 7.47414 3.88593
3704 21 52 -3.43022 7.91068 12.8656
3666 21 26 7.47893 -22.5628 -4.54153
3681 21 35 3.36794 -23.7062 6.64322
3665 21 25 -0.700633 -15.0211 -0.612849
3685 21 39 0.307298 -3.77639 8.29859
3673 21 31 7.6266 -2.89511 14.3524
3733 21 73 2.57759 -0.595267 16.8045
3751 21 85 5.43252 8.86202 14.836
3714 21 58 -0.906499 11.5817 15.328
3747 21 81 16.0674 -19.8374 11.8262
3706 21 54 8.35646 -21.5717 13.8577
3719 21 63 14.7882 -13.7066 0.286463
3749 21 83 11.0796 -9.0591 7.26963
3750 21 84 11.1048 -7.99337 -9.08164
3683 21 37 13.6203 -2.13274 9.1001
3682 21 36 9.04644 -3.61578 0.729614
3696 21 46 8.00152 -1.92827 11.1261
3752 21 86 10.5669 -2.48181 16.1576
3726 21 68 8.89373 -0.567173 -1.93796
3702 21 50 10.0706 -1.12493 7.35189
3739 21 77 10.5756 4.43112 20.4352
3654 21 16 15.0614 4.1061 15.3066
3732 21 72 14.536 8.22285 -1.90422
3724 21 66 12.138 6.56771 -4.50918
ITEM: TIMESTEP
270000
ITEM: NUMBER OF ATOMS
40
ITEM: BOX BOUNDS pp pp pp
-1.8476697450644856e+01 1.6657677671719419e+01
-2.4397964401439129e+01 1.4170556159351722e+01
-9.1454529686691792e+00 2.0518111794500125e+01
ITEM: ATOMS id type mol x y z
3753 21 87 -17.6487 -20.9713 -2.00983
3754 21 88 -18.0458 -19.9314 2.60676
3717 21 61 -14.6657 -21.9525 9.80103
3660 21 20 -11.4856 -12.7499 16.8692
3680 21 34 -15.6494 -5.69257 -1.80726
3694 21 44 -11.556 -1.67595 7.7404
3715 21 59 -10.1406 2.26193 8.0632
3695 21 45 -18.312 5.65432 16.9859
3734 21 74 -10.1568 11.6726 4.15088
3701 21 49 -15.5107 6.84539 17.9817
3641 21 11 -15.3098 11.3936 17.5433
3664 21 24 -7.29032 -18.4195 -1.80405
3748 21 82 -4.96586 -20.8336 -1.55529
3671 21 29 -6.03287 1.60312 5.37073
3755 21 89 -9.57621 1.26233 20.0703
3693 21 43 -3.80616 8.26839 -8.73709
3740 21 78 -9.5466 7.61076 3.90657
3704 21 52 -3.42571 8.05205 12.7833
3666 21 26 7.46392 -22.7522 -4.42428
3681 21 35 3.36028 -23.908 6.63225
3665 21 25 -0.701007 -15.1286 -0.540641
3685 21 39 0.305121 -3.76187 8.26865
3673 21 31 7.61133 -2.87103 14.2531
3733 21 73 2.57135 -0.546224 16.6771
3751 21 85 5.42117 9.01372 14.7311
3714 21 58 -0.906505 11.7629 15.2175
3747 21 81 16.037 -19.9972 11.7559
3706 21 54 8.33988 -21.7503 13.764
3719 21 63 14.7601 -13.7999 0.348362
3749 21 83 11.0582 -9.10193 7.25149
3750 21 84 11.0833 -8.02463 -8.91236
3683 21 37 13.5943 -2.10038 9.06097
3682 21 36 9.02862 -3.59952 0.786433
3696 21 46 7.98558 -1.8937 11.0637
3752 21 86 10.5464 -2.45324 16.0375
3726 21 68 8.87619 -0.517825 -1.85056
3702 21 50 10.051 -1.08163 7.3328
3739 21 77 10.5551 4.53472 20.2661
3654 21 16 15.0328 4.20617 15.1963
3724 21 66 12.1147 6.6945 -4.39231
ITEM: TIMESTEP
275000
ITEM: NUMBER OF ATOMS
38
ITEM: BOX BOUNDS pp pp pp
-1.8511255309784705e+01 1.6692235530859268e+01
-2.4235715305867366e+01 1.4008307063779959e+01
-9.1609731797260636e+00 2.0533632005538440e+01
ITEM: ATOMS id type mol x y z
3753 21 87 -17.6816 -20.8379 -2.01788
3754 21 88 -18.0795 -19.8067 2.60354
3717 21 61 -14.6927 -21.8109 9.80534
3660 21 20 -11.5064 -12.6856 16.8809
3680 21 34 -15.6784 -5.6877 -1.8151
3694 21 44 -11.577 -1.70487 7.74255
3715 21 59 -10.1587 2.19988 8.06569
3734 21 74 -10.175 11.5313 4.14927
3701 21 49 -15.5395 6.74477 17.9946
3759 21 91 -13.5263 11.7256 15.0102
3641 21 11 -15.3381 11.2547 17.5557
3664 21 24 -7.30287 -18.3075 -1.81189
3748 21 82 -4.97384 -20.7013 -1.56287
3671 21 29 -6.04294 1.54661 5.3704
3693 21 43 -3.81186 8.1558 -8.75218
3740 21 78 -9.5636 7.50371 3.90471
3704 21 52 -3.43066 7.94128 12.7907
3666 21 26 7.48039 -22.6038 -4.43486
3681 21 35 3.36868 -23.7498 6.63324
3665 21 25 -0.700596 -15.0444 -0.547157
3685 21 39 0.307511 -3.77325 8.27135
3673 21 31 7.62809 -2.8899 14.2621
3751 21 85 5.43362 8.89486 14.7406
3714 21 58 -0.906499 11.6209 15.2275
3747 21 81 16.0704 -19.872 11.7622
3706 21 54 8.35807 -21.6103 13.7725
3719 21 63 14.7909 -13.7268 0.342776
3749 21 83 11.0817 -9.06837 7.25312
3750 21 84 11.1069 -8.00013 -8.92763
3683 21 37 13.6228 -2.12574 9.0645
3682 21 36 9.04817 -3.61226 0.781306
3696 21 46 8.00307 -1.92079 11.0694
3752 21 86 10.5689 -2.47563 16.0484
3726 21 68 8.89544 -0.556492 -1.85845
3702 21 50 10.0726 -1.11556 7.33452
3739 21 77 10.5777 4.45354 20.2814
3654 21 16 15.0642 4.12776 15.2062
3724 21 66 12.1403 6.59515 -4.40285
ITEM: TIMESTEP
280000
ITEM: NUMBER OF ATOMS
39
ITEM: BOX BOUNDS pp pp pp
-1.8458630989143479e+01 1.6639611210218042e+01
-2.4284904991587119e+01 1.4057496749499713e+01
-9.2815920713375206e+00 2.0654250897124324e+01
ITEM: ATOMS id type mol x y z
3753 21 87 -17.6315 -20.8783 -2.08047
3754 21 88 -18.0282 -19.8445 2.5785
3717 21 61 -14.6515 -21.8538 9.8388
3660 21 20 -11.4747 -12.7051 16.9718
3680 21 34 -15.6342 -5.68918 -1.87604
3694 21 44 -11.5451 -1.69611 7.75925
3715 21 59 -10.1311 2.21869 8.08502
3734 21 74 -10.1473 11.5741 4.13678
3701 21 49 -15.4957 6.77528 18.0946
3759 21 91 -13.4886 11.7689 15.086
3641 21 11 -15.295 11.2969 17.6521
3664 21 24 -7.28376 -18.3415 -1.8728
3748 21 82 -4.96168 -20.7414 -1.62176
3671 21 29 -6.0276 1.56374 5.36784
3760 21 92 -5.04833 -1.25977 15.6271
3693 21 43 -3.80318 8.18993 -8.86948
3740 21 78 -9.53772 7.53616 3.89023
3704 21 52 -3.42312 7.97486 12.8484
3666 21 26 7.45531 -22.6488 -4.51709
3681 21 35 3.35589 -23.7978 6.64093
3665 21 25 -0.701221 -15.0699 -0.597798
3685 21 39 0.303872 -3.7698 8.29235
3673 21 31 7.60257 -2.88418 14.3317
3751 21 85 5.41466 8.93089 14.8142
3714 21 58 -0.906508 11.664 15.305
3747 21 81 16.0196 -19.91 11.8116
3706 21 54 8.33037 -21.6528 13.8381
3719 21 63 14.744 -13.749 0.299365
3749 21 83 11.0459 -9.07854 7.26585
3750 21 84 11.071 -8.00756 -9.04636
3683 21 37 13.5794 -2.11805 9.09194
3682 21 36 9.0184 -3.6084 0.741458
3696 21 46 7.97643 -1.91258 11.1131
3752 21 86 10.5346 -2.46884 16.1326
3726 21 68 8.86612 -0.544769 -1.91974
3702 21 50 10.0397 -1.10527 7.34791
3739 21 77 10.5433 4.47815 20.3999
3654 21 16 15.0165 4.15153 15.2836
3724 21 66 12.1013 6.62527 -4.48482
ITEM: TIMESTEP
285000
ITEM: NUMBER OF ATOMS
39
ITEM: BOX BOUNDS pp pp pp
-1.8373687419503838e+01 1.6554667640578401e+01
-2.4118855930291627e+01 1.3891447688204220e+01
-9.3706855094109756e+00 2.0743344335174228e+01
ITEM: ATOMS id type mol x y z
3753 21 87 -17.5505 -20.7418 -2.1267
3754 21 88 -17.9453 -19.7169 2.56
3717 21 61 -14.585 -21.7088 9.86352
3660 21 20 -11.4235 -12.6394 17.039
3680 21 34 -15.5629 -5.68419 -1.92106
3694 21 44 -11.4936 -1.72571 7.77159
3715 21 59 -10.0865 2.15518 8.0993
3734 21 74 -10.1026 11.4296 4.12756
3701 21 49 -15.4251 6.6723 18.1684
3759 21 91 -13.4277 11.6227 15.1419
3641 21 11 -15.2254 11.1547 17.7233
3664 21 24 -7.2529 -18.2269 -1.9178
3748 21 82 -4.94207 -20.6061 -1.66526
3671 21 29 -6.00282 1.5059 5.36594
3760 21 92 -5.0283 -1.29315 15.6863
3693 21 43 -3.78918 8.07471 -8.95612
3740 21 78 -9.49596 7.4266 3.87954
3704 21 52 -3.41096 7.8615 12.891
3666 21 26 7.41482 -22.4969 -4.57782
3681 21 35 3.33525 -23.6359 6.64662
3665 21 25 -0.702229 -14.9837 -0.635203
3685 21 39 0.297999 -3.78144 8.30786
3673 21 31 7.56137 -2.90349 14.3832
3751 21 85 5.38405 8.80925 14.8685
3714 21 58 -0.906522 11.5187 15.3622
3747 21 81 15.9377 -19.7818 11.848
3706 21 54 8.28564 -21.5095 13.8867
3719 21 63 14.6682 -13.6742 0.2673
3749 21 83 10.988 -9.0442 7.27525
3750 21 84 11.013 -7.9825 -9.13405
3683 21 37 13.5092 -2.144 9.11221
3682 21 36 8.97035 -3.62144 0.712024
3696 21 46 7.93342 -1.9403 11.1454
3752 21 86 10.4792 -2.49175 16.1947
3726 21 68 8.81881 -0.584343 -1.96501
3702 21 50 9.98672 -1.13999 7.3578
3739 21 77 10.4879 4.39507 20.4875
3654 21 16 14.9394 4.07128 15.3407
3724 21 66 12.0383 6.5236 -4.54536
ITEM: TIMESTEP
290000
ITEM: NUMBER OF ATOMS
38
ITEM: BOX BOUNDS pp pp pp
-1.8393612905858340e+01 1.6574593126932903e+01
-2.4169683972403419e+01 1.3942275730316013e+01
-9.3454113727920678e+00 2.0718070198539156e+01
ITEM: ATOMS id type mol x y z
3753 21 87 -17.5695 -20.7836 -2.11359
3754 21 88 -17.9648 -19.756 2.56525
3717 21 61 -14.6006 -21.7532 9.8565
3660 21 20 -11.4355 -12.6595 17.0199
3694 21 44 -11.5057 -1.71665 7.76809
3715 21 59 -10.0969 2.17462 8.09525
3734 21 74 -10.1131 11.4738 4.13018
3701 21 49 -15.4417 6.70383 18.1475
3759 21 91 -13.442 11.6674 15.126
3641 21 11 -15.2417 11.1982 17.7031
3664 21 24 -7.26014 -18.262 -1.90503
3748 21 82 -4.94667 -20.6475 -1.65292
3671 21 29 -6.00863 1.52361 5.36648
3760 21 92 -5.033 -1.28293 15.6695
3693 21 43 -3.79246 8.10998 -8.93154
3740 21 78 -9.50575 7.46014 3.88257
3704 21 52 -3.41381 7.8962 12.8789
3666 21 26 7.42432 -22.5434 -4.56059
3681 21 35 3.34009 -23.6855 6.645
3665 21 25 -0.701993 -15.0101 -0.624592
3685 21 39 0.299376 -3.77788 8.30346
3673 21 31 7.57103 -2.89758 14.3686
3751 21 85 5.39123 8.84648 14.8531
3714 21 58 -0.906519 11.5631 15.346
3747 21 81 15.9569 -19.8211 11.8377
3706 21 54 8.29613 -21.5534 13.8729
3719 21 63 14.686 -13.6971 0.276396
3749 21 83 11.0016 -9.05472 7.27259
3750 21 84 11.0266 -7.99017 -9.10917
3683 21 37 13.5257 -2.13606 9.10646
3682 21 36 8.98162 -3.61745 0.720374
3696 21 46 7.94351 -1.93182 11.1362
3752 21 86 10.4922 -2.48474 16.1771
3726 21 68 8.8299 -0.572229 -1.95217
3702 21 50 9.99916 -1.12936 7.355
3739 21 77 10.5009 4.4205 20.4627
3654 21 16 14.9574 4.09584 15.3245
3724 21 66 12.0531 6.55472 -4.52819
ITEM: TIMESTEP
295000
ITEM: NUMBER OF ATOMS
39
ITEM: BOX BOUNDS pp pp pp
-1.8383879350578034e+01 1.6564859571652597e+01
-2.4399008739871732e+01 1.4171600497784326e+01
-9.1620255812599254e+00 2.0534684407001624e+01
ITEM: ATOMS id type mol x y z
3753 21 87 -17.5602 -20.9722 -2.01843
3754 21 88 -17.9553 -19.9322 2.60332
3717 21 61 -14.593 -21.9535 9.80563
3660 21 20 -11.4297 -12.7503 16.8817
3694 21 44 -11.4998 -1.67576 7.7427
3715 21 59 -10.0918 2.26233 8.06586
3734 21 74 -10.1079 11.6735 4.14916
3701 21 49 -15.4336 6.84604 17.9954
3759 21 91 -13.435 11.8694 15.0109
3641 21 11 -15.2337 11.3945 17.5565
3764 21 94 -18.2637 7.1466 16.9897
3664 21 24 -7.2566 -18.4202 -1.81242
3748 21 82 -4.94442 -20.8344 -1.56338
3671 21 29 -6.0058 1.60348 5.37038
3760 21 92 -5.0307 -1.23683 15.5477
3693 21 43 -3.79086 8.26911 -8.7532
3740 21 78 -9.50097 7.61145 3.90458
3704 21 52 -3.41242 8.05276 12.7912
3666 21 26 7.41968 -22.7532 -4.43558
3681 21 35 3.33772 -23.909 6.63331
3665 21 25 -0.702108 -15.1292 -0.547599
3685 21 39 0.298703 -3.7618 8.27153
3673 21 31 7.56631 -2.87091 14.2627
3751 21 85 5.38772 9.01448 14.7413
3714 21 58 -0.906521 11.7638 15.2281
3747 21 81 15.9475 -19.998 11.7626
3706 21 54 8.29101 -21.7512 13.773
3719 21 63 14.6773 -13.8004 0.342397
3749 21 83 10.9949 -9.10214 7.25323
3750 21 84 11.0199 -8.02478 -8.92867
3683 21 37 13.5176 -2.10022 9.06474
3682 21 36 8.97611 -3.59944 0.780958
3696 21 46 7.93858 -1.89352 11.0698
3752 21 86 10.4858 -2.4531 16.0491
3726 21 68 8.82448 -0.517576 -1.85898
3702 21 50 9.99308 -1.08141 7.33464
3739 21 77 10.4945 4.53524 20.2824
3654 21 16 14.9486 4.20667 15.2069
3724 21 66 12.0459 6.69514 -4.40357
ITEM: TIMESTEP
300000
ITEM: NUMBER OF ATOMS
40
ITEM: BOX BOUNDS pp pp pp
-1.8387710620461121e+01 1.6568690841535684e+01
-2.4339035259558756e+01 1.4111627017471349e+01
-9.2164441460972313e+00 2.0589102971817265e+01
ITEM: ATOMS id type mol x y z
3753 21 87 -17.5639 -20.9228 -2.04666
3754 21 88 -17.959 -19.8861 2.59202
3717 21 61 -14.596 -21.9011 9.82072
3660 21 20 -11.432 -12.7266 16.9227
3694 21 44 -11.5021 -1.68646 7.75023
3715 21 59 -10.0938 2.23939 8.07458
3734 21 74 -10.11 11.6213 4.14353
3701 21 49 -15.4368 6.80885 18.0405
3759 21 91 -13.4377 11.8166 15.0451
3641 21 11 -15.2369 11.3432 17.6
3764 21 94 -18.2675 7.10847 17.0312
3664 21 24 -7.258 -18.3788 -1.8399
3748 21 82 -4.94531 -20.7855 -1.58995
3671 21 29 -6.00691 1.58259 5.36922
3760 21 92 -5.03161 -1.24889 15.5838
3693 21 43 -3.79149 8.2275 -8.80612
3740 21 78 -9.50285 7.57188 3.89805
3704 21 52 -3.41297 8.01182 12.8172
3666 21 26 7.4215 -22.6983 -4.47268
3681 21 35 3.33865 -23.8505 6.63678
3665 21 25 -0.702063 -15.098 -0.570446
3685 21 39 0.298968 -3.766 8.28101
3673 21 31 7.56817 -2.87789 14.2941
3751 21 85 5.3891 8.97055 14.7744
3765 21 95 -0.708892 12.4591 11.3117
3714 21 58 -0.90652 11.7113 15.2631
3747 21 81 15.9512 -19.9518 11.7849
3706 21 54 8.29302 -21.6995 13.8027
3719 21 63 14.6807 -13.7734 0.322812
3749 21 83 10.9975 -9.08974 7.25898
3750 21 84 11.0226 -8.01573 -8.98223
3683 21 37 13.5208 -2.10959 9.07712
3682 21 36 8.97828 -3.60415 0.76298
3696 21 46 7.94052 -1.90354 11.0895
3752 21 86 10.4883 -2.46137 16.0871
3726 21 68 8.82662 -0.531869 -1.88664
3702 21 50 9.99547 -1.09395 7.34068
3739 21 77 10.497 4.50523 20.3359
3654 21 16 14.9521 4.17769 15.2418
3724 21 66 12.0487 6.65842 -4.44055
ITEM: TIMESTEP
305000
ITEM: NUMBER OF ATOMS
40
ITEM: BOX BOUNDS pp pp pp
-1.8411091923178091e+01 1.6592072144252654e+01
-2.4324766356468075e+01 1.4097358114380668e+01
-9.2294219438215102e+00 2.0602080769522804e+01
ITEM: ATOMS id type mol x y z
3753 21 87 -17.5862 -20.9111 -2.0534
3754 21 88 -17.9818 -19.8752 2.58933
3717 21 61 -14.6143 -21.8886 9.82433
3660 21 20 -11.4461 -12.7209 16.9325
3694 21 44 -11.5163 -1.689 7.75203
3715 21 59 -10.1061 2.23394 8.07666
3734 21 74 -10.1223 11.6088 4.14218
3701 21 49 -15.4562 6.8 18.0513
3759 21 91 -13.4545 11.804 15.0532
3641 21 11 -15.256 11.331 17.6104
3764 21 94 -18.2907 7.0994 17.041
3664 21 24 -7.26649 -18.369 -1.84646
3748 21 82 -4.95071 -20.7739 -1.59629
3671 21 29 -6.01373 1.57762 5.36895
3760 21 92 -5.03712 -1.25176 15.5924
3693 21 43 -3.79535 8.2176 -8.81874
3740 21 78 -9.51435 7.56247 3.89649
3704 21 52 -3.41631 8.00208 12.8234
3666 21 26 7.43265 -22.6853 -4.48152
3681 21 35 3.34434 -23.8366 6.63761
3665 21 25 -0.701785 -15.0906 -0.575895
3685 21 39 0.300585 -3.767 8.28327
3673 21 31 7.57951 -2.87955 14.3016
3751 21 85 5.39753 8.96009 14.7824
3765 21 95 -0.708623 12.4461 11.3166
3714 21 58 -0.906516 11.6989 15.2714
3747 21 81 15.9738 -19.9407 11.7902
3706 21 54 8.30534 -21.6872 13.8097
3719 21 63 14.7016 -13.7669 0.318141
3749 21 83 11.0135 -9.08679 7.26035
3750 21 84 11.0385 -8.01358 -8.99501
3683 21 37 13.5401 -2.11182 9.08007
3682 21 36 8.99151 -3.60527 0.758693
3696 21 46 7.95236 -1.90592 11.0942
3752 21 86 10.5036 -2.46334 16.0961
3726 21 68 8.83964 -0.535269 -1.89323
3702 21 50 10.0101 -1.09694 7.34212
3739 21 77 10.5123 4.49809 20.3487
3654 21 16 14.9733 4.17079 15.2501
3724 21 66 12.0661 6.64968 -4.44937
ITEM: TIMESTEP
310000
ITEM: NUMBER OF ATOMS
40
ITEM: BOX BOUNDS pp pp pp
-1.8507900021395209e+01 1.6688880242469772e+01
-2.4348732317778595e+01 1.4121324075691188e+01
-9.0827524881461486e+00 2.0455411313840219e+01
ITEM: ATOMS id type mol x y z
3753 21 87 -17.6784 -20.9308 -1.97729
3754 21 88 -18.0763 -19.8936 2.61978
3717 21 61 -14.6901 -21.9096 9.78364
3660 21 20 -11.5044 -12.7304 16.8219
3694 21 44 -11.575 -1.68473 7.73172
3715 21 59 -10.157 2.2431 8.05316
3734 21 74 -10.1732 11.6297 4.15737
3701 21 49 -15.5367 6.81486 17.9297
3759 21 91 -13.5239 11.8251 14.9611
3641 21 11 -15.3354 11.3515 17.4932
3764 21 94 -18.3868 7.11463 16.9294
3664 21 24 -7.30165 -18.3855 -1.77239
3748 21 82 -4.97306 -20.7934 -1.52468
3671 21 29 -6.04197 1.58597 5.37207
3760 21 92 -5.05995 -1.24694 15.495
3693 21 43 -3.81131 8.23423 -8.67611
3740 21 78 -9.56195 7.57828 3.91409
3704 21 52 -3.43018 8.01844 12.7533
3666 21 26 7.47879 -22.7072 -4.38154
3681 21 35 3.36787 -23.86 6.62825
3665 21 25 -0.700636 -15.1031 -0.514317
3685 21 39 0.307279 -3.76532 8.25773
3673 21 31 7.62646 -2.87676 14.2169
3751 21 85 5.43242 8.97765 14.6929
3765 21 95 -0.707512 12.468 11.2612
3714 21 58 -0.906499 11.7198 15.1772
3747 21 81 16.0671 -19.9592 11.7302
3706 21 54 8.35631 -21.7078 13.7299
3719 21 63 14.7879 -13.7777 0.370928
3749 21 83 11.0794 -9.09174 7.24487
3750 21 84 11.1046 -8.01719 -8.85064
3683 21 37 13.62 -2.10808 9.0467
3682 21 36 9.04627 -3.60339 0.807147
3696 21 46 8.00137 -1.90192 11.041
3752 21 86 10.5667 -2.46003 15.9938
3726 21 68 8.89357 -0.529558 -1.8187
3702 21 50 10.0705 -1.09193 7.32584
3739 21 77 10.5755 4.51009 20.2045
3654 21 16 15.0612 4.18238 15.1561
3724 21 66 12.1378 6.66435 -4.3497
ITEM: TIMESTEP
315000
ITEM: NUMBER OF ATOMS
39
ITEM: BOX BOUNDS pp pp pp
-1.8302758580838095e+01 1.6483738801912658e+01
-2.4208886314838960e+01 1.3981478072751553e+01
-9.3000398109557203e+00 2.0672698636616293e+01
ITEM: ATOMS id type mol x y z
3753 21 87 -17.4829 -20.8158 -2.09004
3754 21 88 -17.8761 -19.7861 2.57467
3717 21 61 -14.5295 -21.7874 9.84392
3660 21 20 -11.3808 -12.675 16.9857
3694 21 44 -11.4506 -1.70966 7.76181
3715 21 59 -10.0492 2.18962 8.08798
3734 21 74 -10.0652 11.508 4.13487
3701 21 49 -15.3662 6.72814 18.1098
3759 21 91 -13.3768 11.7019 15.0975
3641 21 11 -15.1672 11.2318 17.6669
3764 21 94 -18.1831 7.02573 17.0948
3664 21 24 -7.22714 -18.289 -1.88212
3748 21 82 -4.92569 -20.6794 -1.63077
3671 21 29 -5.98214 1.53726 5.36744
3760 21 92 -5.01157 -1.27505 15.6393
3693 21 43 -3.77748 8.13718 -8.88742
3740 21 78 -9.46109 7.486 3.88802
3666 21 26 7.38101 -22.5793 -4.52966
3681 21 35 3.31801 -23.7237 6.64211
3665 21 25 -0.703071 -15.0305 -0.605543
3685 21 39 0.293095 -3.77513 8.29556
3673 21 31 7.52696 -2.89302 14.3424
3751 21 85 5.35849 8.8752 14.8254
3765 21 95 -0.709867 12.3402 11.3433
3714 21 58 -0.906534 11.5974 15.3168
3747 21 81 15.8693 -19.8513 11.8191
3706 21 54 8.2483 -21.5872 13.8482
3719 21 63 14.605 -13.7147 0.292726
3749 21 83 10.9397 -9.06282 7.2678
3750 21 84 10.9646 -7.99609 -9.06451
3683 21 37 13.4507 -2.12993 9.09614
3682 21 36 8.93022 -3.61437 0.735363
3696 21 46 7.8975 -1.92527 11.1198
3752 21 86 10.4329 -2.47933 16.1454
3726 21 68 8.77929 -0.562886 -1.92912
3702 21 50 9.94247 -1.12117 7.34996
3739 21 77 10.4416 4.44012 20.4181
3654 21 16 14.875 4.11479 15.2954
3724 21 66 11.9857 6.57872 -4.49735
ITEM: TIMESTEP
320000
ITEM: NUMBER OF ATOMS
39
ITEM: BOX BOUNDS pp pp pp
-1.8423527807133723e+01 1.6604508028208286e+01
-2.4195069150582551e+01 1.3967660908495144e+01
-9.2862258093184664e+00 2.0658884634962394e+01
ITEM: ATOMS id type mol x y z
3753 21 87 -17.598 -20.8044 -2.08287
3754 21 88 -17.994 -19.7755 2.57754
3717 21 61 -14.624 -21.7754 9.84008
3660 21 20 -11.4536 -12.6696 16.9753
3694 21 44 -11.5238 -1.71212 7.7599
3715 21 59 -10.1126 2.18433 8.08576
3734 21 74 -10.1288 11.4959 4.1363
3701 21 49 -15.4665 6.71957 18.0984
3759 21 91 -13.4634 11.6898 15.0889
3641 21 11 -15.2662 11.22 17.6558
3764 21 94 -18.303 7.01695 17.0843
3664 21 24 -7.27101 -18.2795 -1.87514
3748 21 82 -4.95358 -20.6682 -1.62402
3671 21 29 -6.01736 1.53245 5.36774
3760 21 92 -5.04005 -1.27783 15.6302
3693 21 43 -3.7974 8.12759 -8.87398
3740 21 78 -9.52046 7.47689 3.88968
3666 21 26 7.43858 -22.5667 -4.52025
3681 21 35 3.34736 -23.7102 6.64123
3665 21 25 -0.701638 -15.0233 -0.599743
3685 21 39 0.301445 -3.7761 8.29316
3673 21 31 7.58554 -2.89463 14.3344
3751 21 85 5.40201 8.86508 14.817
3765 21 95 -0.708481 12.3275 11.3381
3714 21 58 -0.906514 11.5853 15.3079
3747 21 81 15.9858 -19.8406 11.8135
3706 21 54 8.31188 -21.5753 13.8407
3719 21 63 14.7127 -13.7085 0.297697
3749 21 83 11.0219 -9.05997 7.26634
3750 21 84 11.047 -7.994 -9.05092
3683 21 37 13.5504 -2.13209 9.093
3682 21 36 8.99854 -3.61545 0.739927
3696 21 46 7.95865 -1.92758 11.1148
3752 21 86 10.5117 -2.48123 16.1358
3726 21 68 8.84657 -0.566179 -1.9221
3702 21 50 10.0178 -1.12405 7.34843
3739 21 77 10.5204 4.4332 20.4045
3654 21 16 14.9846 4.10811 15.2865
3724 21 66 12.0753 6.57026 -4.48797
ITEM: TIMESTEP
325000
ITEM: NUMBER OF ATOMS
39
ITEM: BOX BOUNDS pp pp pp
-1.8427128290112176e+01 1.6608108511186739e+01
-2.4245494431255171e+01 1.4018086189167764e+01
-9.2683187037361172e+00 2.0640977529363656e+01
ITEM: ATOMS id type mol x y z
3753 21 87 -17.6015 -20.8459 -2.07358
3754 21 88 -17.9975 -19.8142 2.58125
3717 21 61 -14.6268 -21.8194 9.83512
3660 21 20 -11.4557 -12.6895 16.9618
3694 21 44 -11.526 -1.70313 7.75742
3715 21 59 -10.1145 2.20362 8.08289
3734 21 74 -10.1307 11.5398 4.13816
3701 21 49 -15.4695 6.75084 18.0836
3759 21 91 -13.466 11.7342 15.0776
3641 21 11 -15.2692 11.2631 17.6415
3764 21 94 -18.3066 7.049 17.0707
3664 21 24 -7.27231 -18.3143 -1.8661
3748 21 82 -4.95441 -20.7093 -1.61528
3671 21 29 -6.01841 1.55001 5.36812
3760 21 92 -5.0409 -1.26769 15.6183
3693 21 43 -3.79799 8.16259 -8.85657
3740 21 78 -9.52223 7.51016 3.89183
3666 21 26 7.44029 -22.6128 -4.50804
3681 21 35 3.34823 -23.7594 6.64009
3665 21 25 -0.701595 -15.0495 -0.592225
3685 21 39 0.301694 -3.77256 8.29004
3673 21 31 7.58729 -2.88876 14.3241
3751 21 85 5.40331 8.90202 14.8061
3765 21 95 -0.708439 12.3736 11.3313
3714 21 58 -0.906513 11.6295 15.2964
3747 21 81 15.9892 -19.8796 11.8061
3706 21 54 8.31378 -21.6188 13.8309
3719 21 63 14.7159 -13.7312 0.304142
3749 21 83 11.0244 -9.07039 7.26445
3750 21 84 11.0495 -8.00161 -9.03329
3683 21 37 13.5533 -2.12421 9.08892
3682 21 36 9.00058 -3.61149 0.745843
3696 21 46 7.96048 -1.91916 11.1083
3752 21 86 10.514 -2.47428 16.1233
3726 21 68 8.84857 -0.554162 -1.913
3702 21 50 10.0201 -1.11351 7.34644
3739 21 77 10.5228 4.45843 20.3869
3654 21 16 14.9879 4.13248 15.2751
3724 21 66 12.078 6.60114 -4.4758
ITEM: TIMESTEP
330000
ITEM: NUMBER OF ATOMS
39
ITEM: BOX BOUNDS pp pp pp
-1.8356962456343219e+01 1.6537942677417782e+01
-2.4252955415418651e+01 1.4025547173331244e+01
-9.3244031725750176e+00 2.0697061998180583e+01
ITEM: ATOMS id type mol x y z
3753 21 87 -17.5346 -20.8521 -2.10268
3754 21 88 -17.929 -19.82 2.56961
3717 21 61 -14.5719 -21.8259 9.85068
3660 21 20 -11.4135 -12.6925 17.0041
3694 21 44 -11.4835 -1.7018 7.76518
3715 21 59 -10.0777 2.20647 8.09188
3734 21 74 -10.0938 11.5463 4.13235
3701 21 49 -15.4112 6.75547 18.13
3759 21 91 -13.4157 11.7408 15.1128
3641 21 11 -15.2116 11.2695 17.6863
3764 21 94 -18.2369 7.05375 17.1134
3664 21 24 -7.24683 -18.3194 -1.89443
3748 21 82 -4.93821 -20.7154 -1.64266
3671 21 29 -5.99795 1.55261 5.36693
3760 21 92 -5.02435 -1.26619 15.6555
3693 21 43 -3.78642 8.16776 -8.91111
3740 21 78 -9.48774 7.51508 3.8851
3666 21 26 7.40685 -22.6196 -4.54627
3681 21 35 3.33118 -23.7666 6.64366
3665 21 25 -0.702428 -15.0533 -0.615771
3685 21 39 0.296842 -3.77204 8.29981
3673 21 31 7.55325 -2.8879 14.3565
3751 21 85 5.37802 8.90749 14.8403
3765 21 95 -0.709245 12.3805 11.3525
3714 21 58 -0.906525 11.636 15.3325
3747 21 81 15.9215 -19.8853 11.8291
3706 21 54 8.27684 -21.6252 13.8615
3719 21 63 14.6533 -13.7346 0.283957
3749 21 83 10.9766 -9.07194 7.27037
3750 21 84 11.0016 -8.00274 -9.08849
3683 21 37 13.4954 -2.12304 9.10168
3682 21 36 8.96089 -3.61091 0.727314
3696 21 46 7.92495 -1.91791 11.1286
3752 21 86 10.4683 -2.47325 16.1624
3726 21 68 8.80949 -0.552384 -1.9415
3702 21 50 9.97629 -1.11195 7.35267
3739 21 77 10.477 4.46217 20.442
3654 21 16 14.9242 4.13609 15.311
3724 21 66 12.0259 6.60571 -4.51391
ITEM: TIMESTEP
335000
ITEM: NUMBER OF ATOMS
39
ITEM: BOX BOUNDS pp pp pp
-1.8442534834940886e+01 1.6623515056015449e+01
-2.4301547243244841e+01 1.4074139001157434e+01
-9.0587637823334646e+00 2.0431422607941801e+01
ITEM: ATOMS id type mol x y z
3753 21 87 -17.6161 -20.892 -1.96484
3754 21 88 -18.0125 -19.8573 2.62476
3717 21 61 -14.6389 -21.8684 9.77698
3660 21 20 -11.465 -12.7117 16.8038
3694 21 44 -11.5353 -1.69314 7.72839
3715 21 59 -10.1226 2.22506 8.04931
3701 21 49 -15.4823 6.7856 17.9098
3759 21 91 -13.477 11.7835 14.946
3641 21 11 -15.2818 11.3111 17.474
3764 21 94 -18.3219 7.08464 16.9111
3664 21 24 -7.27791 -18.3529 -1.76027
3748 21 82 -4.95797 -20.755 -1.51297
3671 21 29 -6.0229 1.56954 5.37258
3760 21 92 -5.04454 -1.25643 15.4791
3693 21 43 -3.80053 8.20148 -8.65279
3740 21 78 -9.52981 7.54714 3.91697
3666 21 26 7.44764 -22.664 -4.36519
3681 21 35 3.35198 -23.814 6.62672
3665 21 25 -0.701412 -15.0786 -0.504246
3685 21 39 0.302759 -3.76863 8.25356
3673 21 31 7.59476 -2.88225 14.203
3766 21 96 2.05347 0.296329 16.7673
3751 21 85 5.40886 8.94308 14.6783
3765 21 95 -0.708262 12.4249 11.2522
3714 21 58 -0.906511 11.6785 15.1618
3747 21 81 16.0041 -19.9228 11.7204
3706 21 54 8.32189 -21.6671 13.7168
3719 21 63 14.7296 -13.7565 0.379561
3749 21 83 11.0349 -9.08199 7.24234
3750 21 84 11.06 -8.01007 -8.82703
3683 21 37 13.5661 -2.11545 9.04124
3682 21 36 9.0093 -3.60709 0.815072
3696 21 46 7.96828 -1.9098 11.0323
3752 21 86 10.5241 -2.46654 15.977
3726 21 68 8.85716 -0.540803 -1.80651
3702 21 50 10.0297 -1.10179 7.32318
3739 21 77 10.5328 4.48648 20.1809
3654 21 16 15.0018 4.15957 15.1407
3724 21 66 12.0894 6.63546 -4.3334
ITEM: TIMESTEP
340000
ITEM: NUMBER OF ATOMS
39
ITEM: BOX BOUNDS pp pp pp
-1.8474169861912209e+01 1.6655150082986772e+01
-2.4275842007869933e+01 1.4048433765782526e+01
-9.2006651390808152e+00 2.0573323964660347e+01
ITEM: ATOMS id type mol x y z
3753 21 87 -17.6463 -20.8709 -2.03848
3754 21 88 -18.0434 -19.8376 2.5953
3717 21 61 -14.6637 -21.8459 9.81635
3660 21 20 -11.484 -12.7015 16.9108
3694 21 44 -11.5545 -1.69772 7.74805
3715 21 59 -10.1393 2.21522 8.07205
3764 21 94 -18.3533 7.0683 17.0192
3701 21 49 -15.5086 6.76966 18.0275
3759 21 91 -13.4997 11.7609 15.0351
3641 21 11 -15.3077 11.2891 17.5874
3664 21 24 -7.2894 -18.3352 -1.83193
3748 21 82 -4.96527 -20.734 -1.58225
3671 21 29 -6.03213 1.56058 5.36956
3760 21 92 -5.052 -1.26159 15.5733
3693 21 43 -3.80575 8.18364 -8.79078
3740 21 78 -9.54536 7.53018 3.89994
3666 21 26 7.46272 -22.6405 -4.46192
3681 21 35 3.35967 -23.7889 6.63577
3665 21 25 -0.701037 -15.0652 -0.563821
3685 21 39 0.304946 -3.77043 8.27826
3673 21 31 7.6101 -2.88523 14.285
3766 21 96 2.05881 0.289081 16.8739
3751 21 85 5.42026 8.92425 14.7648
3765 21 95 -0.707899 12.4014 11.3058
3714 21 58 -0.906505 11.656 15.253
3747 21 81 16.0346 -19.903 11.7784
3706 21 54 8.33855 -21.6449 13.7941
3719 21 63 14.7579 -13.7449 0.328491
3749 21 83 11.0564 -9.07667 7.25731
3750 21 84 11.0816 -8.00619 -8.9667
3683 21 37 13.5922 -2.11947 9.07353
3682 21 36 9.02719 -3.60911 0.768193
3696 21 46 7.9843 -1.91409 11.0838
3752 21 86 10.5447 -2.47009 16.0761
3726 21 68 8.87478 -0.546929 -1.87862
3702 21 50 10.0494 -1.10717 7.33893
3739 21 77 10.5535 4.47362 20.3204
3654 21 16 15.0306 4.14715 15.2317
3724 21 66 12.1128 6.61972 -4.42983
ITEM: TIMESTEP
345000
ITEM: NUMBER OF ATOMS
38
ITEM: BOX BOUNDS pp pp pp
-1.8375151220556681e+01 1.6556131441631244e+01
-2.4441497724829482e+01 1.4214089482742075e+01
-9.1509948857211647e+00 2.0523653711286876e+01
ITEM: ATOMS id type mol x y z
3753 21 87 -17.5519 -21.0071 -2.0127
3754 21 88 -17.9468 -19.9648 2.60561
3717 21 61 -14.5861 -21.9906 9.80257
3660 21 20 -11.4244 -12.7671 16.8733
3694 21 44 -11.4945 -1.66819 7.74117
3715 21 59 -10.0872 2.27858 8.06409
3764 21 94 -18.255 7.17361 16.9813
3759 21 91 -13.4287 11.9068 15.0039
3641 21 11 -15.2266 11.4309 17.5477
3664 21 24 -7.25343 -18.4495 -1.80685
3748 21 82 -4.94241 -20.8691 -1.558
3671 21 29 -6.00325 1.61828 5.37062
3760 21 92 -5.02864 -1.22829 15.5404
3693 21 43 -3.78942 8.2986 -8.74248
3740 21 78 -9.49668 7.63949 3.9059
3666 21 26 7.41552 -22.7921 -4.42806
3681 21 35 3.3356 -23.9504 6.6326
3665 21 25 -0.702212 -15.1513 -0.542968
3685 21 39 0.2981 -3.75882 8.26961
3673 21 31 7.56208 -2.86597 14.2563
3766 21 96 2.04208 0.335788 16.8366
3751 21 85 5.38458 9.04561 14.7345
3765 21 95 -0.709036 12.5528 11.287
3714 21 58 -0.906522 11.801 15.221
3747 21 81 15.9391 -20.0308 11.7581
3706 21 54 8.28641 -21.7879 13.767
3719 21 63 14.6695 -13.8195 0.346367
3749 21 83 10.989 -9.11093 7.25207
3750 21 84 11.014 -8.0312 -8.91781
3683 21 37 13.5104 -2.09358 9.06223
3682 21 36 8.97118 -3.5961 0.784602
3696 21 46 7.93416 -1.88643 11.0658
3752 21 86 10.4801 -2.44724 16.0414
3726 21 68 8.81962 -0.50745 -1.85338
3702 21 50 9.98764 -1.07253 7.33342
3739 21 77 10.4888 4.5565 20.2716
3654 21 16 14.9407 4.22721 15.1998
3724 21 66 12.0394 6.72116 -4.39607
ITEM: TIMESTEP
350000
ITEM: NUMBER OF ATOMS
39
ITEM: BOX BOUNDS pp pp pp
-1.8495609640614841e+01 1.6676589861689404e+01
-2.4316739709822379e+01 1.4089331467734972e+01
-9.1164690442001586e+00 2.0489127869751144e+01
ITEM: ATOMS id type mol x y z
3753 21 87 -17.6667 -20.9045 -1.99479
3754 21 88 -18.0643 -19.869 2.61278
3717 21 61 -14.6805 -21.8816 9.79299
3770 21 98 -17.1556 -12.1895 -8.39089
3660 21 20 -11.497 -12.7177 16.8473
3694 21 44 -11.5675 -1.69043 7.73639
3715 21 59 -10.1505 2.23087 8.05856
3764 21 94 -18.3746 7.0943 16.9551
3759 21 91 -13.5151 11.7969 14.9823
3641 21 11 -15.3253 11.3241 17.5201
3664 21 24 -7.29719 -18.3634 -1.78941
3748 21 82 -4.97022 -20.7674 -1.54114
3671 21 29 -6.03838 1.57483 5.37135
3760 21 92 -5.05705 -1.25337 15.5174
3693 21 43 -3.80928 8.21203 -8.7089
3740 21 78 -9.5559 7.55717 3.91005
3666 21 26 7.47293 -22.6779 -4.40453
3681 21 35 3.36488 -23.8288 6.6304
3665 21 25 -0.700782 -15.0865 -0.528473
3685 21 39 0.306429 -3.76757 8.2636
3673 21 31 7.6205 -2.88048 14.2364
3766 21 96 2.06244 0.300612 16.8106
3751 21 85 5.42799 8.95421 14.7135
3765 21 95 -0.707653 12.4388 11.274
3714 21 58 -0.906501 11.6918 15.1989
3747 21 81 16.0553 -19.9345 11.744
3706 21 54 8.34984 -21.6802 13.7482
3719 21 63 14.777 -13.7633 0.358793
3749 21 83 11.071 -9.08513 7.24843
3750 21 84 11.0962 -8.01237 -8.88383
3683 21 37 13.6099 -2.11308 9.05437
3682 21 36 9.03932 -3.6059 0.796008
3696 21 46 7.99515 -1.90726 11.0532
3752 21 86 10.5587 -2.46445 16.0173
3726 21 68 8.88672 -0.537182 -1.83583
3702 21 50 10.0628 -1.09862 7.32958
3739 21 77 10.5674 4.49408 20.2376
3654 21 16 15.05 4.16692 15.1777
3724 21 66 12.1287 6.64477 -4.37261
ITEM: TIMESTEP
355000
ITEM: NUMBER OF ATOMS
38
ITEM: BOX BOUNDS pp pp pp
-1.8459841180433308e+01 1.6640821401507871e+01
-2.4307382520660305e+01 1.4079974278572898e+01
-9.1553967904702880e+00 2.0528055616000266e+01
ITEM: ATOMS id type mol x y z
3753 21 87 -17.6326 -20.8968 -2.01499
3754 21 88 -18.0294 -19.8618 2.6047
3717 21 61 -14.6525 -21.8735 9.80379
3770 21 98 -17.1226 -12.1861 -8.42791
3660 21 20 -11.4754 -12.714 16.8767
3694 21 44 -11.5458 -1.6921 7.74178
3715 21 59 -10.1317 2.22729 8.0648
3764 21 94 -18.3391 7.08835 16.9847
3759 21 91 -13.4894 11.7887 15.0067
3641 21 11 -15.296 11.3161 17.5512
3664 21 24 -7.28419 -18.357 -1.80907
3748 21 82 -4.96196 -20.7597 -1.56015
3671 21 29 -6.02795 1.57157 5.37052
3760 21 92 -5.04862 -1.25525 15.5433
3693 21 43 -3.80338 8.20553 -8.74676
3740 21 78 -9.53832 7.55099 3.90538
3666 21 26 7.45589 -22.6694 -4.43106
3681 21 35 3.35619 -23.8197 6.63289
3665 21 25 -0.701207 -15.0816 -0.544816
3685 21 39 0.303956 -3.76822 8.27038
3673 21 31 7.60315 -2.88157 14.2589
3766 21 96 2.05639 0.297974 16.8399
3751 21 85 5.4151 8.94736 14.7372
3765 21 95 -0.708064 12.4302 11.2887
3714 21 58 -0.906508 11.6836 15.2239
3747 21 81 16.0208 -19.9273 11.7599
3706 21 54 8.331 -21.6722 13.7694
3719 21 63 14.7451 -13.7591 0.344783
3750 21 84 11.0718 -8.01095 -8.92214
3683 21 37 13.5804 -2.11454 9.06323
3682 21 36 9.01909 -3.60663 0.783148
3696 21 46 7.97704 -1.90882 11.0674
3752 21 86 10.5354 -2.46574 16.0445
3726 21 68 8.8668 -0.539412 -1.85561
3702 21 50 10.0405 -1.10057 7.3339
3739 21 77 10.5441 4.4894 20.2759
3654 21 16 15.0176 4.16239 15.2027
3724 21 66 12.1022 6.63904 -4.39906
ITEM: TIMESTEP
360000
ITEM: NUMBER OF ATOMS
38
ITEM: BOX BOUNDS pp pp pp
-1.8448696754804992e+01 1.6629676975879555e+01
-2.4232978682380253e+01 1.4005570440292846e+01
-9.2061741647928237e+00 2.0578832990300882e+01
ITEM: ATOMS id type mol x y z
3753 21 87 -17.622 -20.8356 -2.04134
3754 21 88 -18.0185 -19.8046 2.59416
3717 21 61 -14.6437 -21.8085 9.81788
3770 21 98 -17.1123 -12.1587 -8.47619
3660 21 20 -11.4687 -12.6846 16.9149
3694 21 44 -11.5391 -1.70536 7.74881
3715 21 59 -10.1259 2.19883 8.07293
3764 21 94 -18.328 7.04105 17.0233
3759 21 91 -13.4815 11.7232 15.0386
3641 21 11 -15.2868 11.2524 17.5918
3664 21 24 -7.28015 -18.3056 -1.83472
3748 21 82 -4.95939 -20.6991 -1.58494
3671 21 29 -6.0247 1.54565 5.36944
3760 21 92 -5.04599 -1.27021 15.577
3693 21 43 -3.80155 8.1539 -8.79614
3740 21 78 -9.53284 7.5019 3.89928
3666 21 26 7.45057 -22.6013 -4.46568
3681 21 35 3.35348 -23.7472 6.63612
3665 21 25 -0.701339 -15.043 -0.566134
3685 21 39 0.303185 -3.77344 8.27922
3673 21 31 7.59775 -2.89022 14.2882
3766 21 96 2.05451 0.276996 16.878
3751 21 85 5.41108 8.89285 14.7682
3765 21 95 -0.708192 12.3622 11.3078
3714 21 58 -0.906509 11.6185 15.2565
3747 21 81 16.01 -19.8699 11.7807
3706 21 54 8.32513 -21.608 13.7971
3719 21 63 14.7351 -13.7256 0.326508
3750 21 84 11.0642 -7.99972 -8.97212
3683 21 37 13.5712 -2.12617 9.07478
3682 21 36 9.01278 -3.61248 0.766373
3696 21 46 7.9714 -1.92125 11.0858
3752 21 86 10.5281 -2.476 16.0799
3726 21 68 8.86059 -0.557144 -1.88142
3702 21 50 10.0335 -1.11613 7.33954
3739 21 77 10.5368 4.45217 20.3258
3654 21 16 15.0074 4.12643 15.2352
3724 21 66 12.0939 6.59348 -4.43357
ITEM: TIMESTEP
365000
ITEM: NUMBER OF ATOMS
38
ITEM: BOX BOUNDS pp pp pp
-1.8376846042509392e+01 1.6557826263583955e+01
-2.4317055742243063e+01 1.4089647500155657e+01
-9.2669625596296150e+00 2.0639621385114758e+01
ITEM: ATOMS id type mol x y z
3753 21 87 -17.5535 -20.9048 -2.07288
3754 21 88 -17.9484 -19.8692 2.58154
3717 21 61 -14.5875 -21.8819 9.83474
3770 21 98 -17.0459 -12.1896 -8.534
3660 21 20 -11.4255 -12.7179 16.9608
3694 21 44 -11.4955 -1.69037 7.75723
3715 21 59 -10.0881 2.23099 8.08268
3764 21 94 -18.2567 7.0945 17.0696
3759 21 91 -13.43 11.7972 15.0768
3641 21 11 -15.2279 11.3244 17.6404
3664 21 24 -7.25405 -18.3636 -1.86542
3748 21 82 -4.9428 -20.7676 -1.61462
3671 21 29 -6.00374 1.57494 5.36815
3760 21 92 -5.02904 -1.25331 15.6174
3693 21 43 -3.7897 8.21224 -8.85525
3740 21 78 -9.49751 7.55738 3.89199
3666 21 26 7.41633 -22.6782 -4.50712
3681 21 35 3.33601 -23.8291 6.64
3665 21 25 -0.702192 -15.0866 -0.591656
3685 21 39 0.298217 -3.76755 8.2898
3673 21 31 7.5629 -2.88044 14.3233
3766 21 96 2.04236 0.300701 16.9237
3751 21 85 5.38519 8.95444 14.8052
3765 21 95 -0.709016 12.439 11.3308
3714 21 58 -0.906522 11.6921 15.2956
3747 21 81 15.9407 -19.9348 11.8056
3706 21 54 8.2873 -21.6805 13.8302
3719 21 63 14.671 -13.7635 0.30463
3750 21 84 11.0151 -8.01241 -9.03196
3683 21 37 13.5118 -2.11303 9.08861
3682 21 36 8.97213 -3.60588 0.746291
3696 21 46 7.93502 -1.90721 11.1078
3752 21 86 10.4812 -2.4644 16.1223
3726 21 68 8.82056 -0.537107 -1.91231
3702 21 50 9.9887 -1.09855 7.34629
3739 21 77 10.4899 4.49424 20.3856
3654 21 16 14.9422 4.16707 15.2742
3724 21 66 12.0407 6.64496 -4.47488
ITEM: TIMESTEP
370000
ITEM: NUMBER OF ATOMS
38
ITEM: BOX BOUNDS pp pp pp
-1.8322716229540827e+01 1.6503696450615390e+01
-2.4285538640575091e+01 1.4058130398487684e+01
-9.3176113977890367e+00 2.0690270223251972e+01
ITEM: ATOMS id type mol x y z
3753 21 87 -17.502 -20.8788 -2.09916
3754 21 88 -17.8956 -19.845 2.57102
3717 21 61 -14.5451 -21.8544 9.84879
3770 21 98 -16.9959 -12.178 -8.58217
3660 21 20 -11.3929 -12.7054 16.999
3694 21 44 -11.4627 -1.69599 7.76424
3715 21 59 -10.0597 2.21893 8.09079
3764 21 94 -18.2029 7.07446 17.1082
3759 21 91 -13.3912 11.7695 15.1086
3641 21 11 -15.1836 11.2974 17.6809
3664 21 24 -7.23439 -18.3419 -1.891
3748 21 82 -4.9303 -20.7419 -1.63935
3671 21 29 -5.98796 1.56396 5.36707
3760 21 92 -5.01628 -1.25964 15.651
3693 21 43 -3.78077 8.19037 -8.90451
3740 21 78 -9.4709 7.53658 3.88591
3666 21 26 7.39052 -22.6494 -4.54164
3681 21 35 3.32286 -23.7984 6.64323
3665 21 25 -0.702834 -15.0703 -0.61292
3685 21 39 0.294475 -3.76975 8.29862
3673 21 31 7.53664 -2.88411 14.3525
3766 21 96 2.03322 0.291815 16.9618
3751 21 85 5.36568 8.93136 14.8361
3765 21 95 -0.709638 12.4102 11.3499
3714 21 58 -0.906531 11.6645 15.3281
3747 21 81 15.8885 -19.9105 11.8263
3706 21 54 8.2588 -21.6533 13.8578
3719 21 63 14.6228 -13.7493 0.286402
3750 21 84 10.9782 -8.00766 -9.08181
3683 21 37 13.4671 -2.11795 9.10014
3682 21 36 8.94151 -3.60835 0.729558
3696 21 46 7.90761 -1.91247 11.1262
3752 21 86 10.4459 -2.46875 16.1577
3726 21 68 8.79041 -0.544618 -1.93804
3702 21 50 9.95492 -1.10514 7.35191
3739 21 77 10.4546 4.47847 20.4353
3654 21 16 14.8931 4.15184 15.3067
3724 21 66 12.0005 6.62566 -4.50929
ITEM: TIMESTEP
375000
ITEM: NUMBER OF ATOMS
39
ITEM: BOX BOUNDS pp pp pp
-1.8494545663724448e+01 1.6675525884799011e+01
-2.4341016672108200e+01 1.4113608430020793e+01
-9.1621694124030206e+00 2.0534828237861742e+01
ITEM: ATOMS id type mol x y z
3753 21 87 -17.6657 -20.9245 -2.0185
3754 21 88 -18.0632 -19.8876 2.60329
3717 21 61 -14.6796 -21.9028 9.80567
3770 21 98 -17.1546 -12.1985 -8.43435
3660 21 20 -11.4963 -12.7273 16.8818
3694 21 44 -11.5669 -1.6861 7.74272
3715 21 59 -10.15 2.24015 8.06588
3764 21 94 -18.3736 7.10973 16.9898
3759 21 91 -13.5143 11.8183 15.011
3641 21 11 -15.3244 11.3449 17.5566
3664 21 24 -7.2968 -18.3802 -1.81249
3748 21 82 -4.96998 -20.7871 -1.56345
3671 21 29 -6.03807 1.58328 5.37038
3760 21 92 -5.0568 -1.24849 15.5478
3693 21 43 -3.80911 8.22887 -8.75334
3740 21 78 -9.55538 7.57319 3.90456
3666 21 26 7.47243 -22.7001 -4.43568
3681 21 35 3.36462 -23.8525 6.63332
3665 21 25 -0.700795 -15.0991 -0.547659
3685 21 39 0.306355 -3.76587 8.27156
3673 21 31 7.61999 -2.87766 14.2628
3766 21 96 2.06226 0.307457 16.845
3751 21 85 5.4276 8.972 14.7413
3765 21 95 -0.707665 12.461 11.2912
3714 21 58 -0.906502 11.7131 15.2282
3747 21 81 16.0543 -19.9533 11.7627
3706 21 54 8.34927 -21.7012 13.7731
3719 21 63 14.776 -13.7742 0.342345
3750 21 84 11.0955 -8.01603 -8.92881
3683 21 37 13.609 -2.10928 9.06477
3682 21 36 9.03872 -3.60399 0.780911
3696 21 46 7.99461 -1.90321 11.0698
3752 21 86 10.558 -2.4611 16.0492
3726 21 68 8.88613 -0.531397 -1.85906
3702 21 50 10.0621 -1.09354 7.33466
3780 21 102 11.5336 6.05468 13.3782
3739 21 77 10.5667 4.50622 20.2825
3654 21 16 15.049 4.17865 15.207
3724 21 66 12.1279 6.65963 -4.40367
ITEM: TIMESTEP
380000
ITEM: NUMBER OF ATOMS
39
ITEM: BOX BOUNDS pp pp pp
-1.8489203171618776e+01 1.6670183392693339e+01
-2.4169612337540983e+01 1.3942204095453576e+01
-9.2154613529263933e+00 2.0588120178362757e+01
ITEM: ATOMS id type mol x y z
3753 21 87 -17.6606 -20.7835 -2.04615
3754 21 88 -18.058 -19.7559 2.59223
3717 21 61 -14.6754 -21.7532 9.82045
3770 21 98 -17.1497 -12.1353 -8.48503
3660 21 20 -11.4931 -12.6595 16.9219
3694 21 44 -11.5636 -1.71666 7.7501
3715 21 59 -10.1472 2.17459 8.07442
3764 21 94 -18.3683 7.00076 17.0304
3759 21 91 -13.5105 11.6674 15.0444
3641 21 11 -15.3201 11.1982 17.5992
3664 21 24 -7.29486 -18.2619 -1.83941
3748 21 82 -4.96874 -20.6474 -1.58947
3671 21 29 -6.03651 1.52358 5.36924
3760 21 92 -5.05554 -1.28295 15.5832
3693 21 43 -3.80823 8.10993 -8.80517
3740 21 78 -9.55275 7.46009 3.89817
3666 21 26 7.46988 -22.5434 -4.47201
3681 21 35 3.36332 -23.6854 6.63672
3665 21 25 -0.700858 -15.0101 -0.570033
3685 21 39 0.305986 -3.77788 8.28084
3673 21 31 7.6174 -2.89759 14.2935
3766 21 96 2.06135 0.259129 16.885
3751 21 85 5.42568 8.84643 14.7738
3765 21 95 -0.707727 12.3043 11.3113
3714 21 58 -0.906503 11.5631 15.2625
3747 21 81 16.0491 -19.821 11.7845
3706 21 54 8.34646 -21.5533 13.8021
3719 21 63 14.7713 -13.697 0.323166
3750 21 84 11.0918 -7.99016 -8.98126
3683 21 37 13.6046 -2.13607 9.07689
3682 21 36 9.0357 -3.61745 0.763305
3696 21 46 7.99191 -1.93183 11.0891
3752 21 86 10.5545 -2.48475 16.0864
3726 21 68 8.88315 -0.572246 -1.88614
3702 21 50 10.0588 -1.12938 7.34057
3780 21 102 11.5298 5.95512 13.4058
3739 21 77 10.5633 4.42047 20.3349
3654 21 16 15.0442 4.09581 15.2412
3724 21 66 12.124 6.55468 -4.43988
ITEM: TIMESTEP
385000
ITEM: NUMBER OF ATOMS
39
ITEM: BOX BOUNDS pp pp pp
-1.8471816141337840e+01 1.6652796362412403e+01
-2.4363666215246187e+01 1.4136257973158781e+01
-9.1846798942019703e+00 2.0557338719623448e+01
ITEM: ATOMS id type mol x y z
3753 21 87 -17.644 -20.9431 -2.03018
3754 21 88 -18.0411 -19.905 2.59862
3717 21 61 -14.6618 -21.9226 9.81191
3770 21 98 -17.1336 -12.2068 -8.45575
3660 21 20 -11.4826 -12.7363 16.8987
3694 21 44 -11.5531 -1.68207 7.74583
3715 21 59 -10.138 2.24881 8.06949
3764 21 94 -18.351 7.12413 17.007
3759 21 91 -13.498 11.8383 15.0251
3641 21 11 -15.3058 11.3643 17.5746
3664 21 24 -7.28854 -18.3958 -1.82386
3748 21 82 -4.96473 -20.8056 -1.57444
3671 21 29 -6.03144 1.59117 5.3699
3760 21 92 -5.05144 -1.24394 15.5627
3693 21 43 -3.80536 8.24459 -8.77523
3740 21 78 -9.5442 7.58813 3.90186
3666 21 26 7.46159 -22.7209 -4.45102
3681 21 35 3.3591 -23.8745 6.63475
3665 21 25 -0.701065 -15.1108 -0.55711
3685 21 39 0.304784 -3.76428 8.27548
3673 21 31 7.60896 -2.87502 14.2758
3766 21 96 2.05841 0.313843 16.8619
3751 21 85 5.41941 8.98859 14.7551
3765 21 95 -0.707926 12.4817 11.2997
3714 21 58 -0.906506 11.7329 15.2427
3747 21 81 16.0323 -19.9708 11.7719
3706 21 54 8.33731 -21.7207 13.7854
3719 21 63 14.7558 -13.7844 0.334244
3750 21 84 11.08 -8.01945 -8.95097
3683 21 37 13.5902 -2.10574 9.06989
3682 21 36 9.02586 -3.60222 0.773474
3696 21 46 7.9831 -1.89943 11.078
3752 21 86 10.5432 -2.45797 16.0649
3726 21 68 8.87347 -0.525999 -1.87049
3702 21 50 10.0479 -1.0888 7.33715
3780 21 102 11.5175 6.06783 13.3899
3739 21 77 10.5519 4.51756 20.3047
3654 21 16 15.0284 4.18959 15.2214
3724 21 66 12.1111 6.6735 -4.41896
ITEM: TIMESTEP
390000
ITEM: NUMBER OF ATOMS
40
ITEM: BOX BOUNDS pp pp pp
-1.8360426235633330e+01 1.6541406456707893e+01
-2.4333566237376488e+01 1.4106157995289081e+01
-9.2664562494737872e+00 2.0639115074870194e+01
ITEM: ATOMS id type mol x y z
3753 21 87 -17.5379 -20.9183 -2.07262
3754 21 88 -17.9324 -19.8819 2.58164
3717 21 61 -14.5746 -21.8963 9.8346
3770 21 98 -17.0307 -12.1957 -8.53352
3660 21 20 -11.4156 -12.7244 16.9604
3694 21 44 -11.4856 -1.68743 7.75716
3715 21 59 -10.0795 2.2373 8.08259
3764 21 94 -18.2404 7.10499 17.0692
3759 21 91 -13.4182 11.8117 15.0765
3641 21 11 -15.2145 11.3385 17.64
3664 21 24 -7.24809 -18.375 -1.86516
3748 21 82 -4.93901 -20.7811 -1.61437
3781 21 103 -4.68293 -8.63806 7.11745
3671 21 29 -5.99896 1.58069 5.36816
3760 21 92 -5.02517 -1.24999 15.617
3693 21 43 -3.78699 8.2237 -8.85476
3740 21 78 -9.48944 7.56827 3.89205
3666 21 26 7.4085 -22.6933 -4.50677
3681 21 35 3.33202 -23.8452 6.63997
3665 21 25 -0.702387 -15.0952 -0.591443
3685 21 39 0.297082 -3.76639 8.28972
3673 21 31 7.55493 -2.87852 14.323
3766 21 96 2.03959 0.305356 16.9233
3751 21 85 5.37927 8.96654 14.8049
3765 21 95 -0.709205 12.4541 11.3306
3714 21 58 -0.906525 11.7066 15.2952
3747 21 81 15.9249 -19.9475 11.8054
3706 21 54 8.27866 -21.6947 13.8299
3719 21 63 14.6564 -13.7709 0.304812
3750 21 84 11.0039 -8.01491 -9.03146
3683 21 37 13.4983 -2.11045 9.0885
3682 21 36 8.96285 -3.60458 0.746458
3696 21 46 7.9267 -1.90445 11.1076
3752 21 86 10.4705 -2.46213 16.122
3726 21 68 8.81142 -0.533172 -1.91205
3702 21 50 9.97845 -1.0951 7.34623
3780 21 102 11.4387 6.05035 13.4323
3739 21 77 10.4792 4.5025 20.3851
3654 21 16 14.9273 4.17505 15.2739
3724 21 66 12.0285 6.65507 -4.47453
ITEM: TIMESTEP
395000
ITEM: NUMBER OF ATOMS
40
ITEM: BOX BOUNDS pp pp pp
-1.8401159841198215e+01 1.6582140062272778e+01
-2.4253388287127965e+01 1.4025980045040559e+01
-9.3535964388619064e+00 2.0726255264232595e+01
ITEM: ATOMS id type mol x y z
3753 21 87 -17.5767 -20.8524 -2.11783
3754 21 88 -17.9721 -19.8203 2.56355
3717 21 61 -14.6065 -21.8263 9.85877
3770 21 98 -17.0684 -12.1662 -8.61639
3660 21 20 -11.4401 -12.6926 17.0261
3694 21 44 -11.5103 -1.70172 7.76923
3715 21 59 -10.1009 2.20664 8.09656
3764 21 94 -18.2808 7.05402 17.1356
3759 21 91 -13.4474 11.7411 15.1312
3641 21 11 -15.2479 11.2699 17.7097
3664 21 24 -7.26288 -18.3197 -1.90917
3748 21 82 -4.94841 -20.7157 -1.65692
3781 21 103 -4.69174 -8.62335 7.12579
3671 21 29 -6.01084 1.55276 5.3663
3760 21 92 -5.03478 -1.26611 15.6749
3693 21 43 -3.79371 8.16806 -8.9395
3740 21 78 -9.50947 7.51537 3.88159
3666 21 26 7.42792 -22.62 -4.56617
3681 21 35 3.34192 -23.7671 6.64553
3665 21 25 -0.701903 -15.0536 -0.628028
3685 21 39 0.299898 -3.77201 8.30489
3673 21 31 7.57469 -2.88785 14.3733
3766 21 96 2.04647 0.28275 16.9888
3751 21 85 5.39395 8.9078 14.8581
3765 21 95 -0.708737 12.3809 11.3635
3714 21 58 -0.906518 11.6364 15.3512
3747 21 81 15.9642 -19.8857 11.841
3706 21 54 8.30011 -21.6256 13.8774
3719 21 63 14.6927 -13.7348 0.273451
3750 21 84 11.0317 -8.0028 -9.11723
3683 21 37 13.5319 -2.12298 9.10832
3682 21 36 8.98589 -3.61087 0.71767
3696 21 46 7.94733 -1.91784 11.1392
3752 21 86 10.4971 -2.47319 16.1828
3726 21 68 8.83411 -0.55228 -1.95633
3702 21 50 10.0039 -1.11186 7.35591
3780 21 102 11.4675 6.00378 13.4774
3739 21 77 10.5058 4.46238 20.4707
3654 21 16 14.9643 4.1363 15.3297
3724 21 66 12.0587 6.60597 -4.53375
ITEM: TIMESTEP
400000
ITEM: NUMBER OF ATOMS
42
ITEM: BOX BOUNDS pp pp pp
-1.8425005942120169e+01 1.6605986163194732e+01
-2.4269258314611765e+01 1.4041850072524358e+01
-9.3641750879883574e+00 2.0736833913340220e+01
ITEM: ATOMS id type mol x y z
3753 21 87 -17.5994 -20.8655 -2.12332
3754 21 88 -17.9954 -19.8325 2.56135
3717 21 61 -14.6252 -21.8402 9.86171
3770 21 98 -17.0904 -12.172 -8.62645
3660 21 20 -11.4544 -12.6989 17.0341
3694 21 44 -11.5247 -1.6989 7.77069
3715 21 59 -10.1134 2.21271 8.09825
3764 21 94 -18.3045 7.06411 17.1436
3759 21 91 -13.4645 11.7551 15.1378
3641 21 11 -15.2674 11.2835 17.7181
3664 21 24 -7.27154 -18.3307 -1.91451
3748 21 82 -4.95392 -20.7287 -1.66208
3786 21 106 -4.7746 -19.4938 20.5181
3781 21 103 -4.69689 -8.62626 7.1268
3671 21 29 -6.01779 1.55829 5.36608
3760 21 92 -5.0404 -1.26292 15.6819
3693 21 43 -3.79764 8.17908 -8.94979
3740 21 78 -9.52119 7.52584 3.88032
3666 21 26 7.43928 -22.6345 -4.57338
3681 21 35 3.34772 -23.7825 6.6462
3665 21 25 -0.70162 -15.0618 -0.632469
3685 21 39 0.301547 -3.7709 8.30673
3673 21 31 7.58626 -2.886 14.3794
3766 21 96 2.0505 0.287225 16.9968
3751 21 85 5.40254 8.91943 14.8645
3765 21 95 -0.708464 12.3954 11.3675
3714 21 58 -0.906514 11.6503 15.358
3785 21 105 12.7524 -19.4707 -5.43284
3747 21 81 15.9872 -19.8979 11.8454
3706 21 54 8.31266 -21.6393 13.8831
3719 21 63 14.714 -13.7419 0.269643
3750 21 84 11.048 -8.0052 -9.12764
3683 21 37 13.5516 -2.1205 9.11073
3682 21 36 8.99938 -3.60963 0.714175
3787 21 107 11.2942 -3.04647 2.41963
3696 21 46 7.9594 -1.91519 11.143
3752 21 86 10.5127 -2.471 16.1902
3726 21 68 8.84739 -0.548498 -1.96171
3702 21 50 10.0187 -1.10854 7.35708
3780 21 102 11.4844 6.013 13.4829
3654 21 16 14.9859 4.14397 15.3365
3724 21 66 12.0764 6.61569 -4.54094
ITEM: TIMESTEP
405000
ITEM: NUMBER OF ATOMS
41
ITEM: BOX BOUNDS pp pp pp
-1.8451417051152980e+01 1.6632397272227543e+01
-2.4131748184049588e+01 1.3904339941962181e+01
-9.4495229247084858e+00 2.0822181750034630e+01
ITEM: ATOMS id type mol x y z
3753 21 87 -17.6246 -20.7524 -2.16761
3754 21 88 -18.0212 -19.7268 2.54363
3717 21 61 -14.6459 -21.7201 9.88539
3770 21 98 -17.1148 -12.1214 -8.70762
3660 21 20 -11.4703 -12.6445 17.0984
3694 21 44 -11.5407 -1.72341 7.78251
3715 21 59 -10.1273 2.16011 8.11193
3787 21 107 -12.4421 5.46504 18.7028
3764 21 94 -18.3307 6.97669 17.2086
3759 21 91 -13.4834 11.634 15.1914
3641 21 11 -15.2891 11.1658 17.7864
3664 21 24 -7.28114 -18.2358 -1.95761
3748 21 82 -4.96002 -20.6166 -1.70375
3786 21 106 -4.78043 -19.3905 20.6022
3781 21 103 -4.7026 -8.60105 7.13497
3671 21 29 -6.02549 1.51039 5.36426
3760 21 92 -5.04663 -1.29056 15.7386
3693 21 43 -3.80199 8.08365 -9.03279
3740 21 78 -9.53417 7.4351 3.87008
3666 21 26 7.45187 -22.5087 -4.63156
3681 21 35 3.35414 -23.6485 6.65164
3665 21 25 -0.701307 -14.9904 -0.668302
3685 21 39 0.303373 -3.78054 8.32159
3766 21 96 2.05497 0.248454 17.0609
3751 21 85 5.41206 8.81869 14.9166
3765 21 95 -0.70816 12.2697 11.3997
3714 21 58 -0.906509 11.5299 15.4129
3785 21 105 12.773 -19.3676 -5.49589
3747 21 81 16.0127 -19.7918 11.8803
3706 21 54 8.32657 -21.5206 13.9296
3719 21 63 14.7376 -13.68 0.238927
3750 21 84 11.066 -7.98444 -9.21165
3683 21 37 13.5734 -2.14198 9.13015
3682 21 36 9.01432 -3.62043 0.685979
3696 21 46 7.97277 -1.93815 11.174
3752 21 86 10.5299 -2.48997 16.2498
3726 21 68 8.8621 -0.58127 -2.00508
3702 21 50 10.0352 -1.13729 7.36655
3780 21 102 11.5031 5.93312 13.5271
3654 21 16 15.0099 4.07751 15.3912
3724 21 66 12.096 6.53149 -4.59893
ITEM: TIMESTEP
410000
ITEM: NUMBER OF ATOMS
41
ITEM: BOX BOUNDS pp pp pp
-1.8343124002520497e+01 1.6524104223595060e+01
-2.4308554684164296e+01 1.4081146442076889e+01
-9.3717865811510670e+00 2.0744445406466756e+01
ITEM: ATOMS id type mol x y z
3753 21 87 -17.5214 -20.8978 -2.12727
3754 21 88 -17.9155 -19.8627 2.55977
3717 21 61 -14.5611 -21.8745 9.86382
3770 21 98 -17.0147 -12.1865 -8.63369
3660 21 20 -11.4051 -12.7145 17.0398
3694 21 44 -11.4751 -1.69189 7.77175
3715 21 59 -10.0704 2.22774 8.09947
3787 21 107 -12.3709 5.56339 18.6359
3764 21 94 -18.2232 7.08909 17.1494
3759 21 91 -13.4058 11.7897 15.1426
3641 21 11 -15.2003 11.3171 17.7242
3664 21 24 -7.2418 -18.3578 -1.91836
3748 21 82 -4.93501 -20.7607 -1.6658
3786 21 106 -4.75653 -19.5233 20.5256
3781 21 103 -4.67919 -8.63347 7.12753
3671 21 29 -5.99391 1.57198 5.36592
3760 21 92 -5.02109 -1.25502 15.687
3693 21 43 -3.78414 8.20635 -8.95719
3740 21 78 -9.48093 7.55177 3.87941
3666 21 26 7.40025 -22.6705 -4.57857
3681 21 35 3.32782 -23.8208 6.64669
3665 21 25 -0.702592 -15.0822 -0.635665
3685 21 39 0.295886 -3.76814 8.30806
3766 21 96 2.03667 0.298304 17.0025
3751 21 85 5.37304 8.94822 14.8692
3765 21 95 -0.709403 12.4313 11.3704
3714 21 58 -0.906528 11.6847 15.3629
3785 21 105 12.6885 -19.5001 -5.43846
3747 21 81 15.9082 -19.9282 11.8485
3706 21 54 8.26955 -21.6732 13.8873
3719 21 63 14.641 -13.7596 0.266904
3750 21 84 10.9921 -8.01113 -9.13513
3683 21 37 13.484 -2.11436 9.11246
3682 21 36 8.95306 -3.60654 0.71166
3696 21 46 7.91794 -1.90863 11.1458
3752 21 86 10.4593 -2.46558 16.1955
3726 21 68 8.80178 -0.539133 -1.96557
3702 21 50 9.96766 -1.10033 7.35793
3780 21 102 11.4265 6.03582 13.4868
3654 21 16 14.9116 4.16296 15.3414
3724 21 66 12.0157 6.63975 -4.54611
ITEM: TIMESTEP
415000
ITEM: NUMBER OF ATOMS
42
ITEM: BOX BOUNDS pp pp pp
-1.8524977498549365e+01 1.6705957719623928e+01
-2.4054568078625817e+01 1.3827159836538410e+01
-9.3588361528619188e+00 2.0731494978161212e+01
ITEM: ATOMS id type mol x y z
3753 21 87 -17.6947 -20.6889 -2.12055
3754 21 88 -18.0929 -19.6675 2.56246
3717 21 61 -14.7035 -21.6527 9.86023
3770 21 98 -17.1827 -12.0929 -8.62137
3660 21 20 -11.5146 -12.6139 17.03
3694 21 44 -11.5853 -1.73717 7.76995
3715 21 59 -10.166 2.13059 8.0974
3787 21 107 -12.4905 5.42211 18.6248
3764 21 94 -18.4038 6.92762 17.1396
3759 21 91 -13.5361 11.5661 15.1345
3641 21 11 -15.3494 11.0997 17.7139
3664 21 24 -7.30785 -18.1825 -1.91181
3748 21 82 -4.977 -20.5536 -1.65948
3786 21 106 -4.79666 -19.3326 20.5128
3781 21 103 -4.71851 -8.5869 7.12629
3671 21 29 -6.04695 1.48351 5.36619
3760 21 92 -5.06398 -1.30608 15.6784
3693 21 43 -3.81412 8.03009 -8.9446
3740 21 78 -9.57034 7.38418 3.88096
3666 21 26 7.48693 -22.4381 -4.56974
3681 21 35 3.37202 -23.5733 6.64586
3665 21 25 -0.700434 -14.9503 -0.630228
3685 21 39 0.308459 -3.78595 8.3058
3791 21 109 2.02961 -0.743367 5.35576
3766 21 96 2.0674 0.226693 16.9928
3751 21 85 5.43857 8.76215 14.8613
3765 21 95 -0.707316 12.1991 11.3655
3714 21 58 -0.906496 11.4624 15.3546
3785 21 105 12.8303 -19.3098 -5.42889
3747 21 81 16.0836 -19.7322 11.8432
3706 21 54 8.3653 -21.4541 13.8802
3719 21 63 14.8032 -13.6452 0.271565
3750 21 84 11.1163 -7.97279 -9.12239
3683 21 37 13.6341 -2.15404 9.10952
3682 21 36 9.05594 -3.62649 0.715939
3696 21 46 8.01002 -1.95104 11.1411
3752 21 86 10.5778 -2.50062 16.1865
3726 21 68 8.90308 -0.599664 -1.95899
3702 21 50 10.0811 -1.15343 7.35649
3780 21 102 11.5551 5.88829 13.4801
3654 21 16 15.0767 4.04021 15.3331
3724 21 66 12.1505 6.48423 -4.53731
ITEM: TIMESTEP
420000
ITEM: NUMBER OF ATOMS
43
ITEM: BOX BOUNDS pp pp pp
-1.8375841401270169e+01 1.6556821622344732e+01
-2.4309242487940146e+01 1.4081834245852740e+01
-9.3065717824102805e+00 2.0679230607696887e+01
ITEM: ATOMS id type mol x y z
3753 21 87 -17.5526 -20.8983 -2.09343
3754 21 88 -17.9474 -19.8632 2.57331
3717 21 61 -14.5867 -21.8751 9.84573
3770 21 98 -17.045 -12.1868 -8.57167
3660 21 20 -11.4248 -12.7148 16.9906
3694 21 44 -11.4949 -1.69177 7.76271
3715 21 59 -10.0876 2.228 8.08902
3787 21 107 -12.3924 5.56378 18.5798
3764 21 94 -18.2557 7.08953 17.0998
3759 21 91 -13.4292 11.7903 15.1016
3641 21 11 -15.2271 11.3177 17.6721
3664 21 24 -7.25368 -18.3583 -1.88542
3748 21 82 -4.94257 -20.7612 -1.63396
3786 21 106 -4.76375 -19.5238 20.4613
3781 21 103 -4.68626 -8.6336 7.12129
3671 21 29 -6.00345 1.57222 5.36731
3760 21 92 -5.02881 -1.25488 15.6437
3693 21 43 -3.78953 8.20682 -8.89377
3740 21 78 -9.49702 7.55222 3.88724
3666 21 26 7.41585 -22.6711 -4.53412
3681 21 35 3.33577 -23.8215 6.64253
3665 21 25 -0.702204 -15.0826 -0.608285
3685 21 39 0.298148 -3.76809 8.2967
3791 21 109 2.00473 -0.684605 5.35691
3766 21 96 2.0422 0.298498 16.9535
3751 21 85 5.38483 8.94872 14.8294
3765 21 95 -0.709028 12.4319 11.3457
3714 21 58 -0.906522 11.6853 15.321
3785 21 105 12.714 -19.5006 -5.39028
3747 21 81 15.9398 -19.9288 11.8218
3792 21 110 14.9462 -21.7578 20.3501
3706 21 54 8.28678 -21.6738 13.8518
3719 21 63 14.6702 -13.7599 0.290375
3750 21 84 11.0145 -8.01123 -9.07094
3683 21 37 13.511 -2.11425 9.09762
3682 21 36 8.97157 -3.60649 0.733205
3696 21 46 7.93451 -1.90851 11.1222
3752 21 86 10.4806 -2.46548 16.15
3726 21 68 8.82001 -0.538969 -1.93243
3702 21 50 9.98807 -1.10018 7.35069
3780 21 102 11.4496 6.03622 13.453
3654 21 16 14.9413 4.16329 15.2996
3724 21 66 12.0399 6.64017 -4.50179
ITEM: TIMESTEP
425000
ITEM: NUMBER OF ATOMS
43
ITEM: BOX BOUNDS pp pp pp
-1.8359389970908733e+01 1.6540370191983296e+01
-2.4443542745159824e+01 1.4216134503072418e+01
-9.3315966821082803e+00 2.0704255507374434e+01
ITEM: ATOMS id type mol x y z
3753 21 87 -17.5369 -21.0088 -2.10642
3754 21 88 -17.9314 -19.9664 2.56812
3717 21 61 -14.5738 -21.9923 9.85267
3770 21 98 -17.0298 -12.2363 -8.59547
3660 21 20 -11.4149 -12.7679 17.0095
3694 21 44 -11.4849 -1.66783 7.76618
3715 21 59 -10.0789 2.27936 8.09303
3787 21 107 -12.3816 5.63848 18.6014
3764 21 94 -18.2393 7.17491 17.1188
3759 21 91 -13.4174 11.9086 15.1174
3641 21 11 -15.2136 11.4326 17.6921
3664 21 24 -7.24771 -18.4509 -1.89806
3748 21 82 -4.93877 -20.8707 -1.64618
3786 21 106 -4.76012 -19.6246 20.486
3781 21 103 -4.6827 -8.65822 7.12368
3671 21 29 -5.99865 1.61899 5.36677
3760 21 92 -5.02493 -1.22788 15.6603
3693 21 43 -3.78682 8.30002 -8.91811
3740 21 78 -9.48893 7.64084 3.88423
3666 21 26 7.40801 -22.7939 -4.55118
3681 21 35 3.33177 -23.9524 6.64412
3665 21 25 -0.702399 -15.1523 -0.618792
3685 21 39 0.29701 -3.75868 8.30106
3791 21 109 2.00198 -0.653617 5.35636
3766 21 96 2.03941 0.336364 16.9723
3751 21 85 5.3789 9.04711 14.8447
3765 21 95 -0.709217 12.5547 11.3552
3714 21 58 -0.906525 11.8028 15.3371
3785 21 105 12.7012 -19.6013 -5.40877
3747 21 81 15.9239 -20.0324 11.832
3792 21 110 14.9312 -21.8742 20.3746
3706 21 54 8.27811 -21.7896 13.8654
3719 21 63 14.6555 -13.8204 0.281368
3750 21 84 11.0032 -8.03151 -9.09557
3683 21 37 13.4974 -2.09326 9.10332
3682 21 36 8.96226 -3.59594 0.724938
3696 21 46 7.92618 -1.88609 11.1312
3752 21 86 10.4699 -2.44695 16.1675
3726 21 68 8.81084 -0.506962 -1.94515
3702 21 50 9.9778 -1.0721 7.35346
3780 21 102 11.438 6.11423 13.466
3654 21 16 14.9264 4.2282 15.3156
3724 21 66 12.0277 6.72241 -4.5188
ITEM: TIMESTEP
430000
ITEM: NUMBER OF ATOMS
43
ITEM: BOX BOUNDS pp pp pp
-1.8697674897886941e+01 1.6878655118961504e+01
-2.4197022595762501e+01 1.3969614353675095e+01
-9.2453974263620537e+00 2.0618056251619212e+01
ITEM: ATOMS id type mol x y z
3753 21 87 -17.8593 -20.8061 -2.06169
3754 21 88 -18.2614 -19.777 2.58601
3717 21 61 -14.8387 -21.7771 9.82876
3770 21 98 -17.3423 -12.1454 -8.5135
3660 21 20 -11.6186 -12.6703 16.9445
3694 21 44 -11.69 -1.71177 7.75424
3715 21 59 -10.2567 2.18508 8.07922
3787 21 107 -12.604 5.50135 18.5272
3764 21 94 -18.5753 7.01819 17.0532
3759 21 91 -13.6599 11.6915 15.0632
3641 21 11 -15.4909 11.2216 17.6232
3664 21 24 -7.37058 -18.2808 -1.85453
3748 21 82 -5.01688 -20.6698 -1.60409
3786 21 106 -4.83477 -19.4396 20.401
3781 21 103 -4.75585 -8.61302 7.11543
3671 21 29 -6.09731 1.53313 5.36861
3760 21 92 -5.10471 -1.27744 15.6031
3693 21 43 -3.8426 8.12895 -8.83428
3740 21 78 -9.65525 7.47817 3.89458
3666 21 26 7.56925 -22.5684 -4.49242
3681 21 35 3.41399 -23.7121 6.63863
3665 21 25 -0.698384 -15.0243 -0.582602
3685 21 39 0.3204 -3.77596 8.28605
3791 21 109 2.05843 -0.710498 5.35826
3766 21 96 2.09658 0.266858 16.9075
3751 21 85 5.5008 8.86651 14.7921
3765 21 95 -0.705334 12.3293 11.3226
3714 21 58 -0.906467 11.5871 15.2817
3785 21 105 12.965 -19.4165 -5.34508
3747 21 81 16.2502 -19.8422 11.7968
3792 21 110 15.2383 -21.6605 20.2903
3706 21 54 8.45623 -21.5769 13.8184
3719 21 63 14.9572 -13.7094 0.312391
3750 21 84 11.2342 -7.99429 -9.01073
3683 21 37 13.7767 -2.13178 9.08371
3682 21 36 9.15363 -3.6153 0.753415
3696 21 46 8.09747 -1.92725 11.1
3752 21 86 10.6905 -2.48096 16.1073
3726 21 68 8.99928 -0.565714 -1.90135
3702 21 50 10.1889 -1.12365 7.34389
3780 21 102 11.6773 5.97104 13.4213
3654 21 16 15.2334 4.10906 15.2604
3724 21 66 12.2785 6.57146 -4.46022
ITEM: TIMESTEP
435000
ITEM: NUMBER OF ATOMS
42
ITEM: BOX BOUNDS pp pp pp
-1.8491059847817102e+01 1.6672040068891665e+01
-2.4316212612544671e+01 1.4088804370457265e+01
-9.3131554815631681e+00 2.0685814306795852e+01
ITEM: ATOMS id type mol x y z
3753 21 87 -17.6624 -20.9041 -2.09685
3754 21 88 -18.0598 -19.8686 2.57194
3717 21 61 -14.6769 -21.8812 9.84756
3770 21 98 -17.1514 -12.1893 -8.57793
3660 21 20 -11.4942 -12.7175 16.9956
3715 21 59 -10.1481 2.23066 8.09008
3787 21 107 -12.4682 5.56765 18.5855
3764 21 94 -18.3701 7.09396 17.1048
3759 21 91 -13.5118 11.7965 15.1058
3641 21 11 -15.3216 11.3237 17.6773
3664 21 24 -7.29553 -18.3631 -1.88875
3748 21 82 -4.96917 -20.7669 -1.63717
3781 21 103 -4.71117 -8.63487 7.12192
3671 21 29 -6.03705 1.57464 5.36717
3760 21 92 -5.05598 -1.25348 15.6481
3693 21 43 -3.80853 8.21166 -8.90017
3740 21 78 -9.55367 7.55682 3.88645
3666 21 26 7.47077 -22.6775 -4.5386
3681 21 35 3.36377 -23.8283 6.64295
3793 21 111 4.43497 -23.6469 18.5506
3665 21 25 -0.700836 -15.0862 -0.611049
3685 21 39 0.306114 -3.7676 8.29785
3791 21 109 2.02395 -0.682996 5.35677
3766 21 96 2.06167 0.300464 16.9584
3751 21 85 5.42635 8.95383 14.8334
3765 21 95 -0.707705 12.4383 11.3482
3714 21 58 -0.906502 11.6914 15.3253
3785 21 105 12.8039 -19.5059 -5.39514
3747 21 81 16.0509 -19.9341 11.8245
3792 21 110 15.0507 -21.7638 20.3565
3706 21 54 8.34744 -21.6798 13.8553
3719 21 63 14.7729 -13.7631 0.288005
3750 21 84 11.0931 -8.01229 -9.07742
3683 21 37 13.6061 -2.11316 9.09912
3682 21 36 9.03675 -3.60594 0.73103
3696 21 46 7.99285 -1.90735 11.1246
3752 21 86 10.5557 -2.46452 16.1546
3726 21 68 8.88419 -0.537308 -1.93578
3702 21 50 10.06 -1.09873 7.35142
3780 21 102 11.5311 6.04027 13.4564
3654 21 16 15.0459 4.16666 15.3038
3724 21 66 12.1253 6.64444 -4.50627
ITEM: TIMESTEP
440000
ITEM: NUMBER OF ATOMS
42
ITEM: BOX BOUNDS pp pp pp
-1.8341775881111634e+01 1.6522756102186197e+01
-2.4454970082444682e+01 1.4227561840357275e+01
-9.3091512201643205e+00 2.0681810045379613e+01
ITEM: ATOMS id type mol x y z
3753 21 87 -17.5201 -21.0182 -2.09477
3754 21 88 -17.9142 -19.9752 2.57278
3717 21 61 -14.56 -22.0023 9.84644
3770 21 98 -17.0135 -12.2405 -8.57412
3660 21 20 -11.4043 -12.7725 16.9926
3715 21 59 -10.0697 2.28373 8.08944
3787 21 107 -12.37 5.64484 18.5821
3764 21 94 -18.2218 7.18217 17.1017
3759 21 91 -13.4048 11.9187 15.1033
3641 21 11 -15.1992 11.4424 17.6741
3664 21 24 -7.24131 -18.4588 -1.88672
3748 21 82 -4.9347 -20.88 -1.63522
3781 21 103 -4.67889 -8.66032 7.12153
3671 21 29 -5.99352 1.62297 5.36725
3760 21 92 -5.02077 -1.22558 15.6454
3693 21 43 -3.78392 8.30795 -8.89628
3740 21 78 -9.48027 7.64838 3.88693
3666 21 26 7.39961 -22.8044 -4.53588
3681 21 35 3.32749 -23.9635 6.64269
3793 21 111 4.38959 -23.7808 18.5472
3665 21 25 -0.702608 -15.1583 -0.609368
3685 21 39 0.295792 -3.75788 8.29715
3791 21 109 1.99905 -0.65098 5.35686
3766 21 96 2.03644 0.339586 16.9554
3751 21 85 5.37255 9.05548 14.831
3765 21 95 -0.709419 12.5651 11.3467
3714 21 58 -0.906528 11.8128 15.3227
3785 21 105 12.6874 -19.6099 -5.39218
3747 21 81 15.9069 -20.0412 11.8228
3792 21 110 14.9152 -21.8841 20.3526
3706 21 54 8.26884 -21.7995 13.8532
3719 21 63 14.6398 -13.8256 0.289446
3750 21 84 10.9912 -8.03323 -9.07348
3683 21 37 13.4829 -2.09148 9.09821
3682 21 36 8.95229 -3.59505 0.732353
3696 21 46 7.91726 -1.88418 11.1231
3752 21 86 10.4584 -2.44538 16.1518
3726 21 68 8.80103 -0.504239 -1.93375
3702 21 50 9.96681 -1.06971 7.35097
3780 21 102 11.4255 6.12087 13.4544
3654 21 16 14.9104 4.23372 15.3012
3724 21 66 12.0147 6.72941 -4.50355
ITEM: TIMESTEP
445000
ITEM: NUMBER OF ATOMS
41
ITEM: BOX BOUNDS pp pp pp
-1.8395247329272959e+01 1.6576227550347522e+01
-2.4517377135360899e+01 1.4289968893273493e+01
-9.2335362563149879e+00 2.0606195081520262e+01
ITEM: ATOMS id type mol x y z
3753 21 87 -17.5711 -21.0695 -2.05553
3754 21 88 -17.9664 -20.0232 2.58848
3717 21 61 -14.6019 -22.0568 9.82547
3770 21 98 -17.0629 -12.2635 -8.50222
3660 21 20 -11.4365 -12.7972 16.9356
3715 21 59 -10.0978 2.3076 8.07732
3787 21 107 -12.4052 5.67955 18.517
3764 21 94 -18.2749 7.22185 17.0442
3759 21 91 -13.4431 11.9736 15.0558
3641 21 11 -15.243 11.4958 17.6137
3664 21 24 -7.26073 -18.5019 -1.84854
3748 21 82 -4.94705 -20.9309 -1.5983
3781 21 103 -4.69046 -8.67176 7.1143
3671 21 29 -6.00911 1.64471 5.36886
3760 21 92 -5.03338 -1.21304 15.5952
3693 21 43 -3.79273 8.35126 -8.82275
3666 21 26 7.4251 -22.8615 -4.48433
3681 21 35 3.34049 -24.0243 6.63787
3793 21 111 4.40585 -23.841 18.4823
3665 21 25 -0.701973 -15.1907 -0.577622
3685 21 39 0.299489 -3.7535 8.28399
3791 21 109 2.00797 -0.63658 5.35852
3766 21 96 2.04547 0.357182 16.8986
3751 21 85 5.39182 9.1012 14.7849
3765 21 95 -0.708805 12.6222 11.3182
3714 21 58 -0.906519 11.8674 15.2741
3785 21 105 12.7291 -19.6566 -5.33632
3747 21 81 15.9585 -20.0894 11.7919
3792 21 110 14.9638 -21.9383 20.2787
3706 21 54 8.29699 -21.8533 13.812
3719 21 63 14.6875 -13.8537 0.31666
3750 21 84 11.0277 -8.04265 -8.99905
3683 21 37 13.527 -2.08173 9.08101
3682 21 36 8.98254 -3.59015 0.757333
3696 21 46 7.94433 -1.87376 11.0957
3752 21 86 10.4932 -2.43677 16.099
3726 21 68 8.83082 -0.489366 -1.89532
3702 21 50 10.0002 -1.05666 7.34258
3780 21 102 11.4633 6.15712 13.4152
3654 21 16 14.9589 4.26388 15.2528
3724 21 66 12.0543 6.76762 -4.45216
ITEM: TIMESTEP
450000
ITEM: NUMBER OF ATOMS
42
ITEM: BOX BOUNDS pp pp pp
-1.8449982582795926e+01 1.6630962803870489e+01
-2.4162642473145638e+01 1.3935234231058232e+01
-9.4941036376910972e+00 2.0866762462851671e+01
ITEM: ATOMS id type mol x y z
3753 21 87 -17.6232 -20.7778 -2.19074
3754 21 88 -18.0198 -19.7506 2.53437
3717 21 61 -14.6447 -21.7471 9.89775
3794 21 112 -10.3509 -16.7462 14.1204
3770 21 98 -17.1135 -12.1328 -8.75001
3660 21 20 -11.4695 -12.6567 17.132
3715 21 59 -10.1265 2.17193 8.11908
3787 21 107 -12.4412 5.48223 18.7411
3764 21 94 -18.3293 6.99633 17.2425
3759 21 91 -13.4824 11.6612 15.2194
3641 21 11 -15.2879 11.1922 17.822
3664 21 24 -7.28061 -18.2571 -1.98013
3748 21 82 -4.95969 -20.6417 -1.72552
3781 21 103 -4.70229 -8.60671 7.13923
3671 21 29 -6.02507 1.52116 5.36332
3760 21 92 -5.04629 -1.28435 15.7682
3693 21 43 -3.80176 8.10509 -9.07614
3666 21 26 7.45119 -22.537 -4.66195
3681 21 35 3.35379 -23.6786 6.65449
3793 21 111 4.42249 -23.4986 18.7058
3665 21 25 -0.701324 -15.0064 -0.687018
3685 21 39 0.303274 -3.77837 8.32935
3791 21 109 2.0171 -0.71843 5.35279
3766 21 96 2.05472 0.257164 17.0944
3751 21 85 5.41154 8.84132 14.9438
3765 21 95 -0.708177 12.2979 11.4165
3714 21 58 -0.906509 11.557 15.4415
3785 21 105 12.7718 -19.3908 -5.52883
3747 21 81 16.0113 -19.8156 11.8985
3792 21 110 15.0135 -21.6307 20.5335
3706 21 54 8.32581 -21.5473 13.9539
3719 21 63 14.7363 -13.6939 0.222882
3750 21 84 11.0651 -7.9891 -9.25553
3683 21 37 13.5722 -2.13716 9.14029
3682 21 36 9.01351 -3.618 0.671251
3696 21 46 7.97205 -1.93299 11.1902
3752 21 86 10.5289 -2.48571 16.2809
3726 21 68 8.8613 -0.573907 -2.02773
3702 21 50 10.0343 -1.13083 7.3715
3780 21 102 11.5021 5.95107 13.5502
3654 21 16 15.0086 4.09244 15.4198
3724 21 66 12.0949 6.55041 -4.62923
ITEM: TIMESTEP
455000
ITEM: NUMBER OF ATOMS
44
ITEM: BOX BOUNDS pp pp pp
-1.8464837256979614e+01 1.6645817478054177e+01
-2.4329249868368549e+01 1.4101841626281143e+01
-9.3720728573660210e+00 2.0744731682521685e+01
ITEM: ATOMS id type mol x y z
3753 21 87 -17.6374 -20.9148 -2.12742
3754 21 88 -18.0343 -19.8786 2.55971
3717 21 61 -14.6564 -21.8925 9.8639
3794 21 112 -10.3589 -16.848 14.0526
3770 21 98 -17.1272 -12.1941 -8.63396
3660 21 20 -11.4784 -12.7227 17.04
3715 21 59 -10.1344 2.23565 8.09952
3787 21 107 -12.4509 5.5749 18.6362
3764 21 94 -18.3441 7.10225 17.1496
3759 21 91 -13.493 11.8079 15.1428
3641 21 11 -15.3001 11.3348 17.7244
3664 21 24 -7.28601 -18.3721 -1.9185
3748 21 82 -4.96312 -20.7776 -1.66594
3781 21 103 -4.7055 -8.63726 7.12756
3671 21 29 -6.02941 1.57919 5.36591
3760 21 92 -5.0498 -1.25086 15.6872
3693 21 43 -3.80421 8.22071 -8.95747
3666 21 26 7.45827 -22.6894 -4.57877
3681 21 35 3.3574 -23.841 6.6467
3793 21 111 4.427 -23.6594 18.6011
3665 21 25 -0.701147 -15.093 -0.635785
3685 21 39 0.304301 -3.76669 8.30811
3799 21 115 2.07212 5.05003 2.27342
3791 21 109 2.01958 -0.679988 5.35547
3766 21 96 2.05723 0.304139 17.0027
3751 21 85 5.4169 8.96338 14.8693
3765 21 95 -0.708006 12.4502 11.3705
3714 21 58 -0.906507 11.7028 15.3631
3785 21 105 12.7834 -19.5156 -5.43867
3747 21 81 16.0256 -19.9442 11.8486
3792 21 110 15.0269 -21.7751 20.4142
3706 21 54 8.33363 -21.691 13.8874
3719 21 63 14.7495 -13.7689 0.266801
3750 21 84 11.0752 -8.01425 -9.13541
3683 21 37 13.5845 -2.11112 9.11253
3682 21 36 9.02191 -3.60492 0.711566
3696 21 46 7.97957 -1.90517 11.1459
3752 21 86 10.5386 -2.46272 16.1957
3726 21 68 8.86958 -0.534201 -1.96572
3702 21 50 10.0436 -1.096 7.35796
3780 21 102 11.5126 6.04784 13.487
3798 21 114 8.10496 -1.05432 14.2794
3654 21 16 15.0221 4.17296 15.3416
3724 21 66 12.1059 6.65243 -4.5463
ITEM: TIMESTEP
460000
ITEM: NUMBER OF ATOMS
44
ITEM: BOX BOUNDS pp pp pp
-1.8373111508204367e+01 1.6554091729278930e+01
-2.4309281037148846e+01 1.4081872795061440e+01
-9.4264048846676687e+00 2.0799063709799938e+01
ITEM: ATOMS id type mol x y z
3753 21 87 -17.55 -20.8984 -2.15561
3754 21 88 -17.9448 -19.8633 2.54843
3717 21 61 -14.5845 -21.8751 9.87897
3794 21 112 -10.3095 -16.8358 14.0827
3770 21 98 -17.0424 -12.1868 -8.68563
3660 21 20 -11.4232 -12.7148 17.081
3715 21 59 -10.0862 2.22801 8.10823
3787 21 107 -12.3906 5.5638 18.6829
3764 21 94 -18.253 7.08955 17.191
3759 21 91 -13.4273 11.7904 15.1769
3641 21 11 -15.2249 11.3177 17.7679
3664 21 24 -7.25269 -18.3583 -1.94594
3748 21 82 -4.94194 -20.7613 -1.69247
3781 21 103 -4.68567 -8.6336 7.13276
3671 21 29 -6.00266 1.57223 5.36476
3760 21 92 -5.02816 -1.25487 15.7233
3693 21 43 -3.78908 8.20685 -9.0103
3666 21 26 7.41455 -22.6711 -4.61581
3681 21 35 3.33511 -23.8215 6.65017
3793 21 111 4.39912 -23.6402 18.6477
3665 21 25 -0.702236 -15.0826 -0.658596
3685 21 39 0.297959 -3.76809 8.31756
3799 21 115 2.05654 5.03947 2.26111
3791 21 109 2.00427 -0.684596 5.35428
3766 21 96 2.04173 0.298509 17.0435
3751 21 85 5.38384 8.94875 14.9025
3765 21 95 -0.709059 12.4319 11.391
3714 21 58 -0.906522 11.6853 15.398
3785 21 105 12.7119 -19.5007 -5.47881
3747 21 81 15.9371 -19.9288 11.8708
3792 21 110 14.9437 -21.7578 20.4673
3706 21 54 8.28534 -21.6738 13.917
3719 21 63 14.6677 -13.7599 0.247247
3750 21 84 11.0126 -8.01124 -9.18889
3683 21 37 13.5087 -2.11424 9.12489
3682 21 36 8.97002 -3.60649 0.693617
3696 21 46 7.93313 -1.90851 11.1656
3752 21 86 10.4788 -2.46548 16.2336
3726 21 68 8.81848 -0.53896 -1.99333
3702 21 50 9.98637 -1.10017 7.36399
3780 21 102 11.4477 6.03624 13.5151
3798 21 114 8.05786 -1.05853 14.3104
3654 21 16 14.9388 4.16331 15.3764
3724 21 66 12.0379 6.6402 -4.58322
ITEM: TIMESTEP
465000
ITEM: NUMBER OF ATOMS
44
ITEM: BOX BOUNDS pp pp pp
-1.8374444780889700e+01 1.6555425001964263e+01
-2.4369192935165827e+01 1.4141784693078421e+01
-9.3447290966083507e+00 2.0717387921731468e+01
ITEM: ATOMS id type mol x y z
3753 21 87 -17.5513 -20.9476 -2.11323
3754 21 88 -17.9461 -19.9093 2.56539
3717 21 61 -14.5856 -21.9274 9.85631
3794 21 112 -10.3103 -16.8724 14.0374
3770 21 98 -17.0437 -12.2089 -8.60796
3660 21 20 -11.424 -12.7385 17.0194
3715 21 59 -10.0869 2.25093 8.09514
3787 21 107 -12.3915 5.59712 18.6127
3764 21 94 -18.2543 7.12764 17.1288
3759 21 91 -13.4282 11.8431 15.1256
3641 21 11 -15.226 11.369 17.7026
3803 21 117 -3.91956 -17.841 -8.38168
3664 21 24 -7.25318 -18.3996 -1.90469
3748 21 82 -4.94225 -20.8101 -1.65259
3781 21 103 -4.68596 -8.64459 7.12494
3671 21 29 -6.00304 1.5931 5.36649
3760 21 92 -5.02848 -1.24283 15.669
3693 21 43 -3.7893 8.24842 -8.93088
3666 21 26 7.41518 -22.7259 -4.56013
3681 21 35 3.33543 -23.8799 6.64496
3793 21 111 4.39953 -23.698 18.5777
3665 21 25 -0.70222 -15.1137 -0.624305
3685 21 39 0.298051 -3.76389 8.30334
3799 21 115 2.05676 5.07116 2.27962
3791 21 109 2.0045 -0.670772 5.35607
3766 21 96 2.04196 0.315401 16.9822
3751 21 85 5.38432 8.99264 14.8527
3714 21 58 -0.906522 11.7377 15.3455
3785 21 105 12.7129 -19.5456 -5.41847
3747 21 81 15.9384 -19.975 11.8374
3792 21 110 14.9449 -21.8098 20.3874
3706 21 54 8.28604 -21.7255 13.8725
3719 21 63 14.6689 -13.7869 0.276642
3750 21 84 11.0135 -8.02028 -9.1085
3683 21 37 13.5098 -2.10488 9.10631
3682 21 36 8.97078 -3.60178 0.720599
3696 21 46 7.9338 -1.8985 11.136
3752 21 86 10.4797 -2.45721 16.1766
3726 21 68 8.81923 -0.524681 -1.95182
3702 21 50 9.9872 -1.08765 7.35492
3780 21 102 11.4486 6.07104 13.4728
3798 21 114 8.05854 -1.04588 14.2638
3654 21 16 14.9401 4.19227 15.324
3724 21 66 12.0389 6.67688 -4.52772
ITEM: TIMESTEP
470000
ITEM: NUMBER OF ATOMS
45
ITEM: BOX BOUNDS pp pp pp
-1.8592891925447859e+01 1.6773872146522422e+01
-2.4326955139201885e+01 1.4099546897114479e+01
-9.2639028767124785e+00 2.0636561701826697e+01
ITEM: ATOMS id type mol x y z
3753 21 87 -17.7594 -20.9129 -2.07129
3754 21 88 -18.1592 -19.8768 2.58217
3717 21 61 -14.7566 -21.8905 9.83389
3794 21 112 -10.4278 -16.8466 13.9925
3770 21 98 -17.2455 -12.1933 -8.53109
3660 21 20 -11.5555 -12.7218 16.9585
3715 21 59 -10.2016 2.23477 8.08219
3787 21 107 -12.5351 5.57363 18.5431
3764 21 94 -18.4712 7.10079 17.0673
3759 21 91 -13.5848 11.8059 15.0749
3641 21 11 -15.405 11.3328 17.638
3803 21 117 -3.95721 -17.8131 -8.30603
3664 21 24 -7.33252 -18.3705 -1.86387
3748 21 82 -4.99269 -20.7757 -1.61312
3781 21 103 -4.73319 -8.63684 7.1172
3671 21 29 -6.06675 1.57839 5.36821
3760 21 92 -5.08 -1.25132 15.6153
3693 21 43 -3.82532 8.21911 -8.85228
3666 21 26 7.5193 -22.6873 -4.50503
3681 21 35 3.38852 -23.8387 6.63981
3793 21 111 4.46593 -23.6572 18.5084
3665 21 25 -0.699628 -15.0918 -0.590371
3685 21 39 0.313155 -3.76685 8.28927
3799 21 115 2.09387 5.04881 2.29794
3791 21 109 2.04094 -0.680518 5.35785
3807 21 119 1.60334 0.993731 13.8414
3766 21 96 2.07888 0.303492 16.9214
3751 21 85 5.46304 8.9617 14.8034
3714 21 58 -0.906485 11.7008 15.2936
3785 21 105 12.8833 -19.5139 -5.35876
3747 21 81 16.1491 -19.9424 11.8043
3792 21 110 15.1432 -21.7731 20.3084
3706 21 54 8.40106 -21.689 13.8285
3719 21 63 14.8638 -13.7679 0.305731
3750 21 84 11.1626 -8.01391 -9.02894
3683 21 37 13.6902 -2.11148 9.08792
3682 21 36 9.09436 -3.6051 0.747301
3696 21 46 8.04441 -1.90556 11.1067
3752 21 86 10.6221 -2.46304 16.1202
3726 21 68 8.94091 -0.534748 -1.91075
3702 21 50 10.1235 -1.09648 7.34595
3780 21 102 11.6032 6.04651 13.4309
3798 21 114 8.17071 -1.0548 14.2177
3654 21 16 15.1383 4.17185 15.2722
3724 21 66 12.2008 6.65102 -4.4728
ITEM: TIMESTEP
475000
ITEM: NUMBER OF ATOMS
45
ITEM: BOX BOUNDS pp pp pp
-1.8388206030498338e+01 1.6569186251572901e+01
-2.4303832752329608e+01 1.4076424510242202e+01
-9.5499378583282208e+00 2.0922596683393103e+01
ITEM: ATOMS id type mol x y z
3753 21 87 -17.5644 -20.8939 -2.21971
3754 21 88 -17.9595 -19.8591 2.52278
3717 21 61 -14.5964 -21.8704 9.91324
3794 21 112 -10.3177 -16.8324 14.1514
3770 21 98 -17.0564 -12.1848 -8.80311
3660 21 20 -11.4323 -12.7126 17.1741
3715 21 59 -10.0941 2.22593 8.12802
3787 21 107 -12.4005 5.56077 18.7891
3764 21 94 -18.2679 7.08609 17.285
3759 21 91 -13.4381 11.7856 15.2545
3641 21 11 -15.2373 11.3131 17.8666
3803 21 117 -3.92194 -17.7978 -8.57374
3664 21 24 -7.25818 -18.3545 -2.00833
3748 21 82 -4.94542 -20.7568 -1.75278
3781 21 103 -4.68893 -8.6326 7.14458
3671 21 29 -6.00706 1.57033 5.36213
3760 21 92 -5.03172 -1.25597 15.8053
3693 21 43 -3.79157 8.20307 -9.13044
3666 21 26 7.42174 -22.6661 -4.70002
3681 21 35 3.33877 -23.8162 6.65805
3793 21 111 4.40371 -23.6349 18.7537
3665 21 25 -0.702057 -15.0798 -0.71046
3685 21 39 0.299003 -3.76847 8.33907
3799 21 115 2.0591 5.03658 2.23311
3791 21 109 2.00679 -0.685853 5.35157
3807 21 119 1.57426 0.986381 13.9974
3766 21 96 2.04428 0.296973 17.1364
3751 21 85 5.38928 8.94476 14.9778
3714 21 58 -0.90652 11.6805 15.4774
3785 21 105 12.7237 -19.4966 -5.57008
3747 21 81 15.9517 -19.9246 11.9214
3792 21 110 14.9574 -21.7531 20.5881
3706 21 54 8.29329 -21.6691 13.9843
3719 21 63 14.6812 -13.7575 0.202787
3750 21 84 11.0229 -8.01042 -9.31048
3683 21 37 13.5212 -2.11509 9.153
3682 21 36 8.97856 -3.60691 0.652806
3696 21 46 7.94077 -1.90942 11.2104
3752 21 86 10.4887 -2.46623 16.3198
3726 21 68 8.82689 -0.540258 -2.0561
3702 21 50 9.99578 -1.10131 7.3777
3780 21 102 11.4584 6.03308 13.5791
3798 21 114 8.06561 -1.05968 14.3809
3654 21 16 14.9525 4.16068 15.4556
3724 21 66 12.0491 6.63686 -4.66717
ITEM: TIMESTEP
480000
ITEM: NUMBER OF ATOMS
45
ITEM: BOX BOUNDS pp pp pp
-1.8286610110944174e+01 1.6467590332018737e+01
-2.4408905954188324e+01 1.4181497712100917e+01
-9.4440992415620997e+00 2.0816758066620931e+01
ITEM: ATOMS id type mol x y z
3753 21 87 -17.4676 -20.9803 -2.16479
3754 21 88 -17.8604 -19.9398 2.54476
3717 21 61 -14.5168 -21.9621 9.88388
3794 21 112 -10.263 -16.8966 14.0926
3770 21 98 -16.9625 -12.2235 -8.70246
3660 21 20 -11.3711 -12.7542 17.0943
3715 21 59 -10.0407 2.26612 8.11106
3787 21 107 -12.3338 5.61921 18.6981
3764 21 94 -18.1671 7.15289 17.2045
3759 21 91 -13.3653 11.8781 15.188
3641 21 11 -15.154 11.403 17.782
3803 21 117 -3.90443 -17.8673 -8.47468
3664 21 24 -7.22127 -18.427 -1.95487
3748 21 82 -4.92196 -20.8425 -1.70111
3781 21 103 -4.66697 -8.65187 7.13445
3671 21 29 -5.97743 1.60693 5.36438
3760 21 92 -5.00776 -1.23484 15.735
3693 21 43 -3.77482 8.27598 -9.02751
3666 21 26 7.37331 -22.7622 -4.62787
3681 21 35 3.31408 -23.9186 6.6513
3793 21 111 4.37283 -23.7363 18.6629
3665 21 25 -0.703263 -15.1343 -0.666025
3685 21 39 0.291978 -3.76111 8.32065
3799 21 115 2.04185 5.09216 2.2571
3791 21 109 1.98984 -0.661609 5.35389
3807 21 119 1.55982 1.01978 13.9397
3766 21 96 2.02712 0.326599 17.0568
3751 21 85 5.35267 9.02173 14.9133
3714 21 58 -0.906537 11.7725 15.4094
3785 21 105 12.6444 -19.5753 -5.49188
3747 21 81 15.8537 -20.0057 11.8781
3792 21 110 14.8652 -21.8442 20.4846
3706 21 54 8.23979 -21.7597 13.9267
3719 21 63 14.5906 -13.8048 0.240879
3750 21 84 10.9535 -8.02628 -9.20631
3683 21 37 13.4373 -2.09868 9.12892
3682 21 36 8.92109 -3.59866 0.687771
3696 21 46 7.88933 -1.89187 11.172
3752 21 86 10.4224 -2.45173 16.246
3726 21 68 8.7703 -0.515217 -2.00232
3702 21 50 9.9324 -1.07934 7.36595
3780 21 102 11.3865 6.09411 13.5243
3798 21 114 8.01344 -1.03749 14.3205
3654 21 16 14.8603 4.21146 15.3878
3724 21 66 11.9738 6.7012 -4.59525
ITEM: TIMESTEP
485000
ITEM: NUMBER OF ATOMS
45
ITEM: BOX BOUNDS pp pp pp
-1.8357817380086651e+01 1.6538797601161214e+01
-2.4487321310253382e+01 1.4259913068165975e+01
-9.2774743269600179e+00 2.0650133152019876e+01
ITEM: ATOMS id type mol x y z
3753 21 87 -17.5354 -21.0448 -2.07833
3754 21 88 -17.9299 -20.0001 2.57935
3717 21 61 -14.5726 -22.0306 9.83766
3794 21 112 -10.3013 -16.9445 14
3770 21 98 -17.0283 -12.2524 -8.544
3660 21 20 -11.414 -12.7853 16.9687
3715 21 59 -10.0781 2.29611 8.08436
3787 21 107 -12.3806 5.66283 18.5548
3764 21 94 -18.2378 7.20274 17.0776
3759 21 91 -13.4163 11.9471 15.0834
3641 21 11 -15.2124 11.4701 17.6488
3803 21 117 -3.9167 -17.9191 -8.31873
3664 21 24 -7.24714 -18.4811 -1.87073
3748 21 82 -4.93841 -20.9064 -1.61975
3781 21 103 -4.68236 -8.66625 7.1185
3671 21 29 -5.99819 1.63424 5.36792
3760 21 92 -5.02456 -1.21908 15.6244
3693 21 43 -3.78656 8.3304 -8.86547
3666 21 26 7.40726 -22.834 -4.51428
3681 21 35 3.33139 -23.995 6.64067
3793 21 111 4.39447 -23.812 18.52
3665 21 25 -0.702418 -15.1751 -0.596069
3685 21 39 0.296902 -3.75561 8.29163
3799 21 115 2.05394 5.13364 2.29486
3791 21 109 2.00172 -0.643515 5.35755
3807 21 119 1.56994 1.04471 13.8488
3766 21 96 2.03915 0.348708 16.9316
3751 21 85 5.37833 9.07918 14.8117
3714 21 58 -0.906525 11.8411 15.3023
3785 21 105 12.7 -19.6341 -5.36878
3747 21 81 15.9224 -20.0662 11.8099
3792 21 110 14.9298 -21.9122 20.3216
3706 21 54 8.27729 -21.8274 13.8359
3719 21 63 14.6541 -13.8401 0.300847
3750 21 84 11.0021 -8.03811 -9.0423
3683 21 37 13.4961 -2.08642 9.091
3682 21 36 8.96137 -3.59251 0.742818
3696 21 46 7.92538 -1.87878 11.1116
3752 21 86 10.4688 -2.44092 16.1297
3726 21 68 8.80996 -0.496529 -1.91765
3702 21 50 9.97682 -1.06295 7.34746
3780 21 102 11.4369 6.13966 13.438
3798 21 114 8.05001 -1.02092 14.2254
3654 21 16 14.925 4.24936 15.2809
3724 21 66 12.0266 6.74922 -4.48202
ITEM: TIMESTEP
490000
ITEM: NUMBER OF ATOMS
45
ITEM: BOX BOUNDS pp pp pp
-1.8409707751598972e+01 1.6590687972673535e+01
-2.4272439996184158e+01 1.4045031754096751e+01
-9.4157656637995117e+00 2.0788424488825921e+01
ITEM: ATOMS id type mol x y z
3753 21 87 -17.5849 -20.8681 -2.15009
3754 21 88 -17.9805 -19.8349 2.55064
3717 21 61 -14.6132 -21.8429 9.87602
3794 21 112 -10.3292 -16.8133 14.0768
3770 21 98 -17.0763 -12.1732 -8.67551
3660 21 20 -11.4452 -12.7002 17.073
3715 21 59 -10.1054 2.21392 8.10652
3787 21 107 -12.4147 5.5433 18.6737
3764 21 94 -18.2893 7.06613 17.1829
3759 21 91 -13.4535 11.7579 15.1702
3641 21 11 -15.2549 11.2862 17.7594
3803 21 117 -3.92564 -17.7771 -8.44816
3664 21 24 -7.26599 -18.3329 -1.94057
3748 21 82 -4.95039 -20.7312 -1.68727
3781 21 103 -4.69358 -8.62685 7.13174
3671 21 29 -6.01333 1.5594 5.36498
3760 21 92 -5.03679 -1.26228 15.7162
3693 21 43 -3.79512 8.18128 -8.99996
3666 21 26 7.43199 -22.6374 -4.60855
3681 21 35 3.344 -23.7856 6.64949
3793 21 111 4.41025 -23.6046 18.6386
3665 21 25 -0.701802 -15.0635 -0.654129
3685 21 39 0.300489 -3.77067 8.31571
3799 21 115 2.06275 5.01998 2.26352
3791 21 109 2.01038 -0.693096 5.35451
3807 21 119 1.57731 0.976402 13.9242
3766 21 96 2.04792 0.288122 17.0356
3751 21 85 5.39703 8.92176 14.896
3714 21 58 -0.906516 11.6531 15.3912
3785 21 105 12.7404 -19.4731 -5.47095
3747 21 81 15.9724 -19.9004 11.8665
3792 21 110 14.9769 -21.7259 20.4569
3706 21 54 8.30461 -21.642 13.9112
3719 21 63 14.7004 -13.7434 0.251076
3750 21 84 11.0376 -8.00568 -9.17842
3683 21 37 13.539 -2.12 9.12247
3682 21 36 8.99073 -3.60938 0.697131
3696 21 46 7.95166 -1.91466 11.1618
3752 21 86 10.5027 -2.47056 16.2262
3726 21 68 8.83887 -0.54774 -1.98792
3702 21 50 10.0092 -1.10788 7.36281
3780 21 102 11.4736 6.01484 13.5096
3798 21 114 8.07665 -1.06632 14.3044
3654 21 16 14.9721 4.14551 15.3696
3724 21 66 12.065 6.61764 -4.57599
ITEM: TIMESTEP
495000
ITEM: NUMBER OF ATOMS
44
ITEM: BOX BOUNDS pp pp pp
-1.8483767618296945e+01 1.6664747839371508e+01
-2.4235264193363555e+01 1.4007855951276149e+01
-9.4545950382897566e+00 2.0827253863293549e+01
ITEM: ATOMS id type mol x y z
3753 21 87 -17.6554 -20.8375 -2.17024
3754 21 88 -18.0527 -19.8064 2.54258
3717 21 61 -14.6712 -21.8105 9.88679
3794 21 112 -10.3691 -16.7906 14.0984
3770 21 98 -17.1447 -12.1595 -8.71244
3660 21 20 -11.4898 -12.6855 17.1022
3715 21 59 -10.1443 2.1997 8.11274
3787 21 107 -12.4634 5.52263 18.7071
3764 21 94 -18.3629 7.0425 17.2125
3759 21 91 -13.5066 11.7252 15.1946
3641 21 11 -15.3156 11.2544 17.7904
3803 21 117 -3.93841 -17.7525 -8.4845
3664 21 24 -7.29289 -18.3072 -1.96018
3748 21 82 -4.96749 -20.7009 -1.70623
3781 21 103 -4.7096 -8.62003 7.13545
3671 21 29 -6.03493 1.54645 5.36416
3760 21 92 -5.05426 -1.26975 15.742
3693 21 43 -3.80733 8.15549 -9.03772
3666 21 26 7.46729 -22.6034 -4.63502
3681 21 35 3.362 -23.7494 6.65197
3793 21 111 4.43276 -23.5687 18.6719
3665 21 25 -0.700923 -15.0442 -0.670431
3685 21 39 0.30561 -3.77328 8.32247
3799 21 115 2.07533 5.00032 2.25472
3791 21 109 2.02274 -0.701674 5.35366
3807 21 119 1.58784 0.964585 13.9454
3766 21 96 2.06043 0.27764 17.0647
3751 21 85 5.42372 8.89453 14.9197
3714 21 58 -0.906503 11.6205 15.4161
3785 21 105 12.7982 -19.4452 -5.49964
3747 21 81 16.0439 -19.8717 11.8824
3792 21 110 15.0441 -21.6936 20.4949
3706 21 54 8.3436 -21.6099 13.9324
3719 21 63 14.7664 -13.7266 0.237101
3750 21 84 11.0881 -8.00007 -9.21664
3682 21 36 9.03262 -3.6123 0.684303
3696 21 46 7.98916 -1.92087 11.1758
3752 21 86 10.551 -2.47569 16.2533
3726 21 68 8.88012 -0.5566 -2.00765
3702 21 50 10.0554 -1.11565 7.36712
3780 21 102 11.526 5.99325 13.5297
3798 21 114 8.11468 -1.07417 14.3265
3654 21 16 15.0393 4.12754 15.3945
3724 21 66 12.1199 6.59488 -4.60238
ITEM: TIMESTEP
500000
ITEM: NUMBER OF ATOMS
45
ITEM: BOX BOUNDS pp pp pp
-1.8316412209834457e+01 1.6497392430909020e+01
-2.4275176065884150e+01 1.4047767823796743e+01
-9.5184079458180513e+00 2.0891066770796670e+01
ITEM: ATOMS id type mol x y z
3753 21 87 -17.496 -20.8703 -2.20335
3754 21 88 -17.8895 -19.837 2.52933
3717 21 61 -14.5401 -21.8453 9.9045
3794 21 112 -10.279 -16.8149 14.1339
3770 21 98 -16.9901 -12.1742 -8.77312
3660 21 20 -11.3891 -12.7013 17.1504
3715 21 59 -10.0564 2.21497 8.12297
3787 21 107 -12.3533 5.54483 18.762
3764 21 94 -18.1966 7.06787 17.261
3759 21 91 -13.3866 11.7603 15.2347
3641 21 11 -15.1784 11.2885 17.8414
3803 21 117 -3.90956 -17.7789 -8.54423
3664 21 24 -7.2321 -18.3347 -1.9924
3748 21 82 -4.92885 -20.7335 -1.73739
3781 21 103 -4.67341 -8.62735 7.14156
3671 21 29 -5.98612 1.56035 5.3628
3760 21 92 -5.01479 -1.26173 15.7844
3693 21 43 -3.77973 8.18318 -9.09977
3666 21 26 7.38752 -22.6399 -4.67852
3681 21 35 3.32132 -23.7883 6.65604
3793 21 111 4.38188 -23.6072 18.7266
3808 21 120 6.32076 -22.4693 20.6203
3665 21 25 -0.702909 -15.0649 -0.697222
3685 21 39 0.294039 -3.77048 8.33358
3799 21 115 2.04691 5.02143 2.24026
3791 21 109 1.99481 -0.692465 5.35226
3807 21 119 1.56406 0.977272 13.9802
3766 21 96 2.03215 0.288893 17.1127
3751 21 85 5.36341 8.92376 14.9586
3714 21 58 -0.906532 11.6555 15.4571
3785 21 105 12.6677 -19.4751 -5.54678
3747 21 81 15.8824 -19.9025 11.9085
3792 21 110 14.8922 -21.7282 20.5573
3706 21 54 8.25548 -21.6444 13.9671
3719 21 63 14.6171 -13.7446 0.214135
3750 21 84 10.9739 -8.00609 -9.27945
3682 21 36 8.93795 -3.60916 0.663222
3696 21 46 7.90442 -1.9142 11.199
3752 21 86 10.4418 -2.47018 16.2978
3726 21 68 8.7869 -0.547088 -2.04008
3702 21 50 9.95099 -1.10731 7.3742
3780 21 102 11.4076 6.01643 13.5628
3798 21 114 8.02874 -1.06574 14.3629
3654 21 16 14.8874 4.14683 15.4354
3724 21 66 11.9959 6.61931 -4.64574
ITEM: TIMESTEP
505000
ITEM: NUMBER OF ATOMS
46
ITEM: BOX BOUNDS pp pp pp
-1.8326920795686004e+01 1.6507901016760567e+01
-2.4302474031594521e+01 1.4075065789507114e+01
-9.3707992276991412e+00 2.0743458052677365e+01
ITEM: ATOMS id type mol x y z
3753 21 87 -17.506 -20.8928 -2.12676
3754 21 88 -17.8997 -19.858 2.55998
3717 21 61 -14.5484 -21.8692 9.86355
3794 21 112 -10.2847 -16.8316 14.0519
3770 21 98 -16.9998 -12.1843 -8.63275
3660 21 20 -11.3954 -12.7121 17.0391
3715 21 59 -10.0619 2.22541 8.09932
3787 21 107 -12.3603 5.56001 18.6351
3764 21 94 -18.2071 7.08523 17.1487
3759 21 91 -13.3942 11.7844 15.142
3641 21 11 -15.187 11.3119 17.7234
3803 21 117 -3.91137 -17.7969 -8.40608
3664 21 24 -7.23592 -18.3536 -1.91786
3748 21 82 -4.93127 -20.7557 -1.66532
3781 21 103 -4.67568 -8.63235 7.12743
3671 21 29 -5.98918 1.56986 5.36594
3760 21 92 -5.01727 -1.25624 15.6863
3693 21 43 -3.78147 8.20213 -8.95623
3666 21 26 7.39253 -22.6649 -4.5779
3681 21 35 3.32388 -23.8149 6.64662
3793 21 111 4.38508 -23.6336 18.6
3808 21 120 6.32513 -22.494 20.4753
3665 21 25 -0.702784 -15.0791 -0.63525
3685 21 39 0.294765 -3.76857 8.30788
3799 21 115 2.04869 5.03587 2.27371
3791 21 109 1.99657 -0.686166 5.3555
3807 21 119 1.56555 0.985949 13.8997
3766 21 96 2.03393 0.29659 17.0018
3809 21 121 0.599582 -1.19655 19.8649
3751 21 85 5.3672 8.94376 14.8686
3714 21 58 -0.90653 11.6793 15.3623
3785 21 105 12.6759 -19.4956 -5.43773
3747 21 81 15.8926 -19.9235 11.8481
3792 21 110 14.9017 -21.7519 20.4129
3706 21 54 8.26102 -21.6679 13.8867
3719 21 63 14.6265 -13.7569 0.267259
3750 21 84 10.9811 -8.01021 -9.13416
3682 21 36 8.94389 -3.60702 0.711987
3696 21 46 7.90974 -1.90964 11.1455
3752 21 86 10.4487 -2.46642 16.1948
3726 21 68 8.79275 -0.540582 -1.96507
3702 21 50 9.95755 -1.1016 7.35782
3780 21 102 11.415 6.03229 13.4863
3798 21 114 8.03414 -1.05997 14.2787
3654 21 16 14.8969 4.16002 15.3408
3724 21 66 12.0037 6.63603 -4.54544
ITEM: TIMESTEP
510000
ITEM: NUMBER OF ATOMS
47
ITEM: BOX BOUNDS pp pp pp
-1.8443317851645869e+01 1.6624298072720432e+01
-2.4160152862198483e+01 1.3932744620111077e+01
-9.4690725130619988e+00 2.0841731338010721e+01
ITEM: ATOMS id type mol x y z
3753 21 87 -17.6169 -20.7757 -2.17775
3754 21 88 -18.0133 -19.7487 2.53957
3717 21 61 -14.6395 -21.7449 9.89081
3794 21 112 -10.3473 -16.7447 14.1065
3770 21 98 -17.1073 -12.1318 -8.72621
3660 21 20 -11.4655 -12.6557 17.1132
3715 21 59 -10.123 2.17098 8.11506
3787 21 107 -12.4368 5.48084 18.7196
3764 21 94 -18.3227 6.99475 17.2235
3759 21 91 -13.4776 11.659 15.2037
3641 21 11 -15.2824 11.1901 17.802
3803 21 117 -3.93144 -17.7029 -8.49805
3664 21 24 -7.27819 -18.2554 -1.96749
3748 21 82 -4.95815 -20.6397 -1.7133
3810 21 122 -9.19757 -14.8045 15.6576
3781 21 103 -4.70085 -8.60626 7.13684
3671 21 29 -6.02313 1.52029 5.36385
3760 21 92 -5.04472 -1.28485 15.7516
3693 21 43 -3.80066 8.10336 -9.0518
3666 21 26 7.44801 -22.5347 -4.64489
3681 21 35 3.35217 -23.6762 6.65289
3793 21 111 4.42046 -23.4962 18.6843
3808 21 120 6.37348 -22.3651 20.5719
3665 21 25 -0.701403 -15.0051 -0.676509
3685 21 39 0.302813 -3.77854 8.32499
3799 21 115 2.06846 4.96059 2.25144
3791 21 109 2.01599 -0.719005 5.35334
3807 21 119 1.58209 0.940709 13.9533
3766 21 96 2.0536 0.256462 17.0756
3809 21 121 0.609667 -1.22561 19.9575
3751 21 85 5.40914 8.8395 14.9285
3714 21 58 -0.90651 11.5548 15.4254
3785 21 105 12.7666 -19.3889 -5.51033
3747 21 81 16.0048 -19.8137 11.8883
3792 21 110 15.0074 -21.6285 20.509
3706 21 54 8.3223 -21.5451 13.9403
3719 21 63 14.7303 -13.6928 0.231891
3750 21 84 11.0605 -7.98873 -9.23089
3682 21 36 9.00974 -3.6182 0.679521
3696 21 46 7.96867 -1.93341 11.1811
3752 21 86 10.5246 -2.48605 16.2634
3726 21 68 8.85759 -0.574501 -2.01501
3702 21 50 10.0302 -1.13136 7.36872
3780 21 102 11.4974 5.94962 13.5372
3798 21 114 8.09391 -1.09004 14.3348
3654 21 16 15.0026 4.09124 15.4038
3724 21 66 12.09 6.54888 -4.61222
ITEM: TIMESTEP
515000
ITEM: NUMBER OF ATOMS
46
ITEM: BOX BOUNDS pp pp pp
-1.8384698700770414e+01 1.6565678921844977e+01
-2.4446579974152300e+01 1.4219171732064893e+01
-9.3859978570394418e+00 2.0758656681980273e+01
ITEM: ATOMS id type mol x y z
3753 21 87 -17.561 -21.0113 -2.13465
3754 21 88 -17.9561 -19.9688 2.55682
3717 21 61 -14.5936 -21.995 9.86776
3770 21 98 -17.0532 -12.2374 -8.6472
3660 21 20 -11.4302 -12.7691 17.0505
3715 21 59 -10.0922 2.28053 8.10175
3787 21 107 -12.3982 5.64017 18.6481
3764 21 94 -18.2645 7.17684 17.1602
3759 21 91 -13.4356 11.9113 15.1515
3641 21 11 -15.2344 11.4352 17.7356
3803 21 117 -3.92133 -17.8922 -8.4203
3664 21 24 -7.2569 -18.453 -1.92553
3748 21 82 -4.94461 -20.8732 -1.67274
3810 21 122 -9.16987 -14.9502 15.6029
3781 21 103 -4.68818 -8.65878 7.12889
3671 21 29 -6.00603 1.62005 5.36562
3760 21 92 -5.0309 -1.22727 15.6964
3693 21 43 -3.79099 8.30213 -8.97101
3666 21 26 7.42007 -22.7967 -4.58826
3681 21 35 3.33792 -23.9553 6.64759
3793 21 111 4.40264 -23.7727 18.6131
3808 21 120 6.34913 -22.6245 20.4903
3665 21 25 -0.702099 -15.1539 -0.641631
3685 21 39 0.29876 -3.75847 8.31053
3799 21 115 2.05851 5.11209 2.27027
3791 21 109 2.00621 -0.652916 5.35517
3807 21 119 1.57376 1.03176 13.908
3766 21 96 2.04369 0.337221 17.0132
3809 21 121 0.604588 -1.16714 19.8793
3751 21 85 5.38802 9.04933 14.8778
3714 21 58 -0.90652 11.8055 15.3721
3785 21 105 12.7209 -19.6036 -5.44896
3747 21 81 15.9483 -20.0348 11.8543
3792 21 110 14.9542 -21.8769 20.4278
3706 21 54 8.29144 -21.7922 13.895
3719 21 63 14.6781 -13.8218 0.261789
3750 21 84 11.0205 -8.03196 -9.14912
3682 21 36 8.97658 -3.59571 0.706966
3696 21 46 7.93899 -1.88558 11.151
3752 21 86 10.4864 -2.44654 16.2054
3726 21 68 8.82494 -0.506238 -1.9728
3702 21 50 9.99359 -1.07147 7.3595
3780 21 102 11.4559 6.11599 13.4942
3798 21 114 8.06381 -1.02953 14.2874
3654 21 16 14.9494 4.22967 15.3505
3724 21 66 12.0465 6.72427 -4.55576
ITEM: TIMESTEP
520000
ITEM: NUMBER OF ATOMS
46
ITEM: BOX BOUNDS pp pp pp
-1.8516372100710807e+01 1.6697352321785370e+01
-2.4315166692586160e+01 1.4087758450498754e+01
-9.4739514891434631e+00 2.0846610314056015e+01
ITEM: ATOMS id type mol x y z
3753 21 87 -17.6865 -20.9032 -2.18028
3754 21 88 -18.0845 -19.8678 2.53856
3717 21 61 -14.6967 -21.8803 9.89216
3770 21 98 -17.1748 -12.189 -8.73085
3660 21 20 -11.5095 -12.7171 17.1168
3715 21 59 -10.1614 2.23026 8.11585
3787 21 107 -12.4848 5.56707 18.7238
3764 21 94 -18.3952 7.0933 17.2272
3759 21 91 -13.53 11.7955 15.2068
3641 21 11 -15.3423 11.3228 17.8059
3803 21 117 -3.94403 -17.8053 -8.50262
3664 21 24 -7.30473 -18.3623 -1.96995
3748 21 82 -4.97502 -20.7661 -1.71568
3810 21 122 -9.23211 -14.8833 15.6608
3781 21 103 -4.71665 -8.63468 7.13731
3671 21 29 -6.04444 1.57428 5.36374
3760 21 92 -5.06195 -1.25369 15.7548
3693 21 43 -3.81271 8.21093 -9.05654
3666 21 26 7.48283 -22.6765 -4.64822
3681 21 35 3.36993 -23.8273 6.6532
3793 21 111 4.44267 -23.6458 18.6885
3808 21 120 6.40382 -22.5055 20.5766
3665 21 25 -0.700536 -15.0856 -0.678558
3685 21 39 0.307864 -3.76768 8.32584
3799 21 115 2.08087 5.04258 2.25033
3791 21 109 2.02818 -0.683238 5.35324
3807 21 119 1.59247 0.989984 13.9559
3766 21 96 2.06594 0.300169 17.0793
3809 21 121 0.615996 -1.19396 19.9621
3751 21 85 5.43547 8.95306 14.9315
3714 21 58 -0.906498 11.6905 15.4286
3785 21 105 12.8236 -19.5051 -5.51394
3747 21 81 16.0753 -19.9333 11.8903
3792 21 110 15.0737 -21.7629 20.5138
3706 21 54 8.36077 -21.6789 13.9429
3719 21 63 14.7955 -13.7626 0.230135
3750 21 84 11.1104 -8.01213 -9.23569
3682 21 36 9.05107 -3.60602 0.677909
3696 21 46 8.00566 -1.90752 11.1829
3752 21 86 10.5722 -2.46467 16.2668
3726 21 68 8.89829 -0.537557 -2.01749
3702 21 50 10.0757 -1.09894 7.36927
3780 21 102 11.5491 6.03966 13.5397
3798 21 114 8.13142 -1.05729 14.3376
3654 21 16 15.0689 4.16615 15.4069
3724 21 66 12.1441 6.6438 -4.61553
ITEM: TIMESTEP
525000
ITEM: NUMBER OF ATOMS
46
ITEM: BOX BOUNDS pp pp pp
-1.8372030960750052e+01 1.6553011181824616e+01
-2.4399152301860045e+01 1.4171744059772639e+01
-9.3487549594031769e+00 2.0721413784313118e+01
ITEM: ATOMS id type mol x y z
3753 21 87 -17.549 -20.9723 -2.11532
3754 21 88 -17.9437 -19.9323 2.56455
3717 21 61 -14.5837 -21.9536 9.85743
3770 21 98 -17.0415 -12.2199 -8.61179
3660 21 20 -11.4226 -12.7504 17.0224
3715 21 59 -10.0856 2.26239 8.09578
3787 21 107 -12.3899 5.61379 18.6161
3764 21 94 -18.2519 7.14669 17.1319
3759 21 91 -13.4265 11.8695 15.1281
3641 21 11 -15.224 11.3946 17.7058
3803 21 117 -3.91915 -17.8608 -8.38545
3664 21 24 -7.2523 -18.4203 -1.90672
3748 21 82 -4.94169 -20.8345 -1.65455
3810 21 122 -9.16388 -14.9261 15.5784
3781 21 103 -4.68544 -8.65008 7.12532
3671 21 29 -6.00234 1.60353 5.36641
3760 21 92 -5.02791 -1.2368 15.6717
3693 21 43 -3.7889 8.26921 -8.93479
3666 21 26 7.41403 -22.7533 -4.56287
3681 21 35 3.33484 -23.9091 6.64522
3793 21 111 4.39879 -23.7269 18.5811
3808 21 120 6.34387 -22.5816 20.4537
3665 21 25 -0.702249 -15.1293 -0.625995
3685 21 39 0.297884 -3.76179 8.30405
3799 21 115 2.05635 5.087 2.27871
3791 21 109 2.00409 -0.663859 5.35599
3807 21 119 1.57196 1.01668 13.8877
3766 21 96 2.04155 0.323848 16.9852
3809 21 121 0.60349 -1.17682 19.8442
3751 21 85 5.38345 9.01459 14.8551
3714 21 58 -0.906523 11.764 15.3481
3785 21 105 12.711 -19.568 -5.42144
3747 21 81 15.9361 -19.9982 11.8391
3792 21 110 14.9427 -21.8357 20.3914
3706 21 54 8.28477 -21.7513 13.8747
3719 21 63 14.6668 -13.8004 0.275193
3750 21 84 11.0119 -8.02481 -9.11246
3682 21 36 8.96941 -3.59943 0.719269
3696 21 46 7.93258 -1.8935 11.1375
3752 21 86 10.4781 -2.45308 16.1794
3726 21 68 8.81788 -0.517541 -1.95387
3702 21 50 9.98569 -1.08138 7.35537
3780 21 102 11.4469 6.08845 13.4749
3798 21 114 8.0573 -1.03955 14.2661
3654 21 16 14.9379 4.20674 15.3266
3724 21 66 12.0371 6.69523 -4.53046
ITEM: TIMESTEP
530000
ITEM: NUMBER OF ATOMS
45
ITEM: BOX BOUNDS pp pp pp
-1.8445587421716997e+01 1.6626567642791560e+01
-2.4281915081839440e+01 1.4054506839752033e+01
-9.3455080887994306e+00 2.0718166913691750e+01
ITEM: ATOMS id type mol x y z
3753 21 87 -17.619 -20.8759 -2.11364
3754 21 88 -18.0155 -19.8422 2.56523
3717 21 61 -14.6413 -21.8512 9.85653
3770 21 98 -17.1094 -12.1767 -8.6087
3660 21 20 -11.4668 -12.7039 17.02
3715 21 59 -10.1242 2.21755 8.09526
3787 21 107 -12.4383 5.54857 18.6133
3764 21 94 -18.3249 7.07216 17.1294
3759 21 91 -13.4792 11.7663 15.1261
3641 21 11 -15.2843 11.2943 17.7032
3803 21 117 -3.93183 -17.7833 -8.38241
3664 21 24 -7.27902 -18.3394 -1.90508
3748 21 82 -4.95867 -20.739 -1.65297
3810 21 122 -9.19865 -14.8664 15.5763
3781 21 103 -4.70134 -8.62858 7.12501
3671 21 29 -6.02379 1.5627 5.36648
3760 21 92 -5.04526 -1.26037 15.6695
3693 21 43 -3.80103 8.18786 -8.93163
3666 21 26 7.44909 -22.6461 -4.56066
3681 21 35 3.35272 -23.7949 6.64501
3665 21 25 -0.701376 -15.0684 -0.624632
3685 21 39 0.30297 -3.77001 8.30348
3799 21 115 2.06885 5.02499 2.27945
3791 21 109 2.01637 -0.69091 5.35606
3807 21 119 1.58241 0.979414 13.8859
3766 21 96 2.05398 0.290793 16.9828
3809 21 121 0.609864 -1.20075 19.8411
3751 21 85 5.40996 8.9287 14.8531
3714 21 58 -0.90651 11.6614 15.346
3785 21 105 12.7684 -19.4802 -5.41904
3811 21 123 15.7505 -16.9083 10.3655
3747 21 81 16.007 -19.9077 11.8377
3792 21 110 15.0095 -21.7341 20.3882
3706 21 54 8.3235 -21.6502 13.873
3719 21 63 14.7324 -13.7476 0.276362
3750 21 84 11.0621 -8.00711 -9.10927
3682 21 36 9.01102 -3.60863 0.720342
3696 21 46 7.96982 -1.91308 11.1363
3752 21 86 10.5261 -2.46925 16.1772
3726 21 68 8.85886 -0.545482 -1.95222
3702 21 50 10.0316 -1.1059 7.35501
3780 21 102 11.499 6.02035 13.4732
3798 21 114 8.09507 -1.06431 14.2643
3654 21 16 15.0046 4.15008 15.3245
3724 21 66 12.0916 6.62344 -4.52825
ITEM: TIMESTEP
535000
ITEM: NUMBER OF ATOMS
44
ITEM: BOX BOUNDS pp pp pp
-1.8334778546017308e+01 1.6515758767091871e+01
-2.4374478045701299e+01 1.4147069803613892e+01
-9.2519377847796029e+00 2.0624596609666089e+01
ITEM: ATOMS id type mol x y z
3753 21 87 -17.5135 -20.952 -2.06508
3754 21 88 -17.9074 -19.9133 2.58466
3717 21 61 -14.5545 -21.932 9.83057
3770 21 98 -17.007 -12.2108 -8.51972
3660 21 20 -11.4001 -12.7406 16.9495
3715 21 59 -10.066 2.25295 8.08027
3787 21 107 -12.3654 5.60006 18.5329
3764 21 94 -18.2149 7.131 17.0582
3759 21 91 -13.3998 11.8478 15.0673
3641 21 11 -15.1935 11.3735 17.6284
3803 21 117 -3.91273 -17.8445 -8.29483
3664 21 24 -7.23877 -18.4033 -1.85783
3748 21 82 -4.93309 -20.8144 -1.60728
3810 21 122 -9.14627 -14.9135 15.5147
3781 21 103 -4.67738 -8.64556 7.11606
3671 21 29 -5.99148 1.59494 5.36847
3760 21 92 -5.01912 -1.24176 15.6074
3693 21 43 -3.78276 8.25209 -8.84064
3666 21 26 7.39627 -22.7308 -4.49687
3681 21 35 3.32579 -23.8851 6.63904
3665 21 25 -0.702691 -15.1164 -0.585348
3685 21 39 0.295309 -3.76352 8.28719
3799 21 115 2.05003 5.07395 2.30065
3791 21 109 1.99788 -0.669552 5.35811
3766 21 96 2.03526 0.316892 16.9124
3809 21 121 0.600263 -1.18185 19.753
3751 21 85 5.37003 8.99651 14.7961
3714 21 58 -0.906529 11.7424 15.2859
3785 21 105 12.682 -19.5495 -5.34992
3811 21 123 15.6453 -16.9652 10.3364
3747 21 81 15.9001 -19.9791 11.7994
3792 21 110 14.9089 -21.8143 20.2967
3706 21 54 8.26516 -21.73 13.822
3719 21 63 14.6335 -13.7893 0.310038
3750 21 84 10.9864 -8.02108 -9.01717
3682 21 36 8.94834 -3.60137 0.751254
3696 21 46 7.91372 -1.89762 11.1024
3752 21 86 10.4538 -2.45648 16.1119
3726 21 68 8.79713 -0.523422 -1.90467
3702 21 50 9.96245 -1.08654 7.34462
3780 21 102 11.4206 6.07411 13.4247
3798 21 114 8.03818 -1.04476 14.2109
3654 21 16 14.9041 4.19482 15.2646
3724 21 66 12.0095 6.68012 -4.46467
ITEM: TIMESTEP
540000
ITEM: NUMBER OF ATOMS
43
ITEM: BOX BOUNDS pp pp pp
-1.8399761161207739e+01 1.6580741382282302e+01
-2.4188241604341574e+01 1.3960833362254167e+01
-9.4199113207953289e+00 2.0792570145642905e+01
ITEM: ATOMS id type mol x y z
3753 21 87 -17.5754 -20.7988 -2.15224
3754 21 88 -17.9708 -19.7702 2.54978
3717 21 61 -14.6054 -21.7694 9.87717
3770 21 98 -17.0671 -12.1422 -8.67946
3660 21 20 -11.4392 -12.6669 17.0761
3715 21 59 -10.1002 2.18172 8.10719
3787 21 107 -12.4081 5.49647 18.6773
3764 21 94 -18.2794 7.01261 17.1861
3759 21 91 -13.4464 11.6838 15.1728
3641 21 11 -15.2467 11.2141 17.7627
3803 21 117 -3.92393 -17.7214 -8.45204
3664 21 24 -7.26237 -18.2748 -1.94266
3748 21 82 -4.94809 -20.6626 -1.6893
3810 21 122 -9.17699 -14.8188 15.6252
3781 21 103 -4.69143 -8.61141 7.13213
3671 21 29 -6.01043 1.53007 5.36489
3760 21 92 -5.03445 -1.2792 15.719
3693 21 43 -3.79348 8.12286 -9.00399
3666 21 26 7.42725 -22.5604 -4.61138
3681 21 35 3.34158 -23.7036 6.64976
3665 21 25 -0.70192 -15.0197 -0.65587
3799 21 115 2.06106 4.97544 2.26258
3791 21 109 2.00872 -0.712524 5.35442
3766 21 96 2.04624 0.264382 17.0387
3809 21 121 0.605893 -1.21987 19.9112
3751 21 85 5.39345 8.86008 14.8985
3714 21 58 -0.906518 11.5794 15.3939
3785 21 105 12.7327 -19.4099 -5.47401
3811 21 123 15.707 -16.8507 10.3887
3747 21 81 15.9628 -19.8354 11.8682
3792 21 110 14.9679 -21.6529 20.4609
3706 21 54 8.29937 -21.5694 13.9135
3719 21 63 14.6915 -13.7054 0.249584
3750 21 84 11.0308 -7.99297 -9.1825
3682 21 36 8.9851 -3.61599 0.695762
3696 21 46 7.94662 -1.92872 11.1633
3752 21 86 10.4962 -2.48218 16.2291
3726 21 68 8.83333 -0.567806 -1.99003
3702 21 50 10.003 -1.12548 7.36327
3780 21 102 11.4665 5.96594 13.5117
3798 21 114 8.07154 -1.0841 14.3067
3654 21 16 14.963 4.10481 15.3723
3724 21 66 12.0577 6.56608 -4.57881
ITEM: TIMESTEP
545000
ITEM: NUMBER OF ATOMS
42
ITEM: BOX BOUNDS pp pp pp
-1.8441666176569036e+01 1.6622646397643599e+01
-2.4162812459033979e+01 1.3935404216946573e+01
-9.3889132193811413e+00 2.0761572044214706e+01
ITEM: ATOMS id type mol x y z
3753 21 87 -17.6153 -20.7779 -2.13616
3754 21 88 -18.0116 -19.7507 2.55621
3717 21 61 -14.6382 -21.7472 9.86857
3660 21 20 -11.4645 -12.6568 17.0527
3715 21 59 -10.1222 2.17199 8.10222
3787 21 107 -12.4357 5.48232 18.6506
3764 21 94 -18.321 6.99644 17.1625
3759 21 91 -13.4764 11.6614 15.1534
3641 21 11 -15.2811 11.1923 17.7379
3803 21 117 -3.93115 -17.7046 -8.42303
3664 21 24 -7.27759 -18.2572 -1.927
3748 21 82 -4.95777 -20.6419 -1.67416
3810 21 122 -9.19679 -14.8058 15.6048
3781 21 103 -4.70049 -8.60674 7.12917
3671 21 29 -6.02265 1.52121 5.36555
3760 21 92 -5.04433 -1.28432 15.6984
3693 21 43 -3.80039 8.10521 -8.97384
3666 21 26 7.44722 -22.5372 -4.59025
3681 21 35 3.35177 -23.6788 6.64778
3665 21 25 -0.701422 -15.0065 -0.642855
3799 21 115 2.06818 4.96199 2.26961
3791 21 109 2.01571 -0.718391 5.3551
3766 21 96 2.05332 0.257212 17.0154
3809 21 121 0.609524 -1.22506 19.882
3751 21 85 5.40855 8.84145 14.8796
3714 21 58 -0.906511 11.5571 15.3739
3785 21 105 12.7654 -19.3909 -5.45111
3811 21 123 15.7468 -16.835 10.3791
3747 21 81 16.0033 -19.8157 11.8555
3792 21 110 15.0059 -21.6308 20.4306
3706 21 54 8.32143 -21.5474 13.8966
3719 21 63 14.7289 -13.694 0.26074
3750 21 84 11.0594 -7.98913 -9.15199
3682 21 36 9.00881 -3.61799 0.706002
3696 21 46 7.96784 -1.93296 11.152
3752 21 86 10.5235 -2.48568 16.2075
3726 21 68 8.85667 -0.573867 -1.97428
3702 21 50 10.0291 -1.1308 7.35983
3780 21 102 11.4962 5.95117 13.4957
3798 21 114 8.09306 -1.08948 14.289
3654 21 16 15.0011 4.09252 15.3524
3724 21 66 12.0887 6.55051 -4.55775
ITEM: TIMESTEP
550000
ITEM: NUMBER OF ATOMS
43
ITEM: BOX BOUNDS pp pp pp
-1.8441573941377698e+01 1.6622554162452261e+01
-2.4347800871947026e+01 1.4120392629859619e+01
-9.3770152452830615e+00 2.0749674070100451e+01
ITEM: ATOMS id type mol x y z
3753 21 87 -17.6152 -20.93 -2.12998
3754 21 88 -18.0116 -19.8929 2.55868
3717 21 61 -14.6382 -21.9087 9.86527
3815 21 125 -11.8466 -20.8077 11.7796
3660 21 20 -11.4644 -12.73 17.0438
3715 21 59 -10.1221 2.24275 8.10031
3787 21 107 -12.4356 5.58522 18.6404
3764 21 94 -18.3209 7.11404 17.1534
3759 21 91 -13.4763 11.8243 15.1459
3641 21 11 -15.281 11.3507 17.7284
3803 21 117 -3.93113 -17.8269 -8.4119
3664 21 24 -7.27756 -18.3849 -1.921
3748 21 82 -4.95775 -20.7927 -1.66835
3810 21 122 -9.19675 -14.8999 15.597
3781 21 103 -4.70047 -8.64067 7.12803
3671 21 29 -6.02262 1.58565 5.36581
3760 21 92 -5.04431 -1.24713 15.6905
3693 21 43 -3.80037 8.23358 -8.96227
3666 21 26 7.44718 -22.7064 -4.58214
3681 21 35 3.35175 -23.8591 6.64702
3665 21 25 -0.701424 -15.1026 -0.63786
3799 21 115 2.06817 5.05984 2.2723
3791 21 109 2.0157 -0.675708 5.35536
3766 21 96 2.0533 0.30937 17.0064
3809 21 121 0.609516 -1.1873 19.8708
3751 21 85 5.40851 8.97697 14.8724
3714 21 58 -0.906511 11.719 15.3663
3785 21 105 12.7653 -19.5295 -5.44232
3811 21 123 15.7467 -16.9488 10.3753
3747 21 81 16.0032 -19.9585 11.8506
3792 21 110 15.0058 -21.7912 20.419
3706 21 54 8.32138 -21.707 13.8901
3719 21 63 14.7288 -13.7773 0.265022
3750 21 84 11.0593 -8.01705 -9.14028
3682 21 36 9.00875 -3.60346 0.709933
3696 21 46 7.96779 -1.90208 11.1477
3752 21 86 10.5235 -2.46016 16.1992
3726 21 68 8.85662 -0.52978 -1.96823
3702 21 50 10.0291 -1.09212 7.35851
3780 21 102 11.4961 6.05862 13.4895
3798 21 114 8.09301 -1.0504 14.2823
3654 21 16 15.001 4.18193 15.3448
3724 21 66 12.0887 6.66378 -4.54966
ITEM: TIMESTEP
555000
ITEM: NUMBER OF ATOMS
44
ITEM: BOX BOUNDS pp pp pp
-1.8420813569796774e+01 1.6601793790871337e+01
-2.4272136333421855e+01 1.4044728091334449e+01
-9.4176840274998739e+00 2.0790342852294319e+01
ITEM: ATOMS id type mol x y z
3753 21 87 -17.5954 -20.8678 -2.15109
3754 21 88 -17.9913 -19.8347 2.55024
3717 21 61 -14.6219 -21.8427 9.87655
3815 21 125 -11.8337 -20.7459 11.796
3660 21 20 -11.4519 -12.7001 17.0744
3787 21 107 -12.422 5.54314 18.6754
3764 21 94 -18.3003 7.06594 17.1844
3759 21 91 -13.4615 11.7576 15.1714
3641 21 11 -15.264 11.2859 17.7609
3803 21 117 -3.92756 -17.7769 -8.44996
3664 21 24 -7.27002 -18.3327 -1.94153
3748 21 82 -4.95295 -20.731 -1.68821
3810 21 122 -9.18694 -14.8614 15.6237
3781 21 103 -4.69599 -8.62679 7.13192
3817 21 127 -6.97949 -2.18085 19.1132
3671 21 29 -6.01657 1.55929 5.36494
3760 21 92 -5.03941 -1.26234 15.7175
3693 21 43 -3.79695 8.18107 -9.00182
3666 21 26 7.43728 -22.6371 -4.60986
3681 21 35 3.3467 -23.7853 6.64961
3665 21 25 -0.70167 -15.0633 -0.654935
3799 21 115 2.06464 5.01982 2.26309
3791 21 109 2.01223 -0.693166 5.35447
3766 21 96 2.0498 0.288036 17.037
3809 21 121 0.607717 -1.20275 19.9091
3751 21 85 5.40103 8.92154 14.8972
3714 21 58 -0.906514 11.6528 15.3924
3785 21 105 12.7491 -19.4728 -5.47237
3811 21 123 15.727 -16.9023 10.388
3747 21 81 15.9831 -19.9001 11.8673
3792 21 110 14.987 -21.7256 20.4588
3706 21 54 8.31045 -21.6417 13.9123
3719 21 63 14.7103 -13.7432 0.250385
3750 21 84 11.0452 -8.00563 -9.18031
3682 21 36 8.99701 -3.6094 0.696498
3696 21 46 7.95728 -1.91471 11.1624
3752 21 86 10.5099 -2.4706 16.2275
3726 21 68 8.84506 -0.547812 -1.9889
3816 21 126 10.1874 5.72342 -9.18176
3702 21 50 10.0161 -1.10794 7.36302
3780 21 102 11.4814 6.01467 13.5106
3798 21 114 8.08235 -1.06638 14.3055
3654 21 16 14.9821 4.14536 15.3708
3724 21 66 12.0733 6.61745 -4.5773
ITEM: TIMESTEP
560000
ITEM: NUMBER OF ATOMS
43
ITEM: BOX BOUNDS pp pp pp
-1.8474546006421175e+01 1.6655526227495738e+01
-2.4171021525892318e+01 1.3943613283804911e+01
-9.4709899643433850e+00 2.0843648789113157e+01
ITEM: ATOMS id type mol x y z
3753 21 87 -17.6466 -20.7847 -2.17875
3754 21 88 -18.0437 -19.757 2.53917
3717 21 61 -14.664 -21.7544 9.89134
3815 21 125 -11.8672 -20.6634 11.8176
3660 21 20 -11.4843 -12.66 17.1146
3787 21 107 -12.4573 5.48689 18.7212
3764 21 94 -18.3537 7.00166 17.2249
3641 21 11 -15.308 11.1994 17.8035
3803 21 117 -3.93682 -17.71 -8.49985
3664 21 24 -7.28954 -18.2629 -1.96845
3748 21 82 -4.96536 -20.6486 -1.71423
3810 21 122 -9.21234 -14.81 15.6588
3781 21 103 -4.7076 -8.60825 7.13702
3671 21 29 -6.03224 1.52407 5.36381
3818 21 128 -9.03166 1.83256 6.23051
3760 21 92 -5.05209 -1.28266 15.7529
3693 21 43 -3.80581 8.11091 -9.05366
3666 21 26 7.46289 -22.5447 -4.6462
3681 21 35 3.35976 -23.6868 6.65301
3665 21 25 -0.701032 -15.0108 -0.677314
3799 21 115 2.07377 4.96634 2.25101
3791 21 109 2.0212 -0.716497 5.3533
3766 21 96 2.05888 0.259527 17.0771
3809 21 121 0.612373 -1.22339 19.9593
3751 21 85 5.4204 8.84746 14.9297
3714 21 58 -0.906505 11.5643 15.4267
3785 21 105 12.791 -19.397 -5.51175
3811 21 123 15.778 -16.8401 10.4046
3747 21 81 16.035 -19.8221 11.8891
3792 21 110 15.0358 -21.6379 20.5109
3706 21 54 8.33874 -21.5545 13.9413
3719 21 63 14.7582 -13.6977 0.231201
3750 21 84 11.0818 -7.99037 -9.23278
3682 21 36 9.02741 -3.61734 0.678887
3696 21 46 7.98449 -1.93159 11.1818
3752 21 86 10.545 -2.48455 16.2647
3726 21 68 8.87499 -0.57191 -2.01599
3816 21 126 10.2214 5.66622 -9.23424
3702 21 50 10.0497 -1.12908 7.36894
3780 21 102 11.5195 5.95593 13.5382
3798 21 114 8.10994 -1.08774 14.3359
3654 21 16 15.0309 4.09649 15.405
3724 21 66 12.1131 6.55554 -4.61352
ITEM: TIMESTEP
565000
ITEM: NUMBER OF ATOMS
46
ITEM: BOX BOUNDS pp pp pp
-1.8513016473063217e+01 1.6693996694137780e+01
-2.4186474878685921e+01 1.3959066636598514e+01
-9.4100139489177010e+00 2.0782672773677895e+01
ITEM: ATOMS id type mol x y z
3753 21 87 -17.6833 -20.7974 -2.14711
3754 21 88 -18.0812 -19.7689 2.55183
3717 21 61 -14.6941 -21.7679 9.87443
3815 21 125 -11.8912 -20.676 11.7929
3660 21 20 -11.5074 -12.6662 17.0686
3787 21 107 -12.4826 5.49549 18.6688
3764 21 94 -18.3919 7.01148 17.1785
3641 21 11 -15.3396 11.2126 17.7548
3803 21 117 -3.94345 -17.7202 -8.44278
3664 21 24 -7.30351 -18.2735 -1.93766
3748 21 82 -4.97424 -20.6612 -1.68446
3810 21 122 -9.23052 -14.8179 15.6187
3781 21 103 -4.71592 -8.61108 7.13119
3671 21 29 -6.04346 1.52946 5.3651
3818 21 128 -9.04945 1.83819 6.22832
3760 21 92 -5.06116 -1.27956 15.7124
3693 21 43 -3.81215 8.12163 -8.99436
3819 21 129 -8.81016 10.6758 2.66751
3666 21 26 7.48123 -22.5588 -4.60463
3681 21 35 3.36911 -23.7018 6.64912
3665 21 25 -0.700576 -15.0188 -0.651714
3821 21 131 -0.752267 -2.669 9.98881
3799 21 115 2.0803 4.97451 2.26483
3791 21 109 2.02762 -0.712931 5.35464
3766 21 96 2.06538 0.263884 17.0312
3809 21 121 0.615706 -1.22023 19.9019
3751 21 85 5.43426 8.85878 14.8925
3714 21 58 -0.906498 11.5778 15.3875
3785 21 105 12.821 -19.4086 -5.4667
3811 21 123 15.8146 -16.8496 10.3856
3747 21 81 16.0721 -19.834 11.8641
3792 21 110 15.0707 -21.6513 20.4513
3706 21 54 8.359 -21.5678 13.9081
3820 21 130 11.1807 -21.8086 12.162
3719 21 63 14.7925 -13.7046 0.253146
3750 21 84 11.1081 -7.9927 -9.17276
3682 21 36 9.04917 -3.61613 0.699032
3696 21 46 8.00397 -1.92901 11.1597
3752 21 86 10.57 -2.48242 16.2222
3726 21 68 8.89642 -0.568227 -1.985
3816 21 126 10.2458 5.67496 -9.17421
3702 21 50 10.0737 -1.12585 7.36217
3780 21 102 11.5467 5.96491 13.5066
3798 21 114 8.1297 -1.08448 14.3011
3654 21 16 15.0658 4.10396 15.3659
3724 21 66 12.1416 6.565 -4.57208
ITEM: TIMESTEP
570000
ITEM: NUMBER OF ATOMS
46
ITEM: BOX BOUNDS pp pp pp
-1.8458419074857961e+01 1.6639399295932524e+01
-2.4309012279566627e+01 1.4081604037479220e+01
-9.3288794155530717e+00 2.0701538240306288e+01
ITEM: ATOMS id type mol x y z
3753 21 87 -17.6313 -20.8981 -2.10501
3754 21 88 -18.028 -19.863 2.56868
3717 21 61 -14.6513 -21.8749 9.85192
3815 21 125 -11.8572 -20.776 11.7601
3660 21 20 -11.4746 -12.7147 17.0075
3787 21 107 -12.4467 5.56365 18.599
3764 21 94 -18.3377 7.08938 17.1168
3641 21 11 -15.2948 11.3175 17.6899
3803 21 117 -3.93404 -17.8012 -8.36684
3664 21 24 -7.28368 -18.3581 -1.89669
3748 21 82 -4.96164 -20.7611 -1.64485
3810 21 122 -9.20471 -14.8802 15.5653
3781 21 103 -4.70412 -8.63355 7.12342
3671 21 29 -6.02753 1.57214 5.36683
3818 21 128 -9.02421 1.88285 6.2254
3760 21 92 -5.04828 -1.25493 15.6585
3693 21 43 -3.80315 8.20666 -8.91546
3819 21 129 -8.78566 10.7773 2.68373
3666 21 26 7.45521 -22.6709 -4.54932
3681 21 35 3.35584 -23.8213 6.64395
3665 21 25 -0.701224 -15.0824 -0.617651
3821 21 131 -0.752755 -2.65329 9.96569
3799 21 115 2.07103 5.03932 2.28321
3791 21 109 2.01851 -0.684658 5.35642
3766 21 96 2.05615 0.298433 16.9703
3809 21 121 0.610975 -1.19522 19.8255
3751 21 85 5.41458 8.94855 14.843
3714 21 58 -0.906508 11.6851 15.3354
3785 21 105 12.7784 -19.5005 -5.40676
3811 21 123 15.7627 -16.925 10.3604
3747 21 81 16.0194 -19.9286 11.8309
3792 21 110 15.0211 -21.7576 20.3719
3706 21 54 8.33025 -21.6736 13.8639
3820 21 130 11.1432 -21.9158 12.1272
3719 21 63 14.7438 -13.7598 0.282346
3750 21 84 11.0708 -8.0112 -9.0929
3682 21 36 9.01828 -3.60651 0.725835
3696 21 46 7.97632 -1.90855 11.1303
3752 21 86 10.5344 -2.46551 16.1656
3726 21 68 8.866 -0.539024 -1.94377
3816 21 126 10.2112 5.74428 -9.09434
3702 21 50 10.0396 -1.10023 7.35316
3780 21 102 11.508 6.03609 13.4646
3798 21 114 8.10166 -1.05859 14.2548
3654 21 16 15.0163 4.16318 15.3139
3724 21 66 12.1011 6.64003 -4.51695
ITEM: TIMESTEP
575000
ITEM: NUMBER OF ATOMS
46
ITEM: BOX BOUNDS pp pp pp
-1.8531100882755506e+01 1.6712081103830069e+01
-2.4169919300560913e+01 1.3942511058473507e+01
-9.3714009290677716e+00 2.0744059753797607e+01
ITEM: ATOMS id type mol x y z
3753 21 87 -17.7005 -20.7838 -2.12707
3754 21 88 -18.0989 -19.7562 2.55985
3717 21 61 -14.7083 -21.7534 9.86371
3815 21 125 -11.9025 -20.6625 11.7773
3660 21 20 -11.5183 -12.6596 17.0395
3787 21 107 -12.4945 5.48628 18.6356
3764 21 94 -18.4099 7.00096 17.1491
3641 21 11 -15.3544 11.1984 17.7239
3803 21 117 -3.94656 -17.7093 -8.40664
3664 21 24 -7.31008 -18.2621 -1.91816
3748 21 82 -4.97842 -20.6477 -1.66561
3810 21 122 -9.23907 -14.8094 15.5933
3781 21 103 -4.71983 -8.60805 7.12749
3671 21 29 -6.04873 1.52369 5.36593
3818 21 128 -9.05782 1.83216 6.22693
3760 21 92 -5.06542 -1.28289 15.6867
3693 21 43 -3.81513 8.11014 -8.95681
3819 21 129 -8.81828 10.6621 2.67523
3666 21 26 7.48985 -22.5437 -4.57831
3681 21 35 3.37351 -23.6857 6.64666
3665 21 25 -0.700361 -15.0102 -0.635503
3821 21 131 -0.752105 -2.67112 9.9778
3799 21 115 2.08337 4.96575 2.27358
3791 21 109 2.03063 -0.716751 5.35549
3766 21 96 2.06843 0.259216 17.0022
3809 21 121 0.617273 -1.22361 19.8655
3751 21 85 5.44078 8.84665 14.8689
3714 21 58 -0.906495 11.5633 15.3627
3785 21 105 12.8351 -19.3962 -5.43817
3811 21 123 15.8318 -16.8394 10.3736
3747 21 81 16.0895 -19.8212 11.8483
3820 21 130 11.1931 -21.7941 12.1455
3792 21 110 15.0871 -21.637 20.4135
3706 21 54 8.36852 -21.5536 13.8871
3719 21 63 14.8086 -13.6972 0.267043
3750 21 84 11.1204 -7.9902 -9.13475
3682 21 36 9.0594 -3.61743 0.711788
3696 21 46 8.01312 -1.93178 11.1457
3752 21 86 10.5818 -2.4847 16.1952
3726 21 68 8.90649 -0.572173 -1.96538
3816 21 126 10.2573 5.6656 -9.1362
3702 21 50 10.0849 -1.12931 7.35788
3780 21 102 11.5595 5.95529 13.4866
3798 21 114 8.13898 -1.08797 14.279
3654 21 16 15.0822 4.09596 15.3412
3724 21 66 12.155 6.55486 -4.54585
ITEM: TIMESTEP
580000
ITEM: NUMBER OF ATOMS
45
ITEM: BOX BOUNDS pp pp pp
-1.8485087065340327e+01 1.6666067286414890e+01
-2.4242034643067992e+01 1.4014626400980585e+01
-9.3758242097053213e+00 2.0748483034417013e+01
ITEM: ATOMS id type mol x y z
3753 21 87 -17.6567 -20.8431 -2.12937
3754 21 88 -18.054 -19.8116 2.55893
3717 21 61 -14.6722 -21.8164 9.86494
3815 21 125 -11.8738 -20.7214 11.7791
3660 21 20 -11.4906 -12.6882 17.0429
3787 21 107 -12.4642 5.52639 18.6394
3764 21 94 -18.3642 7.0468 17.1525
3641 21 11 -15.3167 11.2602 17.7274
3803 21 117 -3.93863 -17.757 -8.41078
3664 21 24 -7.29336 -18.3119 -1.92039
3748 21 82 -4.96779 -20.7065 -1.66777
3810 21 122 -9.21732 -14.8461 15.5962
3781 21 103 -4.70988 -8.62127 7.12791
3671 21 29 -6.03531 1.54881 5.36583
3818 21 128 -9.03654 1.85844 6.22709
3760 21 92 -5.05457 -1.26839 15.6897
3693 21 43 -3.80755 8.16018 -8.96112
3819 21 129 -8.79763 10.7218 2.67435
3666 21 26 7.46792 -22.6096 -4.58133
3681 21 35 3.36232 -23.756 6.64694
3665 21 25 -0.700907 -15.0477 -0.63736
3821 21 131 -0.752516 -2.66188 9.97906
3799 21 115 2.07556 5.0039 2.27257
3791 21 109 2.02296 -0.700112 5.35539
3766 21 96 2.06066 0.279549 17.0055
3809 21 121 0.613286 -1.20889 19.8697
3751 21 85 5.42419 8.89949 14.8716
3714 21 58 -0.906503 11.6265 15.3655
3785 21 105 12.7992 -19.4503 -5.44144
3811 21 123 15.7881 -16.8838 10.375
3747 21 81 16.0451 -19.8769 11.8501
3820 21 130 11.1615 -21.8572 12.1474
3792 21 110 15.0453 -21.6995 20.4178
3719 21 63 14.7676 -13.7297 0.265451
3750 21 84 11.089 -8.00109 -9.13911
3682 21 36 9.03337 -3.61177 0.710327
3696 21 46 7.98982 -1.91974 11.1473
3752 21 86 10.5518 -2.47475 16.1983
3726 21 68 8.88086 -0.554986 -1.96763
3816 21 126 10.2281 5.70639 -9.14056
3702 21 50 10.0562 -1.11424 7.35837
3780 21 102 11.5269 5.99718 13.4889
3798 21 114 8.11536 -1.07274 14.2816
3654 21 16 15.0405 4.13081 15.344
3724 21 66 12.1209 6.59902 -4.54885
ITEM: TIMESTEP
585000
ITEM: NUMBER OF ATOMS
45
ITEM: BOX BOUNDS pp pp pp
-1.8483072405680293e+01 1.6664052626754856e+01
-2.4441785200093417e+01 1.4214376958006010e+01
-9.2538279510953778e+00 2.0626486775806018e+01
ITEM: ATOMS id type mol x y z
3753 21 87 -17.6548 -21.0073 -2.06606
3754 21 88 -18.052 -19.9651 2.58426
3717 21 61 -14.6706 -21.9908 9.8311
3815 21 125 -11.8725 -20.8844 11.7297
3660 21 20 -11.4894 -12.7672 16.9509
3787 21 107 -12.4629 5.6375 18.5345
3764 21 94 -18.3622 7.17379 17.0596
3641 21 11 -15.315 11.4311 17.6299
3803 21 117 -3.93829 -17.889 -8.2966
3664 21 24 -7.29263 -18.4497 -1.85878
3748 21 82 -4.96733 -20.8693 -1.60821
3810 21 122 -9.21637 -14.9478 15.5159
3781 21 103 -4.70945 -8.6579 7.11624
3671 21 29 -6.03472 1.61838 5.36843
3818 21 128 -9.03561 1.93125 6.22271
3760 21 92 -5.0541 -1.22823 15.6087
3693 21 43 -3.80721 8.2988 -8.84248
3819 21 129 -8.79672 10.8872 2.69874
3666 21 26 7.46696 -22.7923 -4.49816
3681 21 35 3.36183 -23.9507 6.63916
3665 21 25 -0.700931 -15.1514 -0.586141
3821 21 131 -0.752534 -2.63627 9.9443
3799 21 115 2.07521 5.10955 2.30022
3791 21 109 2.02262 -0.654022 5.35807
3766 21 96 2.06032 0.335869 16.9139
3809 21 121 0.613111 -1.16811 19.7548
3751 21 85 5.42347 9.04582 14.7972
3714 21 58 -0.906504 11.8013 15.2871
3785 21 105 12.7976 -19.6 -5.35131
3811 21 123 15.7861 -17.0067 10.337
3747 21 81 16.0432 -20.0311 11.8002
3820 21 130 11.1601 -22.032 12.095
3792 21 110 15.0435 -21.8727 20.2985
3719 21 63 14.7658 -13.8196 0.309357
3750 21 84 11.0877 -8.03124 -9.01903
3682 21 36 9.03223 -3.59608 0.75063
3696 21 46 7.9888 -1.88638 11.103
3752 21 86 10.5505 -2.4472 16.1132
3726 21 68 8.87974 -0.507381 -1.90563
3816 21 126 10.2268 5.81938 -9.02047
3702 21 50 10.055 -1.07247 7.34483
3780 21 102 11.5255 6.11321 13.4257
3798 21 114 8.11432 -1.03054 14.212
3654 21 16 15.0386 4.22735 15.2658
3724 21 66 12.1194 6.72133 -4.46595
ITEM: TIMESTEP
590000
ITEM: NUMBER OF ATOMS
46
ITEM: BOX BOUNDS pp pp pp
-1.8401225557022752e+01 1.6582205778097315e+01
-2.4151964852356432e+01 1.3924556610269025e+01
-9.4420721984933529e+00 2.0814731023160370e+01
ITEM: ATOMS id type mol x y z
3753 21 87 -17.5768 -20.769 -2.16374
3754 21 88 -17.9722 -19.7424 2.54518
3717 21 61 -14.6066 -21.7377 9.88332
3815 21 125 -11.8215 -20.6479 11.8059
3660 21 20 -11.4401 -12.6525 17.0928
3787 21 107 -12.4091 5.47629 18.6964
3764 21 94 -18.2809 6.98954 17.2029
3641 21 11 -15.2479 11.1831 17.7804
3803 21 117 -3.92418 -17.6974 -8.47278
3664 21 24 -7.2629 -18.2497 -1.95385
3748 21 82 -4.94843 -20.633 -1.70012
3810 21 122 -9.17768 -14.8003 15.6398
3781 21 103 -4.69175 -8.60476 7.13426
3671 21 29 -6.01085 1.51744 5.36442
3818 21 128 -8.99776 1.82561 6.22947
3760 21 92 -5.03479 -1.2865 15.7337
3693 21 43 -3.79372 8.09768 -9.02554
3819 21 129 -8.75999 10.6473 2.6611
3666 21 26 7.42795 -22.5272 -4.62649
3681 21 35 3.34194 -23.6682 6.65117
3665 21 25 -0.701902 -15.0009 -0.665174
3821 21 131 -0.753266 -2.67342 9.99795
3799 21 115 2.06131 4.95626 2.25756
3791 21 109 2.00896 -0.720894 5.35394
3766 21 96 2.04648 0.254154 17.0553
3809 21 121 0.60602 -1.22728 19.9321
3751 21 85 5.39397 8.8335 14.912
3822 21 132 0.256999 10.9837 18.0624
3714 21 58 -0.906518 11.5476 15.4081
3785 21 105 12.7338 -19.3828 -5.49038
3811 21 123 15.7084 -16.8283 10.3956
3747 21 81 15.9642 -19.8074 11.8772
3820 21 130 11.1039 -21.7784 12.1758
3792 21 110 14.9692 -21.6214 20.4826
3719 21 63 14.6928 -13.6891 0.241608
3750 21 84 11.0318 -7.98749 -9.20431
3682 21 36 8.98593 -3.61884 0.688441
3696 21 46 7.94736 -1.93477 11.1713
3752 21 86 10.4971 -2.48718 16.2446
3726 21 68 8.83415 -0.576452 -2.00129
3816 21 126 10.175 5.65544 -9.20577
3702 21 50 10.0039 -1.13307 7.36573
3780 21 102 11.4676 5.94486 13.5232
3798 21 114 8.0723 -1.09177 14.3194
3654 21 16 14.9644 4.08728 15.3865
3724 21 66 12.0587 6.54387 -4.59387
ITEM: TIMESTEP
595000
ITEM: NUMBER OF ATOMS
47
ITEM: BOX BOUNDS pp pp pp
-1.8460394804350290e+01 1.6641375025424853e+01
-2.4349546913990281e+01 1.4122138671902874e+01
-9.3430251793202075e+00 2.0715684003983267e+01
ITEM: ATOMS id type mol x y z
3753 21 87 -17.6332 -20.9315 -2.11235
3754 21 88 -18.0299 -19.8942 2.56574
3717 21 61 -14.6529 -21.9103 9.85584
3815 21 125 -11.8584 -20.8091 11.7658
3660 21 20 -11.4758 -12.7307 17.0181
3787 21 107 -12.448 5.58619 18.6112
3764 21 94 -18.3396 7.11515 17.1275
3641 21 11 -15.2964 11.3522 17.7012
3803 21 117 -3.93438 -17.828 -8.38008
3664 21 24 -7.2844 -18.3861 -1.90383
3748 21 82 -4.96209 -20.7941 -1.65176
3810 21 122 -9.20565 -14.9008 15.5746
3781 21 103 -4.70454 -8.64099 7.12478
3671 21 29 -6.02811 1.58626 5.36653
3818 21 128 -9.02512 1.89763 6.22591
3760 21 92 -5.04875 -1.24678 15.6679
3693 21 43 -3.80348 8.23479 -8.92922
3819 21 129 -8.78655 10.8108 2.68091
3666 21 26 7.45615 -22.7079 -4.55897
3681 21 35 3.35632 -23.8608 6.64485
3665 21 25 -0.7012 -15.1035 -0.62359
3821 21 131 -0.752737 -2.6481 9.96972
3799 21 115 2.07136 5.06076 2.28001
3791 21 109 2.01884 -0.675305 5.35611
3766 21 96 2.05648 0.309862 16.9809
3809 21 121 0.611146 -1.18694 19.8388
3751 21 85 5.4153 8.97825 14.8516
3822 21 132 0.260945 11.1508 17.9814
3714 21 58 -0.906507 11.7205 15.3444
3785 21 105 12.78 -19.5308 -5.41721
3811 21 123 15.7646 -16.9499 10.3648
3747 21 81 16.0213 -19.9599 11.8367
3820 21 130 11.1445 -21.9513 12.1333
3792 21 110 15.0229 -21.7927 20.3857
3719 21 63 14.7456 -13.7781 0.277255
3750 21 84 11.0722 -8.01732 -9.10682
3682 21 36 9.0194 -3.60332 0.721162
3696 21 46 7.97732 -1.90178 11.1354
3752 21 86 10.5357 -2.45992 16.1754
3726 21 68 8.86711 -0.529364 -1.95096
3816 21 126 10.2125 5.76721 -9.10827
3702 21 50 10.0408 -1.09176 7.35473
3780 21 102 11.5094 6.05963 13.4719
3798 21 114 8.10268 -1.05003 14.2629
3654 21 16 15.0181 4.18277 15.323
3724 21 66 12.1026 6.66485 -4.52656
3823 21 133 10.6053 9.89137 12.2191
ITEM: TIMESTEP
600000
ITEM: NUMBER OF ATOMS
47
ITEM: BOX BOUNDS pp pp pp
-1.8327155554354370e+01 1.6508135775428933e+01
-2.4094879657319083e+01 1.3867471415231677e+01
-9.5783598489768522e+00 2.0951018673589150e+01
ITEM: ATOMS id type mol x y z
3753 21 87 -17.5062 -20.7221 -2.23446
3754 21 88 -17.8999 -19.6985 2.51688
3717 21 61 -14.5486 -21.6879 9.92113
3815 21 125 -11.7753 -20.6013 11.861
3660 21 20 -11.3955 -12.6299 17.1956
3787 21 107 -12.3604 5.44454 18.8136
3764 21 94 -18.2073 6.95325 17.3067
3641 21 11 -15.1872 11.1342 17.8894
3803 21 117 -3.91141 -17.6597 -8.60034
3664 21 24 -7.236 -18.2103 -2.02268
3748 21 82 -4.93133 -20.5865 -1.76666
3810 21 122 -9.14267 -14.7713 15.7295
3781 21 103 -4.67573 -8.59429 7.1473
3671 21 29 -5.98925 1.49755 5.36152
3818 21 128 -8.96351 1.8048 6.23436
3760 21 92 -5.01732 -1.29797 15.8242
3693 21 43 -3.78151 8.05807 -9.15808
3819 21 129 -8.72675 10.6 2.63385
3666 21 26 7.39264 -22.475 -4.71939
3681 21 35 3.32394 -23.6126 6.65986
3665 21 25 -0.702782 -14.9712 -0.722393
3821 21 131 -0.753927 -2.68074 10.0368
3799 21 115 2.04873 4.92606 2.22667
3791 21 109 1.99661 -0.734066 5.35094
3766 21 96 2.03397 0.238058 17.1577
3809 21 121 0.599602 -1.23893 20.0604
3751 21 85 5.36728 8.79168 14.9951
3822 21 132 0.252059 10.9354 18.1739
3714 21 58 -0.90653 11.4977 15.4957
3785 21 105 12.676 -19.34 -5.59107
3811 21 123 15.638 -16.7932 10.438
3747 21 81 15.8928 -19.7633 11.933
3820 21 130 11.053 -21.7284 12.2343
3792 21 110 14.902 -21.5719 20.6159
3719 21 63 14.6267 -13.6634 0.192558
3750 21 84 10.9812 -7.97888 -9.33846
3682 21 36 8.94402 -3.62332 0.643416
3696 21 46 7.90986 -1.94431 11.2207
3752 21 86 10.4488 -2.49506 16.3397
3726 21 68 8.79288 -0.590057 -2.07055
3816 21 126 10.128 5.62315 -9.33993
3702 21 50 9.95769 -1.145 7.38086
3780 21 102 11.4152 5.91171 13.5938
3798 21 114 8.03426 -1.10383 14.3972
3654 21 16 14.8971 4.05969 15.4739
3724 21 66 12.0038 6.50892 -4.68648
3823 21 133 10.5179 9.69271 12.3214
ITEM: TIMESTEP
605000
ITEM: NUMBER OF ATOMS
49
ITEM: BOX BOUNDS pp pp pp
-1.8467978782252601e+01 1.6648959003327164e+01
-2.4361745474805392e+01 1.4134337232717986e+01
-9.5247764007659690e+00 2.0897435225367637e+01
ITEM: ATOMS id type mol x y z
3753 21 87 -17.6404 -20.9415 -2.20666
3754 21 88 -18.0373 -19.9036 2.528
3717 21 61 -14.6588 -21.9209 9.90626
3815 21 125 -11.8631 -20.8191 11.8393
3660 21 20 -11.4803 -12.7356 17.1552
3787 21 107 -12.453 5.59298 18.7675
3834 21 138 -12.5637 6.53297 0.222863
3764 21 94 -18.3472 7.12291 17.2659
3641 21 11 -15.3027 11.3626 17.8465
3803 21 117 -3.93569 -17.8361 -8.55019
3664 21 24 -7.28715 -18.3945 -1.99562
3748 21 82 -4.96384 -20.804 -1.7405
3810 21 122 -9.20923 -14.907 15.6942
3781 21 103 -4.70618 -8.64322 7.14217
3671 21 29 -6.03032 1.5905 5.36266
3818 21 128 -9.02863 1.90207 6.23244
3760 21 92 -5.05054 -1.24432 15.7886
3693 21 43 -3.80473 8.24326 -9.10597
3819 21 129 -8.78995 10.8209 2.64456
3666 21 26 7.45976 -22.7191 -4.68286
3681 21 35 3.35816 -23.8727 6.65644
3665 21 25 -0.70111 -15.1098 -0.699896
3821 21 131 -0.752669 -2.64653 10.0215
3799 21 115 2.07265 5.06722 2.23882
3791 21 109 2.0201 -0.67249 5.35212
3766 21 96 2.05777 0.313302 17.1175
3809 21 121 0.611804 -1.18445 20.0099
3751 21 85 5.41803 8.98718 14.9625
3822 21 132 0.261451 11.1611 18.1301
3714 21 58 -0.906506 11.7312 15.4612
3785 21 105 12.7859 -19.54 -5.55149
3811 21 123 15.7718 -16.9574 10.4213
3830 21 136 14.0313 -17.1013 16.4622
3747 21 81 16.0286 -19.9693 11.9111
3820 21 130 11.1497 -21.962 12.2113
3792 21 110 15.0298 -21.8033 20.5635
3719 21 63 14.7523 -13.7836 0.211843
3750 21 84 11.0774 -8.01916 -9.28572
3682 21 36 9.02369 -3.60237 0.661118
3696 21 46 7.98116 -1.89975 11.2013
3752 21 86 10.5407 -2.45824 16.3023
3726 21 68 8.87133 -0.526456 -2.04332
3816 21 126 10.2173 5.77411 -9.28718
3702 21 50 10.0456 -1.08921 7.37491
3780 21 102 11.5148 6.06672 13.5661
3798 21 114 8.10657 -1.04745 14.3666
3654 21 16 15.0249 4.18867 15.4395
3724 21 66 12.1082 6.67232 -4.65007
3823 21 133 10.6103 9.90088 12.2981
ITEM: TIMESTEP
610000
ITEM: NUMBER OF ATOMS
49
ITEM: BOX BOUNDS pp pp pp
-1.8397027521026331e+01 1.6578007742100894e+01
-2.4463501888314561e+01 1.4236093646227154e+01
-9.3068879411579459e+00 2.0679546765772987e+01
ITEM: ATOMS id type mol x y z
3753 21 87 -17.5728 -21.0252 -2.0936
3754 21 88 -17.9681 -19.9818 2.57325
3717 21 61 -14.6033 -22.0098 9.84582
3815 21 125 -11.8189 -20.9021 11.7512
3660 21 20 -11.4376 -12.7758 16.9909
3787 21 107 -12.4063 5.64958 18.5801
3834 21 138 -12.5166 6.59454 0.301123
3764 21 94 -18.2767 7.1876 17.1
3641 21 11 -15.2445 11.4497 17.6723
3803 21 117 -3.92346 -17.9034 -8.34626
3664 21 24 -7.26138 -18.4647 -1.88558
3748 21 82 -4.94746 -20.887 -1.63411
3810 21 122 -9.17569 -14.9588 15.5508
3781 21 103 -4.69084 -8.66188 7.12132
3671 21 29 -6.00963 1.62595 5.3673
3818 21 128 -8.99582 1.93916 6.22461
3760 21 92 -5.0338 -1.22387 15.6439
3693 21 43 -3.79303 8.31387 -8.89408
3819 21 129 -8.75811 10.9052 2.68813
3666 21 26 7.42595 -22.8122 -4.53433
3681 21 35 3.34092 -23.9718 6.64255
3665 21 25 -0.701952 -15.1627 -0.608418
3821 21 131 -0.753303 -2.63349 9.95942
3799 21 115 2.0606 5.12104 2.2882
3791 21 109 2.00826 -0.649011 5.35691
3766 21 96 2.04578 0.341992 16.9537
3809 21 121 0.605656 -1.16368 19.8048
3751 21 85 5.39246 9.06173 14.8296
3822 21 132 0.256719 11.2471 17.9518
3714 21 58 -0.906518 11.8203 15.3212
3785 21 105 12.7305 -19.6163 -5.39051
3811 21 123 15.7044 -17.02 10.3535
3830 21 136 13.9709 -17.1646 16.3079
3747 21 81 15.9602 -20.0478 11.8219
3820 21 130 11.101 -22.051 12.1178
3792 21 110 14.9654 -21.8915 20.3504
3719 21 63 14.689 -13.8294 0.290261
3750 21 84 11.0289 -8.03452 -9.07125
3682 21 36 8.98355 -3.59438 0.733101
3696 21 46 7.94523 -1.88276 11.1223
3752 21 86 10.4944 -2.4442 16.1502
3726 21 68 8.83181 -0.502206 -1.9326
3816 21 126 10.1723 5.83167 -9.0727
3702 21 50 10.0013 -1.06793 7.35072
3780 21 102 11.4646 6.12582 13.4532
3798 21 114 8.07014 -1.02595 14.2422
3654 21 16 14.9605 4.23784 15.2998
3724 21 66 12.0556 6.73463 -4.50201
3823 21 133 10.5637 9.98026 12.2034
ITEM: TIMESTEP
615000
ITEM: NUMBER OF ATOMS
50
ITEM: BOX BOUNDS pp pp pp
-1.8315537479520724e+01 1.6496517700595287e+01
-2.4391680784433863e+01 1.4164272542346456e+01
-9.5484652484905013e+00 2.0921124073053125e+01
ITEM: ATOMS id type mol x y z
3753 21 87 -17.4951 -20.9661 -2.21895
3754 21 88 -17.8886 -19.9266 2.52309
3717 21 61 -14.5395 -21.9471 9.91284
3815 21 125 -11.768 -20.8435 11.8489
3660 21 20 -11.3885 -12.7474 17.173
3787 21 107 -12.3528 5.60963 18.7879
3834 21 138 -12.4625 6.55108 0.214354
3764 21 94 -18.1958 7.14194 17.2839
3641 21 11 -15.1777 11.3883 17.8655
3803 21 117 -3.90941 -17.8559 -8.57236
3664 21 24 -7.23178 -18.4151 -2.00758
3748 21 82 -4.92864 -20.8284 -1.75206
3810 21 122 -9.13717 -14.9223 15.7098
3781 21 103 -4.67322 -8.64871 7.14444
3671 21 29 -5.98586 1.60093 5.36216
3818 21 128 -8.95814 1.91299 6.23329
3760 21 92 -5.01458 -1.23831 15.8043
3693 21 43 -3.77959 8.26403 -9.129
3819 21 129 -8.72153 10.8457 2.63982
3666 21 26 7.3871 -22.7465 -4.69901
3681 21 35 3.32111 -23.9018 6.65795
3665 21 25 -0.702919 -15.1254 -0.709842
3835 21 139 0.320444 -12.3403 0.716222
3821 21 131 -0.754031 -2.64269 10.0283
3799 21 115 2.04676 5.08305 2.23345
3791 21 109 1.99467 -0.665583 5.3516
3766 21 96 2.032 0.321742 17.1353
3809 21 121 0.598596 -1.17834 20.0322
3751 21 85 5.36309 9.00911 14.9769
3822 21 132 0.251284 11.1864 18.1494
3714 21 58 -0.906532 11.7574 15.4765
3785 21 105 12.667 -19.5624 -5.56899
3811 21 123 15.627 -16.9758 10.4287
3830 21 136 13.9016 -17.1199 16.479
3747 21 81 15.8816 -19.9924 11.9208
3820 21 130 11.045 -21.9882 12.2214
3792 21 110 14.8914 -21.8293 20.5867
3719 21 63 14.6164 -13.7971 0.203317
3750 21 84 10.9733 -8.02368 -9.30903
3682 21 36 8.93745 -3.60002 0.653292
3696 21 46 7.90397 -1.89475 11.2099
3752 21 86 10.4413 -2.45411 16.3188
3726 21 68 8.78641 -0.519322 -2.05535
3816 21 126 10.1207 5.79104 -9.3105
3702 21 50 9.95044 -1.08295 7.37754
3780 21 102 11.4069 6.08411 13.5783
3798 21 114 8.0283 -1.04113 14.3801
3654 21 16 14.8866 4.20313 15.4547
3724 21 66 11.9952 6.69065 -4.66617
3823 21 133 10.5103 9.92424 12.3084
ITEM: TIMESTEP
620000
ITEM: NUMBER OF ATOMS
50
ITEM: BOX BOUNDS pp pp pp
-1.8564247773594332e+01 1.6745227994668895e+01
-2.4338964231621720e+01 1.4111555989534313e+01
-9.4083418659692235e+00 2.0781000690534501e+01
ITEM: ATOMS id type mol x y z
3753 21 87 -17.7321 -20.9228 -2.14624
3754 21 88 -18.1312 -19.8861 2.55218
3717 21 61 -14.7342 -21.901 9.87396
3815 21 125 -11.9232 -20.8005 11.7922
3660 21 20 -11.5383 -12.7265 17.0674
3787 21 107 -12.5163 5.58031 18.6674
3834 21 138 -12.6276 6.51919 0.264683
3764 21 94 -18.4428 7.10842 17.1773
3641 21 11 -15.3816 11.3431 17.7534
3803 21 117 -3.95228 -17.821 -8.44121
3664 21 24 -7.32212 -18.3788 -1.93682
3748 21 82 -4.98607 -20.7855 -1.68365
3810 21 122 -9.25474 -14.8954 15.6176
3781 21 103 -4.727 -8.63905 7.13103
3671 21 29 -6.0584 1.58257 5.36514
3818 21 128 -9.07314 1.89377 6.22826
3760 21 92 -5.07324 -1.2489 15.7113
3693 21 43 -3.8206 8.22745 -8.99274
3819 21 129 -8.83316 10.8021 2.66784
3666 21 26 7.50565 -22.6983 -4.60349
3681 21 35 3.38156 -23.8505 6.64902
3665 21 25 -0.699968 -15.098 -0.651012
3835 21 139 0.338019 -12.3205 0.761935
3821 21 131 -0.751809 -2.64945 9.98833
3799 21 115 2.089 5.05517 2.2652
3791 21 109 2.03617 -0.677747 5.35468
3766 21 96 2.07403 0.306878 17.03
3809 21 121 0.620145 -1.1891 19.9003
3751 21 85 5.45272 8.97049 14.8915
3822 21 132 0.267871 11.1418 18.0348
3714 21 58 -0.90649 11.7113 15.3864
3785 21 105 12.861 -19.5229 -5.46547
3811 21 123 15.8633 -16.9434 10.3851
3830 21 136 14.1132 -17.0871 16.3797
3747 21 81 16.1215 -19.9517 11.8634
3820 21 130 11.2158 -21.942 12.1613
3792 21 110 15.1172 -21.7836 20.4496
3719 21 63 14.8382 -13.7733 0.253748
3750 21 84 11.1431 -8.01572 -9.17111
3682 21 36 9.07815 -3.60416 0.699584
3696 21 46 8.02991 -1.90355 11.1591
3752 21 86 10.6035 -2.46138 16.221
3726 21 68 8.92496 -0.531886 -1.98415
3816 21 126 10.2783 5.76122 -9.17257
3702 21 50 10.1056 -1.09397 7.36198
3780 21 102 11.5829 6.05349 13.5058
3798 21 114 8.15601 -1.05226 14.3001
3654 21 16 15.1123 4.17766 15.3648
3724 21 66 12.1796 6.65837 -4.57095
3823 21 133 10.6735 9.88311 12.2475
ITEM: TIMESTEP
625000
ITEM: NUMBER OF ATOMS
50
ITEM: BOX BOUNDS pp pp pp
-1.8450553115855371e+01 1.6631533336929934e+01
-2.4411713598809101e+01 1.4184305356721694e+01
-9.4163274181710044e+00 2.0788986242717346e+01
ITEM: ATOMS id type mol x y z
3753 21 87 -17.6238 -20.9826 -2.15038
3754 21 88 -18.0203 -19.942 2.55052
3717 21 61 -14.6452 -21.9646 9.87618
3815 21 125 -11.8522 -20.8598 11.7955
3660 21 20 -11.4698 -12.7553 17.0734
3787 21 107 -12.4415 5.62077 18.6742
3834 21 138 -12.5521 6.56321 0.261815
3764 21 94 -18.3299 7.15467 17.1833
3641 21 11 -15.2884 11.4054 17.7598
3803 21 117 -3.93268 -17.8691 -8.44869
3664 21 24 -7.28082 -18.429 -1.94085
3748 21 82 -4.95982 -20.8448 -1.68755
3810 21 122 -9.20099 -14.9325 15.6229
3781 21 103 -4.70242 -8.65239 7.13179
3671 21 29 -6.02524 1.60791 5.36497
3818 21 128 -9.02057 1.92029 6.22854
3760 21 92 -5.04643 -1.23428 15.7166
3693 21 43 -3.80185 8.27793 -9.0005
3819 21 129 -8.78213 10.8623 2.66625
3666 21 26 7.45146 -22.7648 -4.60894
3681 21 35 3.35393 -23.9214 6.64953
3665 21 25 -0.701317 -15.1358 -0.654365
3835 21 139 0.329985 -12.3478 0.75933
3821 21 131 -0.752825 -2.64013 9.99061
3799 21 115 2.06969 5.09365 2.26339
3791 21 109 2.0172 -0.660961 5.3545
3766 21 96 2.05482 0.32739 17.036
3809 21 121 0.610294 -1.17425 19.9078
3751 21 85 5.41175 9.02379 14.8963
3822 21 132 0.260288 11.2033 18.0413
3714 21 58 -0.906509 11.7749 15.3916
3785 21 105 12.7723 -19.5774 -5.47136
3811 21 123 15.7552 -16.9882 10.3876
3830 21 136 14.0165 -17.1324 16.3854
3747 21 81 16.0118 -20.0078 11.8667
3820 21 130 11.1378 -22.0057 12.1648
3792 21 110 15.014 -21.8466 20.4574
3719 21 63 14.7368 -13.8061 0.250874
3750 21 84 11.0655 -8.0267 -9.17897
3682 21 36 9.01383 -3.59844 0.696946
3696 21 46 7.97234 -1.8914 11.162
3752 21 86 10.5293 -2.45135 16.2266
3726 21 68 8.86162 -0.514548 -1.98821
3816 21 126 10.2062 5.80237 -9.18043
3702 21 50 10.0347 -1.07876 7.36287
3780 21 102 11.5025 6.09574 13.5099
3798 21 114 8.09762 -1.03689 14.3047
3654 21 16 15.0091 4.21281 15.37
3724 21 66 12.0953 6.70292 -4.57637
3823 21 133 10.5989 9.93986 12.251
ITEM: TIMESTEP
630000
ITEM: NUMBER OF ATOMS
49
ITEM: BOX BOUNDS pp pp pp
-1.8430887560582722e+01 1.6611867781657285e+01
-2.4337719887996439e+01 1.4110311645909032e+01
-9.3561234292674733e+00 2.0728782253804919e+01
ITEM: ATOMS id type mol x y z
3753 21 87 -17.605 -20.9218 -2.11914
3754 21 88 -18.0011 -19.8851 2.56302
3717 21 61 -14.6298 -21.8999 9.85948
3815 21 125 -11.84 -20.7995 11.7711
3660 21 20 -11.458 -12.726 17.028
3787 21 107 -12.4286 5.57962 18.6225
3834 21 138 -12.5391 6.51843 0.283439
3764 21 94 -18.3103 7.10763 17.1375
3641 21 11 -15.2722 11.3421 17.7117
3803 21 117 -3.92929 -17.8202 -8.39234
3664 21 24 -7.27368 -18.3779 -1.91044
3748 21 82 -4.95528 -20.7845 -1.65815
3810 21 122 -9.1917 -14.8948 15.5832
3781 21 103 -4.69816 -8.63882 7.12603
3671 21 29 -6.01951 1.58214 5.36625
3818 21 128 -9.01148 1.89332 6.22638
3760 21 92 -5.04179 -1.24915 15.6766
3693 21 43 -3.79861 8.22658 -8.94196
3666 21 26 7.44208 -22.6971 -4.5679
3681 21 35 3.34915 -23.8492 6.64569
3665 21 25 -0.70155 -15.0974 -0.629089
3835 21 139 0.328595 -12.3201 0.778971
3821 21 131 -0.753001 -2.64961 9.97345
3799 21 115 2.06635 5.05451 2.27704
3791 21 109 2.01391 -0.678034 5.35582
3766 21 96 2.0515 0.306528 16.9907
3809 21 121 0.60859 -1.18936 19.8511
3751 21 85 5.40466 8.96958 14.8596
3822 21 132 0.258977 11.1408 17.9921
3714 21 58 -0.906513 11.7102 15.3529
3785 21 105 12.7569 -19.522 -5.42689
3811 21 123 15.7366 -16.9426 10.3688
3830 21 136 13.9997 -17.0863 16.3427
3747 21 81 15.9929 -19.9507 11.8421
3820 21 130 11.1243 -21.9409 12.1389
3792 21 110 14.9961 -21.7825 20.3986
3719 21 63 14.7193 -13.7728 0.272541
3750 21 84 11.052 -8.01553 -9.11972
3682 21 36 9.00271 -3.60425 0.716835
3696 21 46 7.96238 -1.90376 11.1401
3752 21 86 10.5165 -2.46155 16.1846
3726 21 68 8.85067 -0.532182 -1.95761
3816 21 126 10.1938 5.76052 -9.12116
3702 21 50 10.0224 -1.09423 7.35619
3780 21 102 11.4886 6.05276 13.4787
3798 21 114 8.08753 -1.05253 14.2703
3654 21 16 14.9913 4.17705 15.3314
3724 21 66 12.0807 6.65761 -4.53546
3823 21 133 10.586 9.88214 12.2248
ITEM: TIMESTEP
635000
ITEM: NUMBER OF ATOMS
49
ITEM: BOX BOUNDS pp pp pp
-1.8457497869405682e+01 1.6638478090480245e+01
-2.4377652694903375e+01 1.4150244452815969e+01
-9.4864544016412360e+00 2.0859113226141400e+01
ITEM: ATOMS id type mol x y z
3753 21 87 -17.6304 -20.9546 -2.18677
3754 21 88 -18.0271 -19.9158 2.53596
3717 21 61 -14.6506 -21.9348 9.89563
3815 21 125 -11.8566 -20.832 11.8238
3660 21 20 -11.474 -12.7419 17.1263
3787 21 107 -12.4461 5.60183 18.7345
3834 21 138 -12.5567 6.5426 0.236627
3764 21 94 -18.3368 7.13302 17.2367
3641 21 11 -15.2941 11.3762 17.8159
3803 21 117 -3.93388 -17.8466 -8.51432
3664 21 24 -7.28334 -18.4055 -1.97626
3748 21 82 -4.96142 -20.817 -1.72179
3810 21 122 -9.20428 -14.9151 15.669
3781 21 103 -4.70392 -8.64614 7.1385
3839 21 141 -4.47836 -8.02294 2.86479
3671 21 29 -6.02727 1.59604 5.36348
3818 21 128 -9.02378 1.90787 6.23106
3760 21 92 -5.04807 -1.24113 15.7631
3693 21 43 -3.803 8.2543 -9.0687
3666 21 26 7.45477 -22.7337 -4.65674
3681 21 35 3.35562 -23.8882 6.654
3665 21 25 -0.701235 -15.1181 -0.683807
3835 21 139 0.330475 -12.3351 0.736453
3821 21 131 -0.752763 -2.64449 10.0106
3799 21 115 2.07087 5.07563 2.2475
3791 21 109 2.01835 -0.66882 5.35296
3766 21 96 2.05599 0.317787 17.0887
3809 21 121 0.610895 -1.18121 19.9739
3751 21 85 5.41425 8.99884 14.9391
3822 21 132 0.260752 11.1745 18.0987
3785 21 105 12.7777 -19.5519 -5.52317
3811 21 123 15.7618 -16.9672 10.4094
3830 21 136 14.0224 -17.1112 16.4351
3747 21 81 16.0185 -19.9816 11.8954
3820 21 130 11.1425 -21.9759 12.1948
3792 21 110 15.0203 -21.8171 20.526
3719 21 63 14.743 -13.7907 0.225635
3750 21 84 11.0702 -8.02156 -9.248
3682 21 36 9.01776 -3.60112 0.673778
3696 21 46 7.97585 -1.89709 11.1874
3752 21 86 10.5338 -2.45604 16.2755
3726 21 68 8.86549 -0.522665 -2.02384
3816 21 126 10.2106 5.7831 -9.24946
3702 21 50 10.039 -1.08588 7.37065
3780 21 102 11.5074 6.07596 13.5462
3798 21 114 8.10119 -1.04409 14.3447
3654 21 16 15.0154 4.19635 15.4149
3724 21 66 12.1005 6.68206 -4.62403
3823 21 133 10.6034 9.91329 12.2814
ITEM: TIMESTEP
640000
ITEM: NUMBER OF ATOMS
47
ITEM: BOX BOUNDS pp pp pp
-1.8383018382926263e+01 1.6563998604000826e+01
-2.4431388889660994e+01 1.4203980647573587e+01
-9.4395222031456285e+00 2.0812181027635202e+01
ITEM: ATOMS id type mol x y z
3753 21 87 -17.5594 -20.9988 -2.16242
3754 21 88 -17.9544 -19.9571 2.54571
3717 21 61 -14.5923 -21.9817 9.88261
3815 21 125 -11.8101 -20.8759 11.8048
3660 21 20 -11.4292 -12.7631 17.0909
3787 21 107 -12.3971 5.63172 18.6942
3834 21 138 -12.5073 6.57511 0.253484
3764 21 94 -18.2628 7.16718 17.201
3641 21 11 -15.233 11.4222 17.7784
3803 21 117 -3.92104 -17.8821 -8.4704
3664 21 24 -7.25629 -18.4425 -1.95256
3748 21 82 -4.94422 -20.8608 -1.69887
3810 21 122 -9.16907 -14.9425 15.6381
3781 21 103 -4.68781 -8.65599 7.13401
3839 21 141 -4.46321 -8.03105 2.87352
3671 21 29 -6.00554 1.61476 5.36448
3818 21 128 -8.98934 1.92746 6.22938
3760 21 92 -5.0305 -1.23032 15.732
3693 21 43 -3.79072 8.29158 -9.02306
3666 21 26 7.41927 -22.7828 -4.62475
3681 21 35 3.33751 -23.9405 6.65101
3665 21 25 -0.702118 -15.146 -0.664103
3835 21 139 0.325212 -12.3552 0.751763
3821 21 131 -0.753428 -2.6376 9.99722
3799 21 115 2.05822 5.10405 2.25814
3791 21 109 2.00593 -0.656421 5.35399
3766 21 96 2.04341 0.332938 17.0534
3809 21 121 0.604442 -1.17024 19.9297
3751 21 85 5.38741 9.0382 14.9105
3840 21 142 5.816 13.6108 19.3262
3822 21 132 0.255785 11.22 18.0603
3785 21 105 12.7196 -19.5922 -5.4885
3830 21 136 13.959 -17.1446 16.4018
3747 21 81 15.9467 -20.023 11.8762
3792 21 110 14.9527 -21.8637 20.4801
3719 21 63 14.6766 -13.8149 0.242526
3750 21 84 11.0194 -8.02967 -9.2018
3682 21 36 8.97563 -3.5969 0.689283
3696 21 46 7.93814 -1.88812 11.1704
3752 21 86 10.4853 -2.44863 16.2428
3726 21 68 8.824 -0.509859 -1.99999
3816 21 126 10.1634 5.8135 -9.20326
3702 21 50 9.99255 -1.07464 7.36544
3780 21 102 11.4547 6.10717 13.5219
3798 21 114 8.06295 -1.03274 14.3179
3654 21 16 14.9478 4.22232 15.3848
3724 21 66 12.0452 6.71497 -4.59214
ITEM: TIMESTEP
645000
ITEM: NUMBER OF ATOMS
48
ITEM: BOX BOUNDS pp pp pp
-1.8338344724689996e+01 1.6519324945764559e+01
-2.4527772320575743e+01 1.4300364078488336e+01
-9.4384514682453293e+00 2.0811110292717061e+01
ITEM: ATOMS id type mol x y z
3753 21 87 -17.5169 -21.078 -2.16186
3754 21 88 -17.9109 -20.0311 2.54593
3717 21 61 -14.5573 -22.0659 9.88232
3815 21 125 -11.7822 -20.9545 11.8044
3660 21 20 -11.4023 -12.8013 17.0901
3787 21 107 -12.3678 5.68533 18.6933
3834 21 138 -12.4776 6.63343 0.253868
3764 21 94 -18.2184 7.22846 17.2002
3641 21 11 -15.1964 11.5047 17.7775
3803 21 117 -3.91334 -17.9458 -8.4694
3664 21 24 -7.24006 -18.509 -1.95202
3748 21 82 -4.93391 -20.9394 -1.69835
3810 21 122 -9.14795 -14.9915 15.6374
3781 21 103 -4.67815 -8.67367 7.13391
3839 21 141 -4.45413 -8.04561 2.87372
3844 21 144 -6.48012 -2.30803 19.3999
3671 21 29 -5.99252 1.64833 5.3645
3818 21 128 -8.96868 1.96259 6.22934
3760 21 92 -5.01996 -1.21095 15.7313
3693 21 43 -3.78335 8.35847 -9.02202
3666 21 26 7.39797 -22.871 -4.62402
3681 21 35 3.32666 -24.0345 6.65094
3665 21 25 -0.702649 -15.1961 -0.663653
3835 21 139 0.322056 -12.3913 0.752113
3821 21 131 -0.753827 -2.62525 9.99691
3799 21 115 2.05063 5.15503 2.25838
3791 21 109 1.99847 -0.634182 5.35401
3766 21 96 2.03586 0.360113 17.0526
3809 21 121 0.600572 -1.15056 19.9287
3751 21 85 5.37131 9.10881 14.9098
3840 21 142 5.7988 13.7042 19.3252
3822 21 132 0.252805 11.3015 18.0594
3785 21 105 12.6848 -19.6644 -5.48771
3830 21 136 13.921 -17.2047 16.4011
3747 21 81 15.9036 -20.0974 11.8758
3792 21 110 14.9121 -21.9473 20.4791
3719 21 63 14.6367 -13.8584 0.242911
3750 21 84 10.9889 -8.04422 -9.20075
3682 21 36 8.95035 -3.58933 0.689637
3696 21 46 7.91552 -1.87202 11.17
3752 21 86 10.4561 -2.43533 16.242
3726 21 68 8.79912 -0.486888 -1.99945
3816 21 126 10.1351 5.86802 -9.2022
3702 21 50 9.96467 -1.05449 7.36533
3780 21 102 11.4231 6.16316 13.5214
3798 21 114 8.04001 -1.01238 14.3173
3654 21 16 14.9073 4.2689 15.3841
3724 21 66 12.0121 6.77399 -4.59141
ITEM: TIMESTEP
650000
ITEM: NUMBER OF ATOMS
48
ITEM: BOX BOUNDS pp pp pp
-1.8482571369452732e+01 1.6663551590527295e+01
-2.4399662394104155e+01 1.4172254152016748e+01
-9.2860093111767057e+00 2.0658668135653866e+01
ITEM: ATOMS id type mol x y z
3753 21 87 -17.6543 -20.9727 -2.08276
3754 21 88 -18.0516 -19.9327 2.57758
3717 21 61 -14.6703 -21.954 9.84002
3815 21 125 -11.8722 -20.85 11.7427
3660 21 20 -11.4891 -12.7506 16.9751
3787 21 107 -12.4626 5.61407 18.5622
3834 21 138 -12.5734 6.55591 0.308622
3764 21 94 -18.3617 7.14701 17.0841
3641 21 11 -15.3146 11.3951 17.6556
3803 21 117 -3.9382 -17.8612 -8.32672
3664 21 24 -7.29245 -18.4206 -1.87504
3748 21 82 -4.96721 -20.835 -1.62392
3810 21 122 -9.21613 -14.9263 15.5371
3781 21 103 -4.70934 -8.65018 7.11932
3839 21 141 -4.48346 -8.02626 2.90207
3844 21 144 -6.52621 -2.32654 19.2617
3671 21 29 -6.03458 1.60371 5.36774
3818 21 128 -9.03538 1.9159 6.22387
3760 21 92 -5.05398 -1.2367 15.63
3693 21 43 -3.80713 8.26957 -8.87377
3666 21 26 7.46672 -22.7538 -4.5201
3681 21 35 3.36171 -23.9096 6.64122
3665 21 25 -0.700937 -15.1295 -0.599652
3835 21 139 0.332247 -12.3433 0.801845
3821 21 131 -0.752539 -2.64167 9.95347
3799 21 115 2.07513 5.08727 2.29293
3791 21 109 2.02254 -0.663741 5.35736
3766 21 96 2.06023 0.323992 16.938
3809 21 121 0.613068 -1.17671 19.7851
3751 21 85 5.42329 9.01496 14.8169
3840 21 142 5.85431 13.58 19.1877
3822 21 132 0.262424 11.1931 17.9347
3785 21 105 12.7973 -19.5684 -5.37509
3830 21 136 14.0437 -17.1249 16.2931
3747 21 81 16.0427 -19.9985 11.8134
3792 21 110 15.043 -21.8362 20.33
3719 21 63 14.7654 -13.8007 0.297775
3750 21 84 11.0873 -8.02488 -9.0507
3682 21 36 9.03195 -3.59939 0.739998
3696 21 46 7.98855 -1.89342 11.1147
3752 21 86 10.5502 -2.45301 16.1356
3726 21 68 8.87946 -0.51742 -1.92199
3816 21 126 10.2265 5.79555 -9.05214
3702 21 50 10.0547 -1.08128 7.3484
3780 21 102 11.5251 6.08874 13.4424
3798 21 114 8.11407 -1.03944 14.2303
3654 21 16 15.0382 4.20699 15.2864
3724 21 66 12.1191 6.69554 -4.48782
ITEM: TIMESTEP
655000
ITEM: NUMBER OF ATOMS
47
ITEM: BOX BOUNDS pp pp pp
-1.8520167191015116e+01 1.6701147412089679e+01
-2.4485005121195677e+01 1.4257596879108270e+01
-9.3617075406381254e+00 2.0734366365086345e+01
ITEM: ATOMS id type mol x y z
3753 21 87 -17.6901 -21.0429 -2.12204
3754 21 88 -18.0882 -19.9983 2.56186
3717 21 61 -14.6997 -22.0286 9.86102
3815 21 125 -11.8957 -20.9196 11.7734
3660 21 20 -11.5117 -12.7844 17.0322
3787 21 107 -12.4873 5.66154 18.6273
3834 21 138 -12.5983 6.60755 0.281433
3764 21 94 -18.399 7.20127 17.1417
3641 21 11 -15.3454 11.4681 17.7162
3803 21 117 -3.94468 -17.9176 -8.39757
3664 21 24 -7.30611 -18.4795 -1.91326
3748 21 82 -4.97589 -20.9045 -1.66088
3810 21 122 -9.2339 -14.9698 15.5869
3781 21 103 -4.71747 -8.66583 7.12656
3839 21 141 -4.49111 -8.03915 2.88799
3671 21 29 -6.04554 1.63344 5.36613
3818 21 128 -9.05276 1.947 6.22658
3760 21 92 -5.06285 -1.21955 15.6803
3693 21 43 -3.81333 8.32879 -8.94739
3666 21 26 7.48464 -22.8318 -4.5717
3681 21 35 3.37085 -23.9928 6.64604
3665 21 25 -0.700491 -15.1738 -0.631433
3835 21 139 0.334904 -12.3753 0.777149
3821 21 131 -0.752203 -2.63073 9.97504
3799 21 115 2.08151 5.13241 2.27577
3791 21 109 2.02881 -0.64405 5.3557
3766 21 96 2.06659 0.348055 16.9949
3809 21 121 0.616325 -1.15929 19.8564
3751 21 85 5.43684 9.07748 14.863
3840 21 142 5.86878 13.6628 19.256
3822 21 132 0.264931 11.2653 17.9967
3785 21 105 12.8266 -19.6324 -5.43101
3830 21 136 14.0757 -17.178 16.3467
3747 21 81 16.079 -20.0644 11.8444
3792 21 110 15.0772 -21.9102 20.404
3719 21 63 14.7989 -13.8391 0.270531
3750 21 84 11.113 -8.03776 -9.12521
3682 21 36 9.05321 -3.59269 0.71499
3696 21 46 8.00759 -1.87917 11.1422
3752 21 86 10.5747 -2.44123 16.1885
3726 21 68 8.9004 -0.497081 -1.96045
3816 21 126 10.2503 5.84383 -9.12666
3702 21 50 10.0781 -1.06343 7.35681
3780 21 102 11.5517 6.13831 13.4816
3798 21 114 8.13337 -1.02141 14.2735
3654 21 16 15.0723 4.24824 15.3349
3724 21 66 12.1469 6.7478 -4.53926
ITEM: TIMESTEP
660000
ITEM: NUMBER OF ATOMS
45
ITEM: BOX BOUNDS pp pp pp
-1.8427025066269596e+01 1.6608005287344159e+01
-2.4266639537232521e+01 1.4039231295145115e+01
-9.3932403582729194e+00 2.0765899182698700e+01
ITEM: ATOMS id type mol x y z
3753 21 87 -17.6014 -20.8633 -2.1384
3754 21 88 -17.9974 -19.8305 2.55532
3717 21 61 -14.6268 -21.8379 9.86977
3815 21 125 -11.8376 -20.7415 11.7861
3660 21 20 -11.4557 -12.6979 17.056
3787 21 107 -12.4261 5.54008 18.6544
3834 21 138 -12.5365 6.47542 0.270107
3764 21 94 -18.3065 7.06245 17.1658
3641 21 11 -15.2691 11.2812 17.7414
3803 21 117 -3.92863 -17.7732 -8.42708
3664 21 24 -7.27228 -18.3289 -1.92919
3748 21 82 -4.95439 -20.7265 -1.67627
3810 21 122 -9.18987 -14.8586 15.6077
3781 21 103 -4.69733 -8.62578 7.12958
3839 21 141 -4.47216 -8.00617 2.88213
3671 21 29 -6.01838 1.55738 5.36546
3818 21 128 -9.00969 1.86741 6.22772
3760 21 92 -5.04088 -1.26344 15.7012
3693 21 43 -3.79797 8.17726 -8.97805
3666 21 26 7.44024 -22.6321 -4.5932
3681 21 35 3.34821 -23.78 6.64805
3665 21 25 -0.701596 -15.0604 -0.644672
3835 21 139 0.328322 -12.2934 0.766862
3799 21 115 2.06569 5.01691 2.26863
3791 21 109 2.01327 -0.694435 5.35501
3766 21 96 2.05084 0.286486 17.0186
3809 21 121 0.608255 -1.20387 19.8861
3751 21 85 5.40327 8.91751 14.8823
3840 21 142 5.83293 13.4511 19.2844
3822 21 132 0.258719 11.0807 18.0225
3785 21 105 12.7539 -19.4687 -5.45431
3747 21 81 15.9891 -19.8959 11.8573
3792 21 110 14.9926 -21.7208 20.4349
3719 21 63 14.7158 -13.7407 0.259183
3750 21 84 11.0494 -8.0048 -9.15625
3682 21 36 9.00052 -3.60983 0.704573
3696 21 46 7.96042 -1.91563 11.1536
3752 21 86 10.514 -2.47136 16.2105
3726 21 68 8.84852 -0.549122 -1.97648
3816 21 126 10.1913 5.72031 -9.1577
3702 21 50 10.02 -1.10909 7.36031
3780 21 102 11.4858 6.01147 13.4979
3798 21 114 8.08554 -1.06754 14.2915
3654 21 16 14.9878 4.1427 15.3552
3724 21 66 12.0779 6.61409 -4.56069
ITEM: TIMESTEP
665000
ITEM: NUMBER OF ATOMS
48
ITEM: BOX BOUNDS pp pp pp
-1.8283054329386790e+01 1.6464034550461353e+01
-2.4400354658681941e+01 1.4172946416594534e+01
-9.5613256470670507e+00 2.0933984471448888e+01
ITEM: ATOMS id type mol x y z
3753 21 87 -17.4642 -20.9733 -2.22562
3754 21 88 -17.8569 -19.9332 2.52042
3717 21 61 -14.514 -21.9546 9.9164
3815 21 125 -11.7478 -20.8506 11.8541
3660 21 20 -11.369 -12.7508 17.1827
3787 21 107 -12.3314 5.61446 18.7989
3834 21 138 -12.4409 6.55633 0.209735
3764 21 94 -18.1635 7.14745 17.2937
3641 21 11 -15.1511 11.3957 17.8757
3803 21 117 -3.90381 -17.8616 -8.5844
3664 21 24 -7.21998 -18.4211 -2.01408
3748 21 82 -4.92114 -20.8355 -1.75834
3810 21 122 -9.12182 -14.9267 15.7182
3781 21 103 -4.6662 -8.6503 7.14567
3839 21 141 -4.44288 -8.02637 2.85087
3846 21 146 -8.74523 -8.93621 20.0609
3671 21 29 -5.97639 1.60395 5.36188
3818 21 128 -8.94312 1.91615 6.23375
3760 21 92 -5.00692 -1.23656 15.8129
3693 21 43 -3.77423 8.27005 -9.14151
3666 21 26 7.37162 -22.7544 -4.70778
3681 21 35 3.31322 -23.9103 6.65877
3665 21 25 -0.703305 -15.1299 -0.715241
3835 21 139 0.318149 -12.3436 0.712027
3799 21 115 2.04124 5.08764 2.23053
3791 21 109 1.98925 -0.663582 5.35132
3766 21 96 2.02651 0.324187 17.1449
3809 21 121 0.595781 -1.17657 20.0444
3751 21 85 5.35139 9.01547 14.9848
3840 21 142 5.77752 13.5807 19.436
3822 21 132 0.249118 11.1937 18.16
3785 21 105 12.6416 -19.5689 -5.57849
3845 21 145 8.03324 -21.8557 13.2372
3747 21 81 15.8502 -19.9991 11.926
3792 21 110 14.8619 -21.8368 20.5993
3719 21 63 14.5874 -13.801 0.198689
3750 21 84 10.9511 -8.02499 -9.32169
3682 21 36 8.91907 -3.59933 0.649043
3696 21 46 7.88752 -1.8933 11.2145
3752 21 86 10.4201 -2.45291 16.3278
3726 21 68 8.76832 -0.517255 -2.06189
3816 21 126 10.1001 5.79595 -9.32316
3702 21 50 9.93018 -1.08113 7.37897
3780 21 102 11.384 6.08914 13.585
3798 21 114 8.01162 -1.03929 14.3874
3654 21 16 14.8571 4.20733 15.4629
3724 21 66 11.9711 6.69596 -4.67491
3844 21 144 16.4619 12.2977 18.1728
ITEM: TIMESTEP
670000
ITEM: NUMBER OF ATOMS
48
ITEM: BOX BOUNDS pp pp pp
-1.8535311068892899e+01 1.6716291289967462e+01
-2.4419259522780301e+01 1.4191851280692894e+01
-9.3590945793460527e+00 2.0731753403741681e+01
ITEM: ATOMS id type mol x y z
3753 21 87 -17.7045 -20.9888 -2.12069
3754 21 88 -18.103 -19.9478 2.56241
3717 21 61 -14.7116 -21.9711 9.8603
3815 21 125 -11.9051 -20.866 11.7723
3660 21 20 -11.5209 -12.7583 17.0302
3787 21 107 -12.4973 5.62497 18.625
3834 21 138 -12.6084 6.56777 0.282372
3764 21 94 -18.414 7.15947 17.1398
3641 21 11 -15.3578 11.4119 17.7141
3803 21 117 -3.94729 -17.8741 -8.39512
3664 21 24 -7.31161 -18.4342 -1.91195
3748 21 82 -4.97939 -20.8509 -1.6596
3810 21 122 -9.24106 -14.9363 15.5852
3781 21 103 -4.72074 -8.65377 7.12631
3839 21 141 -4.49419 -8.02922 2.88848
3846 21 146 -8.859 -8.93996 19.8703
3671 21 29 -6.04996 1.61054 5.36619
3818 21 128 -9.05976 1.92304 6.22649
3760 21 92 -5.06642 -1.23276 15.6786
3693 21 43 -3.81583 8.28317 -8.94485
3666 21 26 7.49186 -22.7717 -4.56992
3681 21 35 3.37453 -23.9287 6.64588
3665 21 25 -0.700311 -15.1397 -0.630336
3835 21 139 0.335974 -12.3506 0.778002
3799 21 115 2.08409 5.09764 2.27637
3791 21 109 2.03134 -0.65922 5.35576
3766 21 96 2.06914 0.329518 16.993
3809 21 121 0.617637 -1.17271 19.8539
3751 21 85 5.44229 9.02932 14.8614
3840 21 142 5.87461 13.599 19.2536
3822 21 132 0.265941 11.2097 17.9945
3785 21 105 12.8384 -19.5831 -5.42908
3845 21 145 8.16309 -21.8721 13.137
3747 21 81 16.0936 -20.0137 11.8433
3792 21 110 15.0909 -21.8532 20.4015
3719 21 63 14.8124 -13.8095 0.271472
3750 21 84 11.1233 -8.02784 -9.12264
3682 21 36 9.06178 -3.59785 0.715853
3696 21 46 8.01525 -1.89014 11.1412
3752 21 86 10.5846 -2.4503 16.1866
3726 21 68 8.90884 -0.512749 -1.95912
3816 21 126 10.2599 5.80664 -9.12409
3702 21 50 10.0876 -1.07718 7.35652
3780 21 102 11.5625 6.10013 13.4802
3798 21 114 8.14115 -1.0353 14.272
3654 21 16 15.086 4.21646 15.3333
3724 21 66 12.1582 6.70754 -4.53748
3844 21 144 16.7141 12.3147 18.0072
ITEM: TIMESTEP
675000
ITEM: NUMBER OF ATOMS
48
ITEM: BOX BOUNDS pp pp pp
-1.8489715546443904e+01 1.6670695767518467e+01
-2.4447129878750733e+01 1.4219721636663326e+01
-9.3671868606738187e+00 2.0739845685050362e+01
ITEM: ATOMS id type mol x y z
3753 21 87 -17.6611 -21.0117 -2.12488
3754 21 88 -18.0585 -19.9692 2.56073
3717 21 61 -14.6758 -21.9955 9.86254
3815 21 125 -11.8767 -20.8887 11.7756
3660 21 20 -11.4934 -12.7694 17.0363
3787 21 107 -12.4673 5.64048 18.632
3834 21 138 -12.5781 6.58464 0.279465
3764 21 94 -18.3688 7.17719 17.1459
3641 21 11 -15.3205 11.4357 17.7205
3803 21 117 -3.93943 -17.8925 -8.4027
3664 21 24 -7.29505 -18.4534 -1.91603
3748 21 82 -4.96886 -20.8736 -1.66355
3810 21 122 -9.21951 -14.9505 15.5905
3781 21 103 -4.71088 -8.65888 7.12709
3839 21 141 -4.48491 -8.03343 2.88697
3846 21 146 -8.83843 -8.94549 19.8779
3671 21 29 -6.03666 1.62024 5.36602
3818 21 128 -9.03868 1.9332 6.22678
3760 21 92 -5.05566 -1.22716 15.6839
3693 21 43 -3.80831 8.30251 -8.95272
3666 21 26 7.47013 -22.7972 -4.57544
3681 21 35 3.36345 -23.9559 6.64639
3665 21 25 -0.700852 -15.1542 -0.633734
3835 21 139 0.332752 -12.3611 0.775362
3799 21 115 2.07634 5.11238 2.27453
3791 21 109 2.02373 -0.652789 5.35558
3766 21 96 2.06144 0.337376 16.999
3809 21 121 0.613687 -1.16702 19.8615
3751 21 85 5.42586 9.04974 14.8664
3840 21 142 5.85706 13.626 19.2609
3822 21 132 0.2629 11.2333 18.0011
3785 21 105 12.8028 -19.604 -5.43506
3845 21 145 8.13962 -21.8963 13.141
3747 21 81 16.0496 -20.0352 11.8466
3792 21 110 15.0495 -21.8773 20.4094
3719 21 63 14.7717 -13.822 0.268559
3750 21 84 11.0922 -8.03205 -9.1306
3682 21 36 9.03599 -3.59566 0.71318
3696 21 46 7.99217 -1.88549 11.1441
3752 21 86 10.5548 -2.44646 16.1923
3726 21 68 8.88344 -0.506107 -1.96324
3816 21 126 10.231 5.8224 -9.13205
3702 21 50 10.0591 -1.07135 7.35741
3780 21 102 11.5302 6.11631 13.4844
3798 21 114 8.11773 -1.02941 14.2766
3654 21 16 15.0447 4.22993 15.3384
3724 21 66 12.1244 6.72461 -4.54298
3844 21 144 16.6685 12.3399 18.0138
ITEM: TIMESTEP
680000
ITEM: NUMBER OF ATOMS
48
ITEM: BOX BOUNDS pp pp pp
-1.8391710619049054e+01 1.6572690840123617e+01
-2.4250217402166172e+01 1.4022809160078765e+01
-9.5532428696955058e+00 2.0925901694024478e+01
ITEM: ATOMS id type mol x y z
3753 21 87 -17.5677 -20.8498 -2.22143
3754 21 88 -17.9629 -19.8179 2.52209
3717 21 61 -14.5991 -21.8235 9.91416
3815 21 125 -11.8155 -20.7281 11.8508
3660 21 20 -11.4344 -12.6914 17.1766
3787 21 107 -12.4029 5.53094 18.792
3834 21 138 -12.5131 6.46549 0.212638
3764 21 94 -18.2714 7.05201 17.2876
3641 21 11 -15.2401 11.2672 17.8693
3803 21 117 -3.92254 -17.7624 -8.57683
3664 21 24 -7.25945 -18.3175 -2.00999
3748 21 82 -4.94623 -20.7131 -1.75439
3810 21 122 -9.17318 -14.8503 15.7129
3781 21 103 -4.68969 -8.62277 7.1449
3839 21 141 -4.46498 -8.00369 2.85237
3846 21 146 -8.79423 -8.90646 20.0533
3671 21 29 -6.00808 1.55166 5.36206
3818 21 128 -8.99336 1.86142 6.23346
3760 21 92 -5.03255 -1.26674 15.8075
3693 21 43 -3.79215 8.16586 -9.13365
3666 21 26 7.42341 -22.6171 -4.70227
3681 21 35 3.33963 -23.764 6.65826
3665 21 25 -0.702015 -15.0519 -0.711847
3835 21 139 0.325827 -12.2873 0.714664
3799 21 115 2.0597 5.00823 2.23236
3791 21 109 2.00738 -0.698224 5.35149
3766 21 96 2.04488 0.281856 17.1389
3809 21 121 0.605195 -1.20722 20.0367
3751 21 85 5.39054 8.90548 14.9798
3840 21 142 5.81934 13.4352 19.4287
3822 21 132 0.256364 11.0668 18.1533
3785 21 105 12.7264 -19.4564 -5.57252
3845 21 145 8.08917 -21.7254 13.2332
3747 21 81 15.9551 -19.8832 11.9227
3792 21 110 14.9606 -21.7066 20.5914
3719 21 63 14.6843 -13.7333 0.201598
3750 21 84 11.0253 -8.00232 -9.31374
3682 21 36 8.98054 -3.61112 0.651714
3696 21 46 7.94254 -1.91837 11.2116
3752 21 86 10.4909 -2.47363 16.3221
3726 21 68 8.82884 -0.553036 -2.05778
3816 21 126 10.1689 5.71102 -9.3152
3702 21 50 9.99797 -1.11252 7.37807
3780 21 102 11.4608 6.00194 13.5808
3798 21 114 8.06741 -1.07101 14.3828
3654 21 16 14.9557 4.13477 15.4577
3724 21 66 12.0517 6.60403 -4.66941
3844 21 144 16.5705 12.1621 18.1662
ITEM: TIMESTEP
685000
ITEM: NUMBER OF ATOMS
48
ITEM: BOX BOUNDS pp pp pp
-1.8486041856561464e+01 1.6667022077636027e+01
-2.4545392547933734e+01 1.4317984305846327e+01
-9.3124400947668065e+00 2.0685098919116175e+01
ITEM: ATOMS id type mol x y z
3753 21 87 -17.6576 -21.0925 -2.09648
3754 21 88 -18.0549 -20.0447 2.57209
3717 21 61 -14.673 -22.0813 9.84736
3815 21 125 -11.8744 -20.9689 11.7534
3660 21 20 -11.4912 -12.8083 16.9951
3787 21 107 -12.4649 5.69513 18.5849
3834 21 138 -12.5757 6.64409 0.299129
3847 21 147 -9.73735 7.74029 2.24703
3764 21 94 -18.3651 7.23966 17.1042
3641 21 11 -15.3175 11.5198 17.6768
3803 21 117 -3.9388 -17.9575 -8.35146
3664 21 24 -7.29371 -18.5212 -1.88838
3748 21 82 -4.96801 -20.9537 -1.63682
3810 21 122 -9.21777 -15.0005 15.5545
3781 21 103 -4.71009 -8.6769 7.12185
3839 21 141 -4.48417 -8.04827 2.89715
3846 21 146 -8.83678 -8.96496 19.8263
3671 21 29 -6.03559 1.65447 5.36718
3818 21 128 -9.03698 1.96901 6.22481
3760 21 92 -5.0548 -1.20741 15.6476
3693 21 43 -3.8077 8.3707 -8.89948
3666 21 26 7.46837 -22.8871 -4.53812
3681 21 35 3.36255 -24.0516 6.6429
3835 21 139 0.332492 -12.3979 0.793222
3799 21 115 2.07572 5.16435 2.28694
3791 21 109 2.02312 -0.630116 5.35678
3766 21 96 2.06082 0.365081 16.9579
3809 21 121 0.613369 -1.14696 19.81
3751 21 85 5.42454 9.12172 14.833
3840 21 142 5.85565 13.7213 19.2116
3822 21 132 0.262655 11.3164 17.9564
3785 21 105 12.8 -19.6776 -5.39461
3845 21 145 8.13773 -21.9816 13.1139
3747 21 81 16.0461 -20.111 11.8242
3792 21 110 15.0462 -21.9625 20.3558
3719 21 63 14.7684 -13.8663 0.288263
3750 21 84 11.0897 -8.04688 -9.07672
3682 21 36 9.03391 -3.58795 0.731266
3696 21 46 7.99031 -1.86908 11.1243
3752 21 86 10.5525 -2.4329 16.1541
3726 21 68 8.88139 -0.482689 -1.93542
3816 21 126 10.2287 5.87799 -9.07816
3702 21 50 10.0568 -1.05081 7.35134
3780 21 102 11.5276 6.17339 13.4561
3798 21 114 8.11585 -1.00865 14.2454
3654 21 16 15.0413 4.27742 15.3033
3724 21 66 12.1216 6.78477 -4.50578
3844 21 144 16.6648 12.4286 17.969
ITEM: TIMESTEP
690000
ITEM: NUMBER OF ATOMS
46
ITEM: BOX BOUNDS pp pp pp
-1.8607602876765103e+01 1.6788583097839666e+01
-2.4407736008031591e+01 1.4180327765944185e+01
-9.3121798632777590e+00 2.0684838687609318e+01
ITEM: ATOMS id type mol x y z
3753 21 87 -17.7734 -20.9793 -2.09634
3754 21 88 -18.1735 -19.9389 2.57215
3815 21 125 -11.9502 -20.8566 11.7533
3660 21 20 -11.5644 -12.7538 16.9949
3787 21 107 -12.5448 5.61856 18.5847
3834 21 138 -12.6564 6.5608 0.299222
3847 21 147 -9.7984 7.64923 2.24709
3764 21 94 -18.4858 7.15214 17.104
3641 21 11 -15.4171 11.402 17.6766
3803 21 117 -3.95975 -17.8665 -8.35121
3664 21 24 -7.33787 -18.4262 -1.88825
3748 21 82 -4.99608 -20.8415 -1.6367
3810 21 122 -9.27523 -14.9304 15.5543
3781 21 103 -4.73637 -8.65166 7.12182
3839 21 141 -4.50889 -8.02748 2.8972
3846 21 146 -8.8916 -8.93768 19.8261
3671 21 29 -6.07104 1.60652 5.36719
3818 21 128 -9.09319 1.91884 6.2248
3760 21 92 -5.08347 -1.23508 15.6474
3693 21 43 -3.82775 8.27517 -8.89922
3666 21 26 7.52632 -22.7612 -4.53794
3681 21 35 3.3921 -23.9175 6.64288
3835 21 139 0.341082 -12.3463 0.793307
3799 21 115 2.09636 5.09154 2.287
3791 21 109 2.0434 -0.661879 5.35679
3766 21 96 2.08136 0.326269 16.9577
3809 21 121 0.623901 -1.17507 19.8097
3751 21 85 5.46835 9.02088 14.8328
3840 21 142 5.90244 13.5879 19.2113
3822 21 132 0.270762 11.2 17.9561
3785 21 105 12.8948 -19.5745 -5.39442
3845 21 145 8.2003 -21.8621 13.1138
3747 21 81 16.1633 -20.0048 11.8241
3792 21 110 15.1565 -21.8432 20.3556
3750 21 84 11.1727 -8.0261 -9.07646
3682 21 36 9.10268 -3.59876 0.731352
3696 21 46 8.05186 -1.89207 11.1242
3752 21 86 10.6317 -2.45189 16.1539
3726 21 68 8.94911 -0.515496 -1.93528
3816 21 126 10.3057 5.80012 -9.07791
3702 21 50 10.1327 -1.07959 7.35131
3780 21 102 11.6136 6.09343 13.4559
3798 21 114 8.17827 -1.03773 14.2453
3654 21 16 15.1516 4.21089 15.3032
3724 21 66 12.2118 6.70048 -4.5056
3844 21 144 16.7864 12.3043 17.9688
ITEM: TIMESTEP
695000
ITEM: NUMBER OF ATOMS
45
ITEM: BOX BOUNDS pp pp pp
-1.8371622220234109e+01 1.6552602441308672e+01
-2.4498690753701666e+01 1.4271282511614260e+01
-9.3564504642986641e+00 2.0729109288605486e+01
ITEM: ATOMS id type mol x y z
3753 21 87 -17.5486 -21.0541 -2.11931
3754 21 88 -17.9433 -20.0088 2.56295
3815 21 125 -11.803 -20.9308 11.7712
3660 21 20 -11.4223 -12.7898 17.0283
3787 21 107 -12.3896 5.66916 18.6227
3834 21 138 -12.4997 6.61583 0.283321
3847 21 147 -9.67988 7.7094 2.23694
3764 21 94 -18.2515 7.20997 17.1377
3641 21 11 -15.2237 11.4799 17.712
3803 21 117 -3.91908 -17.9266 -8.39265
3664 21 24 -7.25215 -18.489 -1.91061
3748 21 82 -4.94159 -20.9157 -1.65831
3810 21 122 -9.16368 -14.9767 15.5835
3781 21 103 -4.68535 -8.66833 7.12606
3839 21 141 -4.4609 -8.04122 2.88897
3846 21 146 -8.78517 -8.9557 19.8678
3671 21 29 -6.00222 1.6382 5.36624
3818 21 128 -8.98407 1.95199 6.22639
3760 21 92 -5.02781 -1.21679 15.6768
3693 21 43 -3.78884 8.33829 -8.94228
3666 21 26 7.41384 -22.8444 -4.56812
3681 21 35 3.33474 -24.0061 6.64571
3835 21 139 0.324407 -12.3804 0.778864
3799 21 115 2.05628 5.13965 2.27697
3791 21 109 2.00403 -0.640892 5.35582
3766 21 96 2.04148 0.351913 16.991
3809 21 121 0.603455 -1.1565 19.8514
3751 21 85 5.38331 9.08751 14.8598
3840 21 142 5.81161 13.676 19.2512
3822 21 132 0.255025 11.2769 17.9924
3845 21 145 8.07883 -21.9411 13.1357
3747 21 81 15.9357 -20.075 11.8422
3792 21 110 14.9423 -21.922 20.3989
3750 21 84 11.0116 -8.03983 -9.12004
3682 21 36 8.96918 -3.59161 0.716727
3696 21 46 7.93237 -1.87688 11.1402
3752 21 86 10.4778 -2.43935 16.1848
3726 21 68 8.81765 -0.493819 -1.95778
3816 21 126 10.1562 5.85157 -9.12148
3702 21 50 9.98544 -1.06057 7.35622
3780 21 102 11.4466 6.14626 13.4789
3798 21 114 8.05709 -1.01852 14.2705
3654 21 16 14.9375 4.25485 15.3316
3724 21 66 12.0368 6.75618 -4.53569
3844 21 144 16.5504 12.3864 18.005
ITEM: TIMESTEP
700000
ITEM: NUMBER OF ATOMS
46
ITEM: BOX BOUNDS pp pp pp
-1.8460964550333447e+01 1.6641944771408010e+01
-2.4280717112180223e+01 1.4053308870092817e+01
-9.3740966033074642e+00 2.0746755427593762e+01
ITEM: ATOMS id type mol x y z
3753 21 87 -17.6337 -20.8749 -2.12847
3754 21 88 -18.0305 -19.8413 2.55929
3815 21 125 -11.8587 -20.7529 11.7784
3660 21 20 -11.4761 -12.7035 17.0416
3787 21 107 -12.4484 5.54791 18.6379
3834 21 138 -12.559 6.48394 0.276983
3847 21 147 -9.72475 7.56521 2.2329
3764 21 94 -18.3402 7.07139 17.1512
3641 21 11 -15.2969 11.2933 17.7261
3848 21 148 -2.31165 -17.8321 0.0772973
3803 21 117 -3.93448 -17.7825 -8.40916
3664 21 24 -7.2846 -18.3386 -1.91952
3748 21 82 -4.96222 -20.738 -1.66693
3810 21 122 -9.20592 -14.8658 15.5951
3781 21 103 -4.70467 -8.62836 7.12775
3839 21 141 -4.47907 -8.0083 2.88569
3846 21 146 -8.82547 -8.9125 19.8844
3671 21 29 -6.02828 1.56228 5.36587
3818 21 128 -9.02538 1.87254 6.22703
3760 21 92 -5.04888 -1.26061 15.6885
3693 21 43 -3.80357 8.18703 -8.95944
3666 21 26 7.45642 -22.645 -4.58015
3681 21 35 3.35646 -23.7937 6.64683
3835 21 139 0.33072 -12.2987 0.773107
3799 21 115 2.07146 5.02436 2.27297
3791 21 109 2.01893 -0.691186 5.35543
3766 21 96 2.05658 0.290456 17.0042
3809 21 121 0.611196 -1.20099 19.8681
3751 21 85 5.4155 8.92782 14.8706
3840 21 142 5.846 13.4647 19.2672
3822 21 132 0.260983 11.0926 18.0068
3845 21 145 8.12482 -21.7518 13.1444
3747 21 81 16.0219 -19.9067 11.8494
3792 21 110 15.0234 -21.733 20.4161
3750 21 84 11.0726 -8.00693 -9.13741
3682 21 36 9.01972 -3.60873 0.710897
3696 21 46 7.97761 -1.91328 11.1466
3752 21 86 10.5361 -2.46942 16.1971
3726 21 68 8.86742 -0.545767 -1.96675
3816 21 126 10.2128 5.72827 -9.13886
3702 21 50 10.0412 -1.10615 7.35818
3780 21 102 11.5098 6.01965 13.488
3798 21 114 8.10297 -1.06457 14.2806
3654 21 16 15.0186 4.14951 15.3429
3724 21 66 12.103 6.62271 -4.54768
3844 21 144 16.6398 12.1897 18.0195
ITEM: TIMESTEP
705000
ITEM: NUMBER OF ATOMS
47
ITEM: BOX BOUNDS pp pp pp
-1.8448260397292447e+01 1.6629240618367010e+01
-2.4575095622419443e+01 1.4347687380332037e+01
-9.3346151049794059e+00 2.0707273929254274e+01
ITEM: ATOMS id type mol x y z
3753 21 87 -17.6216 -21.1169 -2.10798
3754 21 88 -18.0181 -20.0675 2.56749
3815 21 125 -11.8508 -20.9931 11.7624
3660 21 20 -11.4684 -12.82 17.0118
3787 21 107 -12.44 5.71166 18.604
3834 21 138 -12.5506 6.66207 0.291164
3847 21 147 -9.71837 7.75994 2.24195
3764 21 94 -18.3276 7.25854 17.1211
3641 21 11 -15.2865 11.5453 17.6945
3848 21 148 -2.31063 -18.0274 0.0920016
3803 21 117 -3.93229 -17.9771 -8.37221
3664 21 24 -7.27999 -18.5417 -1.89958
3748 21 82 -4.95929 -20.978 -1.64765
3810 21 122 -9.19991 -15.0156 15.5691
3781 21 103 -4.70192 -8.68234 7.12397
3839 21 141 -4.47648 -8.05276 2.89303
3846 21 146 -8.81974 -8.97085 19.8472
3671 21 29 -6.02457 1.66482 5.36671
3818 21 128 -9.01951 1.97984 6.22561
3760 21 92 -5.04589 -1.20144 15.6623
3693 21 43 -3.80147 8.39131 -8.92104
3666 21 26 7.45037 -22.9143 -4.55323
3681 21 35 3.35337 -24.0806 6.64432
3849 21 149 2.20419 -9.22286 -4.74664
3835 21 139 0.329823 -12.4091 0.785988
3799 21 115 2.0693 5.18006 2.28191
3791 21 109 2.01681 -0.623263 5.3563
3766 21 96 2.05443 0.373456 16.9746
3809 21 121 0.610095 -1.1409 19.8309
3751 21 85 5.41092 9.14348 14.8465
3840 21 142 5.84111 13.7501 19.2316
3822 21 132 0.260136 11.3415 17.9745
3845 21 145 8.11828 -22.0074 13.1249
3747 21 81 16.0096 -20.1339 11.8333
3792 21 110 15.0119 -21.9883 20.3775
3750 21 84 11.0639 -8.05136 -9.09854
3682 21 36 9.01254 -3.58561 0.723941
3696 21 46 7.97118 -1.86412 11.1323
3752 21 86 10.5278 -2.42881 16.1696
3726 21 68 8.86035 -0.47561 -1.94669
3816 21 126 10.2048 5.89479 -9.09999
3702 21 50 10.0333 -1.0446 7.3538
3780 21 102 11.5009 6.19064 13.4676
3798 21 114 8.09645 -1.00238 14.2581
3654 21 16 15.007 4.29178 15.3176
3724 21 66 12.0936 6.80296 -4.52085
3844 21 144 16.6271 12.4554 17.9872
ITEM: TIMESTEP
710000
ITEM: NUMBER OF ATOMS
47
ITEM: BOX BOUNDS pp pp pp
-1.8435403258119958e+01 1.6616383479194521e+01
-2.4464614518863375e+01 1.4237206276775968e+01
-9.4109006014009040e+00 2.0783559425645436e+01
ITEM: ATOMS id type mol x y z
3753 21 87 -17.6093 -21.0261 -2.14757
3754 21 88 -18.0055 -19.9826 2.55165
3815 21 125 -11.8428 -20.903 11.7933
3660 21 20 -11.4607 -12.7763 17.0693
3787 21 107 -12.4316 5.6502 18.6696
3834 21 138 -12.5421 6.59522 0.263764
3847 21 147 -9.71191 7.68685 2.22446
3764 21 94 -18.3148 7.1883 17.1792
3641 21 11 -15.2759 11.4507 17.7555
3848 21 148 -2.3096 -17.9541 0.0635902
3803 21 117 -3.93007 -17.9041 -8.44361
3664 21 24 -7.27532 -18.4655 -1.93811
3748 21 82 -4.95632 -20.8879 -1.6849
3810 21 122 -9.19383 -14.9594 15.6193
3781 21 103 -4.69914 -8.66209 7.13127
3839 21 141 -4.47387 -8.03607 2.87884
3846 21 146 -8.81394 -8.94895 19.9191
3671 21 29 -6.02082 1.62633 5.36509
3818 21 128 -9.01357 1.93957 6.22835
3760 21 92 -5.04285 -1.22364 15.713
3693 21 43 -3.79935 8.31464 -8.99523
3666 21 26 7.44424 -22.8132 -4.60524
3681 21 35 3.35025 -23.9729 6.64918
3849 21 149 2.20191 -9.19953 -4.79962
3835 21 139 0.328914 -12.3676 0.761101
3799 21 115 2.06712 5.12163 2.26462
3791 21 109 2.01467 -0.648755 5.35462
3766 21 96 2.05226 0.342306 17.0319
3809 21 121 0.608981 -1.16345 19.9027
3751 21 85 5.40629 9.06254 14.893
3840 21 142 5.83616 13.643 19.3003
3822 21 132 0.259278 11.2481 18.0369
3845 21 145 8.11166 -21.9115 13.1627
3747 21 81 15.9972 -20.0487 11.8645
3792 21 110 15.0002 -21.8925 20.4521
3750 21 84 11.0551 -8.03469 -9.17363
3682 21 36 9.00526 -3.59429 0.698739
3696 21 46 7.96467 -1.88257 11.16
3752 21 86 10.5194 -2.44405 16.2228
3726 21 68 8.85318 -0.50194 -1.98545
3816 21 126 10.1966 5.8323 -9.17508
3702 21 50 10.0252 -1.0677 7.36227
3780 21 102 11.4918 6.12647 13.5071
3798 21 114 8.08985 -1.02572 14.3016
3654 21 16 14.9954 4.23838 15.3665
3724 21 66 12.0841 6.73531 -4.57269
3844 21 144 16.6142 12.3557 18.0496
ITEM: TIMESTEP
715000
ITEM: NUMBER OF ATOMS
47
ITEM: BOX BOUNDS pp pp pp
-1.8574253445507580e+01 1.6755233666582143e+01
-2.4286131067508798e+01 1.4058722825421391e+01
-9.4656130826011839e+00 2.0838271906818814e+01
ITEM: ATOMS id type mol x y z
3753 21 87 -17.7416 -20.8793 -2.17596
3815 21 125 -11.9294 -20.7574 11.8154
3660 21 20 -11.5443 -12.7056 17.1106
3787 21 107 -12.5229 5.55092 18.7166
3834 21 138 -12.6342 6.48722 0.244113
3847 21 147 -9.78165 7.56879 2.21191
3764 21 94 -18.4527 7.07484 17.2208
3641 21 11 -15.3898 11.2979 17.7992
3848 21 148 -2.3207 -17.8357 0.0432133
3803 21 117 -3.954 -17.7861 -8.49482
3664 21 24 -7.32575 -18.3423 -1.96574
3748 21 82 -4.98838 -20.7424 -1.71161
3810 21 122 -9.25947 -14.8686 15.6553
3781 21 103 -4.72916 -8.62936 7.13651
3839 21 141 -4.50211 -8.00912 2.86867
3846 21 146 -8.87656 -8.91358 19.9707
3671 21 29 -6.06132 1.56417 5.36392
3818 21 128 -9.07777 1.87451 6.23031
3760 21 92 -5.0756 -1.25952 15.7493
3693 21 43 -3.82225 8.19078 -9.04843
3850 21 150 -8.82296 10.3156 1.38154
3666 21 26 7.51042 -22.6499 -4.64253
3681 21 35 3.38399 -23.799 6.65267
3849 21 149 2.22656 -9.16184 -4.83763
3835 21 139 0.338726 -12.3007 0.743252
3799 21 115 2.0907 5.02722 2.25222
3791 21 109 2.03783 -0.689937 5.35342
3766 21 96 2.07573 0.291982 17.073
3809 21 121 0.621011 -1.19989 19.9542
3751 21 85 5.45633 8.93179 14.9264
3840 21 142 5.8896 13.47 19.3497
3822 21 132 0.268538 11.0972 18.0817
3845 21 145 8.18313 -21.7565 13.1898
3747 21 81 16.1312 -19.9109 11.8869
3792 21 110 15.1263 -21.7377 20.5056
3750 21 84 11.1499 -8.00775 -9.22748
3682 21 36 9.08381 -3.6083 0.680664
3696 21 46 8.03497 -1.91237 11.1798
3752 21 86 10.61 -2.46867 16.261
3726 21 68 8.93053 -0.544477 -2.01325
3816 21 126 10.2846 5.73133 -9.22894
3702 21 50 10.1119 -1.10502 7.36834
3780 21 102 11.59 6.0228 13.5354
3798 21 114 8.16114 -1.06342 14.3328
3654 21 16 15.1214 4.15212 15.4016
3724 21 66 12.187 6.62602 -4.60987
3844 21 144 16.753 12.1945 18.0944
ITEM: TIMESTEP
720000
ITEM: NUMBER OF ATOMS
46
ITEM: BOX BOUNDS pp pp pp
-1.8391037858190980e+01 1.6572018079265543e+01
-2.4428113824151797e+01 1.4200705582064391e+01
-9.3883850472090522e+00 2.0761043871422022e+01
ITEM: ATOMS id type mol x y z
3753 21 87 -17.5671 -20.9961 -2.13588
3815 21 125 -11.8151 -20.8732 11.7842
3660 21 20 -11.434 -12.7618 17.0523
3834 21 138 -12.5126 6.57313 0.271851
3847 21 147 -9.68963 7.66271 2.22962
3764 21 94 -18.2708 7.1651 17.1621
3641 21 11 -15.2396 11.4194 17.7375
3848 21 148 -2.30606 -17.9299 0.0719758
3803 21 117 -3.92242 -17.88 -8.42254
3664 21 24 -7.2592 -18.4403 -1.92674
3748 21 82 -4.94608 -20.8581 -1.6739
3810 21 122 -9.17286 -14.9408 15.6045
3781 21 103 -4.68955 -8.65539 7.12912
3839 21 141 -4.46484 -8.03056 2.88303
3846 21 146 -8.79393 -8.94172 19.8979
3671 21 29 -6.00788 1.61362 5.36556
3818 21 128 -8.99305 1.92627 6.22754
3760 21 92 -5.03239 -1.23098 15.698
3693 21 43 -3.79204 8.28931 -8.97333
3850 21 150 -8.74088 10.4299 1.40348
3666 21 26 7.42309 -22.7798 -4.58989
3681 21 35 3.33946 -23.9373 6.64774
3849 21 149 2.19403 -9.19182 -4.78399
3835 21 139 0.325779 -12.354 0.768446
3799 21 115 2.05958 5.10232 2.26973
3791 21 109 2.00727 -0.657177 5.35512
3766 21 96 2.04476 0.332014 17.015
3809 21 121 0.605137 -1.17091 19.8815
3751 21 85 5.3903 9.0358 14.8793
3840 21 142 5.81908 13.6076 19.28
3822 21 132 0.256319 11.2172 18.0185
3845 21 145 8.08882 -21.8798 13.1515
3747 21 81 15.9544 -20.0205 11.8553
3792 21 110 14.9599 -21.8609 20.4301
3750 21 84 11.0248 -8.02918 -9.15147
3682 21 36 8.98016 -3.59716 0.706177
3696 21 46 7.9422 -1.88866 11.1518
3752 21 86 10.4905 -2.44908 16.2071
3726 21 68 8.82847 -0.510639 -1.97401
3816 21 126 10.1685 5.81165 -9.15292
3702 21 50 9.99755 -1.07533 7.35977
3780 21 102 11.4604 6.10527 13.4954
3798 21 114 8.06706 -1.03343 14.2887
3654 21 16 14.9551 4.22074 15.352
3724 21 66 12.0512 6.71296 -4.55739
3844 21 144 16.5698 12.3227 18.0312
ITEM: TIMESTEP
725000
ITEM: NUMBER OF ATOMS
47
ITEM: BOX BOUNDS pp pp pp
-1.8520573627513588e+01 1.6701553848588151e+01
-2.4282091956431479e+01 1.4054683714344073e+01
-9.4571502902017386e+00 2.0829809114385238e+01
ITEM: ATOMS id type mol x y z
3753 21 87 -17.6905 -20.876 -2.17157
3815 21 125 -11.8959 -20.7541 11.812
3660 21 20 -11.512 -12.704 17.1042
3851 21 151 -10.9077 1.40928 -3.26373
3834 21 138 -12.5986 6.48477 0.247152
3847 21 147 -9.75469 7.56612 2.21385
3764 21 94 -18.3994 7.07227 17.2144
3641 21 11 -15.3458 11.2944 17.7925
3848 21 148 -2.31641 -17.833 0.0463652
3803 21 117 -3.94475 -17.7834 -8.4869
3664 21 24 -7.30625 -18.3395 -1.96147
3748 21 82 -4.97599 -20.7391 -1.70748
3810 21 122 -9.23409 -14.8665 15.6497
3781 21 103 -4.71756 -8.62862 7.1357
3839 21 141 -4.49119 -8.00851 2.87024
3846 21 146 -8.85235 -8.91278 19.9627
3671 21 29 -6.04566 1.56276 5.3641
3818 21 128 -9.05295 1.87304 6.23001
3760 21 92 -5.06294 -1.26034 15.7437
3693 21 43 -3.8134 8.18798 -9.0402
3850 21 150 -8.79891 10.3124 1.38395
3666 21 26 7.48483 -22.6463 -4.63676
3681 21 35 3.37095 -23.795 6.65213
3849 21 149 2.21703 -9.16099 -4.83175
3835 21 139 0.334932 -12.2992 0.746013
3799 21 115 2.08158 5.02508 2.25414
3791 21 109 2.02888 -0.690869 5.3536
3766 21 96 2.06665 0.290843 17.0667
3809 21 121 0.616361 -1.20071 19.9463
3751 21 85 5.43698 8.92883 14.9212
3840 21 142 5.86894 13.4661 19.3421
3822 21 132 0.264958 11.0937 18.0747
3845 21 145 8.1555 -21.753 13.1856
3747 21 81 16.0794 -19.9078 11.8834
3792 21 110 15.0775 -21.7342 20.4974
3750 21 84 11.1133 -8.00714 -9.21915
3682 21 36 9.05344 -3.60862 0.683459
3696 21 46 8.00779 -1.91305 11.1768
3752 21 86 10.575 -2.46923 16.2551
3726 21 68 8.90063 -0.54544 -2.00895
3816 21 126 10.2506 5.72905 -9.22061
3702 21 50 10.0784 -1.10586 7.3674
3780 21 102 11.552 6.02045 13.531
3798 21 114 8.13358 -1.06428 14.328
3654 21 16 15.0727 4.15017 15.3961
3724 21 66 12.1472 6.62355 -4.60411
3844 21 144 16.6994 12.1909 18.0875
ITEM: TIMESTEP
730000
ITEM: NUMBER OF ATOMS
47
ITEM: BOX BOUNDS pp pp pp
-1.8636409280590065e+01 1.6817389501664628e+01
-2.4460218981009575e+01 1.4232810738922169e+01
-9.2258429446724755e+00 2.0598501768877735e+01
ITEM: ATOMS id type mol x y z
3753 21 87 -17.8009 -21.0225 -2.05154
3815 21 125 -11.9682 -20.8994 11.7184
3660 21 20 -11.5817 -12.7745 16.9298
3851 21 151 -10.9734 1.4699 -3.12703
3834 21 138 -12.6755 6.59256 0.330232
3847 21 147 -9.81287 7.68395 2.26689
3764 21 94 -18.5144 7.18551 17.0383
3641 21 11 -15.4407 11.4469 17.6075
3848 21 148 -2.32566 -17.9512 0.132512
3803 21 117 -3.96471 -17.9012 -8.27041
3664 21 24 -7.34833 -18.4624 -1.84465
3748 21 82 -5.00273 -20.8843 -1.59454
3810 21 122 -9.28885 -14.9571 15.4975
3781 21 103 -4.7426 -8.66128 7.11356
3839 21 141 -4.51475 -8.03541 2.91326
3846 21 146 -8.9046 -8.94808 19.7447
3671 21 29 -6.07944 1.6248 5.36902
3818 21 128 -9.10651 1.93797 6.22171
3760 21 92 -5.09026 -1.22453 15.5901
3693 21 43 -3.8325 8.31159 -8.81526
3850 21 150 -8.8508 10.4557 1.44966
3666 21 26 7.54005 -22.8092 -4.47909
3681 21 35 3.3991 -23.9686 6.63738
3849 21 149 2.23759 -9.1986 -4.67109
3835 21 139 0.343118 -12.366 0.821473
3799 21 115 2.10126 5.1193 2.30657
3791 21 109 2.04821 -0.649769 5.35869
3766 21 96 2.08623 0.341066 16.8928
3809 21 121 0.626397 -1.16435 19.7284
3751 21 85 5.47873 9.05932 14.7802
3840 21 142 5.91353 13.6387 19.1335
3822 21 132 0.272683 11.2443 17.8855
3845 21 145 8.21513 -21.9077 13.071
3747 21 81 16.1911 -20.0453 11.7888
3792 21 110 15.1827 -21.8887 20.2711
3750 21 84 11.1923 -8.03402 -8.99148
3682 21 36 9.11898 -3.59463 0.759875
3696 21 46 8.06644 -1.8833 11.0929
3752 21 86 10.6505 -2.44465 16.0936
3726 21 68 8.96515 -0.502988 -1.89141
3816 21 126 10.324 5.82981 -8.99292
3702 21 50 10.1506 -1.06862 7.34172
3780 21 102 11.634 6.12392 13.4112
3798 21 114 8.19306 -1.02665 14.196
3654 21 16 15.1778 4.23626 15.2478
3724 21 66 12.2331 6.73262 -4.44693
3844 21 144 16.8152 12.3517 17.8981
ITEM: TIMESTEP
735000
ITEM: NUMBER OF ATOMS
47
ITEM: BOX BOUNDS pp pp pp
-1.8471893809496844e+01 1.6652874030571407e+01
-2.4346132723259650e+01 1.4118724481172244e+01
-9.4630205674520234e+00 2.0835679391598863e+01
ITEM: ATOMS id type mol x y z
3753 21 87 -17.6441 -20.9287 -2.17461
3815 21 125 -11.8656 -20.8063 11.8143
3660 21 20 -11.4827 -12.7294 17.1086
3851 21 151 -10.88 1.43108 -3.2672
3834 21 138 -12.5663 6.52352 0.245044
3847 21 147 -9.73024 7.60848 2.21251
3764 21 94 -18.3511 7.11298 17.2189
3641 21 11 -15.3059 11.3493 17.7972
3848 21 148 -2.31252 -17.8755 0.0441789
3803 21 117 -3.93636 -17.8258 -8.49239
3664 21 24 -7.28857 -18.3837 -1.96443
3748 21 82 -4.96475 -20.7913 -1.71034
3810 21 122 -9.21108 -14.8991 15.6536
3781 21 103 -4.70703 -8.64036 7.13626
3839 21 141 -4.48129 -8.01818 2.86915
3846 21 146 -8.8304 -8.92547 19.9683
3671 21 29 -6.03146 1.58507 5.36398
3818 21 128 -9.03044 1.89638 6.23022
3760 21 92 -5.05146 -1.24746 15.7476
3693 21 43 -3.80537 8.23242 -9.04591
3850 21 150 -8.7771 10.3639 1.38228
3666 21 26 7.46163 -22.7048 -4.64077
3681 21 35 3.35912 -23.8574 6.6525
3849 21 149 2.20838 -9.17451 -4.83582
3835 21 139 0.331493 -12.3232 0.744097
3799 21 115 2.07331 5.05896 2.25281
3791 21 109 2.02076 -0.676093 5.35348
3766 21 96 2.05843 0.3089 17.0711
3809 21 121 0.612143 -1.18764 19.9518
3751 21 85 5.41944 8.97575 14.9248
3822 21 132 0.261712 11.1479 18.0795
3845 21 145 8.13044 -21.8086 13.1885
3747 21 81 16.0324 -19.9572 11.8858
3792 21 110 15.0333 -21.7898 20.5031
3750 21 84 11.08 -8.0168 -9.22493
3682 21 36 9.02591 -3.60359 0.68152
3853 21 153 13.8976 -1.44704 9.5639
3696 21 46 7.98314 -1.90235 11.1789
3752 21 86 10.5432 -2.46039 16.2592
3726 21 68 8.87351 -0.530177 -2.01194
3816 21 126 10.2197 5.76527 -9.22639
3702 21 50 10.048 -1.09247 7.36805
3780 21 102 11.5176 6.05765 13.5341
3798 21 114 8.10858 -1.05075 14.3313
3654 21 16 15.0285 4.18112 15.3999
3724 21 66 12.1111 6.66276 -4.6081
3844 21 144 16.6507 12.2487 18.0923
ITEM: TIMESTEP
740000
ITEM: NUMBER OF ATOMS
46
ITEM: BOX BOUNDS pp pp pp
-1.8512762496200516e+01 1.6693742717275079e+01
-2.4361225555680946e+01 1.4133817313593539e+01
-9.3455203092698653e+00 2.0718179133418879e+01
ITEM: ATOMS id type mol x y z
3753 21 87 -17.6831 -20.9411 -2.11364
3815 21 125 -11.8911 -20.8186 11.7668
3660 21 20 -11.5073 -12.7353 17.02
3851 21 151 -10.9032 1.43621 -3.19776
3834 21 138 -12.5934 6.53266 0.287247
3847 21 147 -9.75077 7.61846 2.23945
3764 21 94 -18.3916 7.12258 17.1294
3641 21 11 -15.3394 11.3622 17.7032
3848 21 148 -2.31578 -17.8855 0.0879401
3803 21 117 -3.9434 -17.8358 -8.38242
3664 21 24 -7.30342 -18.3941 -1.90509
3748 21 82 -4.97418 -20.8036 -1.65297
3810 21 122 -9.2304 -14.9068 15.5763
3781 21 103 -4.71587 -8.64313 7.12501
3839 21 141 -4.4896 -8.02046 2.891
3846 21 146 -8.84883 -8.92846 19.8575
3671 21 29 -6.04338 1.59032 5.36648
3818 21 128 -9.04934 1.90189 6.226
3760 21 92 -5.0611 -1.24443 15.6695
3693 21 43 -3.81211 8.2429 -8.93165
3850 21 150 -8.79541 10.3761 1.41566
3666 21 26 7.48111 -22.7186 -4.56067
3681 21 35 3.36905 -23.8721 6.64501
3835 21 139 0.33438 -12.3289 0.78243
3799 21 115 2.08026 5.06694 2.27944
3791 21 109 2.02757 -0.67261 5.35606
3766 21 96 2.06533 0.313155 16.9828
3809 21 121 0.615684 -1.18456 19.8411
3751 21 85 5.43417 8.9868 14.8532
3822 21 132 0.264437 11.1606 17.9834
3845 21 145 8.15148 -21.8217 13.1303
3747 21 81 16.0718 -19.9689 11.8377
3792 21 110 15.0704 -21.8029 20.3882
3750 21 84 11.1079 -8.01908 -9.10928
3853 21 153 13.932 -1.44416 9.53383
3682 21 36 9.04903 -3.60241 0.720338
3696 21 46 8.00384 -1.89983 11.1363
3752 21 86 10.5699 -2.45831 16.1772
3726 21 68 8.89628 -0.52658 -1.95223
3816 21 126 10.2456 5.77381 -9.11073
3702 21 50 10.0735 -1.08931 7.35501
3780 21 102 11.5465 6.06642 13.4732
3798 21 114 8.12957 -1.04756 14.2643
3654 21 16 15.0656 4.18841 15.3246
3724 21 66 12.1414 6.672 -4.52826
3844 21 144 16.6915 12.2623 17.9961
ITEM: TIMESTEP
745000
ITEM: NUMBER OF ATOMS
44
ITEM: BOX BOUNDS pp pp pp
-1.8533251998638590e+01 1.6714232219713153e+01
-2.4403115368228185e+01 1.4175707126140779e+01
-9.2841594159702758e+00 2.0656818240112266e+01
ITEM: ATOMS id type mol x y z
3753 21 87 -17.7026 -20.9755 -2.0818
3815 21 125 -11.9038 -20.8528 11.742
3660 21 20 -11.5196 -12.7519 16.9737
3851 21 151 -10.9148 1.45047 -3.16149
3834 21 138 -12.607 6.558 0.309287
3847 21 147 -9.76106 7.64617 2.25352
3764 21 94 -18.412 7.14921 17.0827
3641 21 11 -15.3562 11.398 17.6542
3848 21 148 -2.31742 -17.9133 0.110793
3803 21 117 -3.94694 -17.8634 -8.32499
3664 21 24 -7.31086 -18.423 -1.8741
3748 21 82 -4.97891 -20.8378 -1.62301
3810 21 122 -9.24008 -14.9281 15.5359
3781 21 103 -4.7203 -8.65081 7.11914
3839 21 141 -4.49377 -8.02678 2.90241
3846 21 146 -8.85807 -8.93676 19.7997
3671 21 29 -6.04936 1.60491 5.36778
3818 21 128 -9.05881 1.91715 6.2238
3760 21 92 -5.06593 -1.23601 15.6288
3693 21 43 -3.81549 8.27196 -8.87198
3850 21 150 -8.80459 10.4098 1.4331
3666 21 26 7.49088 -22.7569 -4.51884
3681 21 35 3.37403 -23.913 6.6411
3835 21 139 0.335828 -12.3446 0.802448
3799 21 115 2.08374 5.0891 2.29335
3791 21 109 2.03099 -0.662945 5.35741
3766 21 96 2.0688 0.324966 16.9366
3809 21 121 0.617459 -1.17601 19.7834
3751 21 85 5.44155 9.01749 14.8157
3822 21 132 0.265804 11.1961 17.9332
3845 21 145 8.16203 -21.8581 13.0999
3747 21 81 16.0916 -20.0012 11.8126
3750 21 84 11.1219 -8.0254 -9.04888
3853 21 153 13.9493 -1.43618 9.51812
3682 21 36 9.06062 -3.59912 0.740609
3696 21 46 8.01421 -1.89284 11.114
3752 21 86 10.5832 -2.45253 16.1343
3726 21 68 8.90769 -0.516597 -1.92105
3816 21 126 10.2586 5.79751 -9.05032
3702 21 50 10.0863 -1.08056 7.3482
3780 21 102 11.561 6.09075 13.4414
3798 21 114 8.14009 -1.03871 14.2293
3654 21 16 15.0842 4.20866 15.2852
3844 21 144 16.712 12.3002 17.9458
ITEM: TIMESTEP
750000
ITEM: NUMBER OF ATOMS
43
ITEM: BOX BOUNDS pp pp pp
-1.8473791049712144e+01 1.6654771270786707e+01
-2.4223443579936859e+01 1.3996035337849452e+01
-9.3911634026014497e+00 2.0763822226706971e+01
ITEM: ATOMS id type mol x y z
3753 21 87 -17.6459 -20.8278 -2.13733
3815 21 125 -11.8667 -20.7062 11.7853
3660 21 20 -11.4838 -12.6808 17.0544
3851 21 151 -10.8811 1.38933 -3.22473
3834 21 138 -12.5675 6.44929 0.270853
3847 21 147 -9.73119 7.52732 2.22898
3764 21 94 -18.3529 7.03498 17.1642
3641 21 11 -15.3074 11.2442 17.7397
3848 21 148 -2.31267 -17.7941 0.070941
3803 21 117 -3.93669 -17.7447 -8.42514
3664 21 24 -7.28926 -18.2991 -1.92814
3748 21 82 -4.96518 -20.6913 -1.67526
3810 21 122 -9.21198 -14.8367 15.6063
3781 21 103 -4.70744 -8.61786 7.12938
3839 21 141 -4.48167 -7.99965 2.88251
3846 21 146 -8.83125 -8.90115 19.9005
3671 21 29 -6.03202 1.54233 5.36551
3818 21 128 -9.03132 1.85166 6.22764
3760 21 92 -5.05191 -1.27213 15.6999
3693 21 43 -3.80568 8.14728 -8.97603
3850 21 150 -8.77795 10.2652 1.40269
3666 21 26 7.46253 -22.5926 -4.59178
3681 21 35 3.35958 -23.7379 6.64792
3835 21 139 0.331627 -12.2772 0.76754
3799 21 115 2.07364 4.99406 2.2691
3791 21 109 2.02107 -0.704401 5.35505
3766 21 96 2.05875 0.274307 17.0171
3809 21 121 0.612307 -1.21269 19.8841
3751 21 85 5.42012 8.88587 14.881
3822 21 132 0.261838 11.0441 18.0208
3845 21 145 8.13142 -21.7021 13.1529
3747 21 81 16.0342 -19.8625 11.8564
3750 21 84 11.0813 -7.99828 -9.1542
3853 21 153 13.8992 -1.47043 9.54551
3682 21 36 9.02698 -3.61323 0.705259
3696 21 46 7.9841 -1.92284 11.1528
3752 21 86 10.5445 -2.47732 16.209
3726 21 68 8.87457 -0.559417 -1.97542
3816 21 126 10.2209 5.69587 -9.15566
3702 21 50 10.0492 -1.11812 7.36008
3780 21 102 11.5189 5.98638 13.4969
3654 21 16 15.0302 4.12183 15.3538
3844 21 144 16.6526 12.138 18.0335
ITEM: TIMESTEP
755000
ITEM: NUMBER OF ATOMS
45
ITEM: BOX BOUNDS pp pp pp
-1.8477386191164022e+01 1.6658366412238585e+01
-2.4239498035493412e+01 1.4012089793406005e+01
-9.3694668143712825e+00 2.0742125638462937e+01
ITEM: ATOMS id type mol x y z
3753 21 87 -17.6493 -20.841 -2.12607
3815 21 125 -11.869 -20.7193 11.7765
3660 21 20 -11.486 -12.6871 17.0381
3851 21 151 -10.8831 1.39479 -3.21191
3854 21 154 -12.8647 5.51143 20.0189
3834 21 138 -12.5699 6.459 0.278646
3847 21 147 -9.733 7.53794 2.23396
3764 21 94 -18.3565 7.04519 17.1477
3641 21 11 -15.3104 11.258 17.7224
3848 21 148 -2.31296 -17.8047 0.0790216
3803 21 117 -3.93731 -17.7553 -8.40483
3664 21 24 -7.29057 -18.3101 -1.91718
3748 21 82 -4.96601 -20.7044 -1.66467
3810 21 122 -9.21368 -14.8448 15.592
3781 21 103 -4.70822 -8.62081 7.12731
3839 21 141 -4.48241 -8.00207 2.88655
3846 21 146 -8.83287 -8.90433 19.8801
3671 21 29 -6.03307 1.54792 5.36597
3818 21 128 -9.03298 1.85752 6.22686
3760 21 92 -5.05276 -1.2689 15.6855
3693 21 43 -3.80628 8.15842 -8.95493
3850 21 150 -8.77956 10.2781 1.40886
3666 21 26 7.46425 -22.6073 -4.57699
3681 21 35 3.36045 -23.7535 6.64654
3835 21 139 0.331881 -12.2833 0.774618
3855 21 155 7.25624 -3.55865 13.5302
3799 21 115 2.07425 5.00256 2.27402
3791 21 109 2.02167 -0.700697 5.35553
3766 21 96 2.05936 0.278834 17.0008
3809 21 121 0.612619 -1.20941 19.8637
3751 21 85 5.42142 8.89763 14.8678
3822 21 132 0.262078 11.0577 18.003
3845 21 145 8.13327 -21.7161 13.1422
3747 21 81 16.0377 -19.8749 11.8475
3750 21 84 11.0838 -8.00071 -9.13285
3853 21 153 13.9022 -1.46737 9.53996
3682 21 36 9.02901 -3.61196 0.712427
3696 21 46 7.98592 -1.92016 11.145
3752 21 86 10.5468 -2.4751 16.1939
3726 21 68 8.87657 -0.555591 -1.9644
3816 21 126 10.2232 5.70496 -9.1343
3702 21 50 10.0514 -1.11477 7.35767
3780 21 102 11.5215 5.99571 13.4856
3654 21 16 15.0335 4.12959 15.3399
3844 21 144 16.6562 12.1524 18.0157
ITEM: TIMESTEP
760000
ITEM: NUMBER OF ATOMS
46
ITEM: BOX BOUNDS pp pp pp
-1.8408764060729645e+01 1.6589744281804208e+01
-2.4295119748345829e+01 1.4067711506258423e+01
-9.4075989132766544e+00 2.0780257737344176e+01
ITEM: ATOMS id type mol x y z
3753 21 87 -17.584 -20.8867 -2.14585
3815 21 125 -11.8262 -20.7647 11.7919
3660 21 20 -11.4447 -12.7092 17.0668
3851 21 151 -10.8442 1.41372 -3.23445
3854 21 154 -12.818 5.54233 20.0552
3834 21 138 -12.5244 6.49266 0.26495
3847 21 147 -9.69853 7.57473 2.22521
3764 21 94 -18.2884 7.08055 17.1767
3641 21 11 -15.2541 11.3056 17.7528
3848 21 148 -2.30748 -17.8416 0.0648198
3803 21 117 -3.92548 -17.7921 -8.44052
3664 21 24 -7.26564 -18.3485 -1.93644
3748 21 82 -4.95017 -20.7497 -1.68328
3810 21 122 -9.18124 -14.8731 15.6171
3781 21 103 -4.69338 -8.63101 7.13096
3839 21 141 -4.46845 -8.01047 2.87946
3846 21 146 -8.80192 -8.91536 19.916
3671 21 29 -6.01305 1.5673 5.36516
3818 21 128 -9.00125 1.87779 6.22823
3760 21 92 -5.03657 -1.25772 15.7108
3693 21 43 -3.79496 8.19702 -8.99202
3850 21 150 -8.74882 10.3229 1.39803
3666 21 26 7.43154 -22.6582 -4.60299
3681 21 35 3.34377 -23.8077 6.64897
3835 21 139 0.327032 -12.3041 0.762178
3855 21 155 7.22434 -3.55413 13.5501
3799 21 115 2.06259 5.03198 2.26537
3791 21 109 2.01022 -0.687863 5.35469
3766 21 96 2.04776 0.294516 17.0294
3809 21 121 0.606673 -1.19805 19.8996
3751 21 85 5.39669 8.93837 14.891
3822 21 132 0.257502 11.1048 18.0342
3859 21 157 5.70097 13.634 19.9432
3845 21 145 8.09795 -21.7643 13.161
3747 21 81 15.9715 -19.9179 11.8631
3750 21 84 11.0369 -8.0091 -9.17038
3853 21 153 13.8443 -1.45677 9.54972
3682 21 36 8.99019 -3.6076 0.699829
3696 21 46 7.95118 -1.91087 11.1588
3752 21 86 10.5021 -2.46743 16.2205
3726 21 68 8.83834 -0.542335 -1.98377
3816 21 126 10.1797 5.73642 -9.17183
3702 21 50 10.0086 -1.10314 7.3619
3780 21 102 11.4729 6.02802 13.5054
3654 21 16 14.9712 4.15647 15.3644
3844 21 144 16.5876 12.2027 18.0469
ITEM: TIMESTEP
765000
ITEM: NUMBER OF ATOMS
49
ITEM: BOX BOUNDS pp pp pp
-1.8432234984466358e+01 1.6613215205540921e+01
-2.4233103720447652e+01 1.4005695478360245e+01
-9.5662963712805578e+00 2.0938955195301943e+01
ITEM: ATOMS id type mol x y z
3753 21 87 -17.6063 -20.8357 -2.2282
3815 21 125 -11.8408 -20.7141 11.8561
3660 21 20 -11.4588 -12.6846 17.1865
3851 21 151 -10.8575 1.39261 -3.32824
3854 21 154 -12.834 5.50788 20.2063
3834 21 138 -12.54 6.45513 0.20795
3865 21 161 -10.0979 12.0136 3.4047
3847 21 147 -9.71032 7.53371 2.18882
3764 21 94 -18.3117 7.04113 17.2975
3641 21 11 -15.2734 11.2525 17.8797
3848 21 148 -2.30935 -17.8005 0.00571532
3803 21 117 -3.92952 -17.7511 -8.58905
3664 21 24 -7.27417 -18.3057 -2.01659
3748 21 82 -4.95559 -20.6992 -1.76077
3810 21 122 -9.19234 -14.8416 15.7215
3781 21 103 -4.69845 -8.61963 7.14614
3839 21 141 -4.47322 -8.00111 2.84995
3846 21 146 -8.81251 -8.90307 20.0656
3671 21 29 -6.0199 1.5457 5.36178
3818 21 128 -9.0121 1.85519 6.23393
3760 21 92 -5.04211 -1.27018 15.8162
3693 21 43 -3.79883 8.15399 -9.14634
3850 21 150 -8.75934 10.273 1.35294
3666 21 26 7.44273 -22.6014 -4.71117
3681 21 35 3.34948 -23.7473 6.65909
3835 21 139 0.32869 -12.2809 0.710405
3855 21 155 7.23525 -3.55917 13.6328
3860 21 158 5.33367 -1.70701 15.8573
3861 21 159 0.293852 -1.10313 -1.75751
3799 21 115 2.06658 4.99917 2.2294
3791 21 109 2.01414 -0.702173 5.35121
3766 21 96 2.05173 0.277031 17.1487
3809 21 121 0.608707 -1.21071 20.049
3751 21 85 5.40515 8.89294 14.9878
3822 21 132 0.259067 11.0523 18.164
3859 21 157 5.70984 13.5733 20.0931
3845 21 145 8.11003 -21.7105 13.2396
3747 21 81 15.9942 -19.87 11.9281
3750 21 84 11.053 -7.99974 -9.32659
3853 21 153 13.8641 -1.46859 9.59034
3682 21 36 9.00347 -3.61247 0.647401
3696 21 46 7.96306 -1.92123 11.2163
3752 21 86 10.5174 -2.47599 16.3313
3726 21 68 8.85142 -0.557115 -2.06442
3816 21 126 10.1946 5.70134 -9.32805
3702 21 50 10.0233 -1.1161 7.37952
3780 21 102 11.4895 5.99199 13.5876
3654 21 16 14.9925 4.12649 15.4661
3844 21 144 16.611 12.1467 18.1769
ITEM: TIMESTEP
770000
ITEM: NUMBER OF ATOMS
49
ITEM: BOX BOUNDS pp pp pp
-1.8319109653263933e+01 1.6500089874338496e+01
-2.4492999378403617e+01 1.4265591136316210e+01
-9.4235152641160802e+00 2.0796174088145250e+01
ITEM: ATOMS id type mol x y z
3753 21 87 -17.4985 -21.0494 -2.15411
3815 21 125 -11.7702 -20.9262 11.7984
3660 21 20 -11.3907 -12.7875 17.0788
3851 21 151 -10.7933 1.48105 -3.24385
3854 21 154 -12.757 5.65226 20.0704
3834 21 138 -12.4649 6.61239 0.259233
3865 21 161 -10.0386 12.2464 3.42605
3847 21 147 -9.6535 7.70563 2.22156
3764 21 94 -18.1993 7.20635 17.1888
3641 21 11 -15.1806 11.475 17.7656
3848 21 148 -2.30031 -17.9729 0.058892
3803 21 117 -3.91003 -17.9229 -8.45542
3664 21 24 -7.23308 -18.485 -1.94448
3748 21 82 -4.92947 -20.911 -1.69105
3810 21 122 -9.13886 -14.9738 15.6276
3781 21 103 -4.67399 -8.66729 7.13248
3839 21 141 -4.45022 -8.04036 2.8765
3846 21 146 -8.76149 -8.95458 19.931
3671 21 29 -5.98691 1.63622 5.36482
3818 21 128 -8.95979 1.94992 6.2288
3760 21 92 -5.01543 -1.21794 15.7213
3693 21 43 -3.78018 8.33434 -9.00749
3850 21 150 -8.70866 10.4821 1.3935
3666 21 26 7.38881 -22.8392 -4.61384
3681 21 35 3.32198 -24.0006 6.64999
3835 21 139 0.320696 -12.3783 0.756985
3855 21 155 7.18267 -3.53804 13.5584
3860 21 158 5.29337 -1.66071 15.7621
3861 21 159 0.286083 -1.04862 -1.68783
3799 21 115 2.04737 5.13664 2.26177
3791 21 109 1.99526 -0.642205 5.35434
3766 21 96 2.03261 0.350309 17.0414
3809 21 121 0.598905 -1.15766 19.9146
3751 21 85 5.36438 9.08334 14.9007
3822 21 132 0.251523 11.2721 18.0472
3859 21 157 5.6671 13.8274 19.9582
3845 21 145 8.0518 -21.9361 13.1689
3747 21 81 15.885 -20.0706 11.8696
3750 21 84 10.9757 -8.03897 -9.18605
3853 21 153 13.7687 -1.41904 9.55379
3682 21 36 8.93947 -3.59206 0.694571
3696 21 46 7.90578 -1.87783 11.1646
3752 21 86 10.4436 -2.44013 16.2316
3726 21 68 8.7884 -0.495176 -1.99186
3816 21 126 10.1229 5.84835 -9.1875
3702 21 50 9.95267 -1.06176 7.36367
3780 21 102 11.4095 6.14296 13.5136
3654 21 16 14.8898 4.2521 15.3746
3844 21 144 16.4979 12.3813 18.06
ITEM: TIMESTEP
775000
ITEM: NUMBER OF ATOMS
49
ITEM: BOX BOUNDS pp pp pp
-1.8421593959150830e+01 1.6602574180225393e+01
-2.4406773073640061e+01 1.4179364831552654e+01
-9.4502654182714245e+00 2.0822924242278098e+01
ITEM: ATOMS id type mol x y z
3753 21 87 -17.5962 -20.9785 -2.16799
3815 21 125 -11.8342 -20.8558 11.8092
3660 21 20 -11.4524 -12.7534 17.099
3851 21 151 -10.8515 1.45171 -3.25966
3854 21 154 -12.8268 5.60436 20.0958
3834 21 138 -12.5329 6.56022 0.249625
3865 21 161 -10.0923 12.1692 3.42205
3847 21 147 -9.70498 7.64859 2.21543
3764 21 94 -18.3011 7.15153 17.2092
3641 21 11 -15.2646 11.4012 17.787
3848 21 148 -2.3085 -17.9157 0.0489293
3803 21 117 -3.92769 -17.8659 -8.48045
3664 21 24 -7.2703 -18.4255 -1.95799
3748 21 82 -4.95313 -20.8408 -1.70412
3810 21 122 -9.18731 -14.9299 15.6452
3781 21 103 -4.69615 -8.65148 7.13504
3839 21 141 -4.47106 -8.02734 2.87152
3846 21 146 -8.80771 -8.93749 19.9562
3671 21 29 -6.01679 1.60619 5.36425
3818 21 128 -9.00718 1.91849 6.22976
3760 21 92 -5.0396 -1.23527 15.7391
3693 21 43 -3.79708 8.2745 -9.03351
3850 21 150 -8.75457 10.4127 1.3859
3666 21 26 7.43765 -22.7603 -4.63207
3681 21 35 3.34689 -23.9165 6.65169
3835 21 139 0.327938 -12.346 0.748259
3855 21 155 7.2303 -3.54505 13.5723
3860 21 158 5.32988 -1.67607 15.78
3861 21 159 0.293121 -1.0667 -1.70088
3799 21 115 2.06477 5.09103 2.2557
3791 21 109 2.01236 -0.662101 5.35376
3766 21 96 2.04993 0.325997 17.0615
3809 21 121 0.607785 -1.17526 19.9398
3751 21 85 5.40131 9.02017 14.917
3822 21 132 0.258357 11.1992 18.0691
3859 21 157 5.70582 13.7431 19.9835
3845 21 145 8.10455 -21.8613 13.1822
3747 21 81 15.9839 -20.004 11.8806
3750 21 84 11.0457 -8.02596 -9.21238
3853 21 153 13.8551 -1.43548 9.56064
3682 21 36 8.99745 -3.59883 0.685734
3696 21 46 7.95767 -1.89223 11.1743
3752 21 86 10.5104 -2.45203 16.2503
3726 21 68 8.84549 -0.515725 -2.00545
3816 21 126 10.1879 5.79958 -9.21383
3702 21 50 10.0166 -1.07979 7.36664
3780 21 102 11.482 6.09287 13.5275
3654 21 16 14.9828 4.21043 15.3917
3844 21 144 16.6004 12.3035 18.0819
ITEM: TIMESTEP
780000
ITEM: NUMBER OF ATOMS
49
ITEM: BOX BOUNDS pp pp pp
-1.8545621034878359e+01 1.6726601255952922e+01
-2.4264678854804160e+01 1.4037270612716753e+01
-9.4742365845184082e+00 2.0846895408502952e+01
ITEM: ATOMS id type mol x y z
3753 21 87 -17.7144 -20.8617 -2.18043
3815 21 125 -11.9116 -20.7399 11.8189
3660 21 20 -11.5271 -12.6971 17.1171
3851 21 151 -10.9219 1.40336 -3.27383
3854 21 154 -12.9112 5.52542 20.1187
3834 21 138 -12.6152 6.47424 0.241015
3865 21 161 -10.1574 12.0419 3.41847
3847 21 147 -9.76727 7.5546 2.20993
3764 21 94 -18.4243 7.0612 17.2274
3641 21 11 -15.3663 11.2795 17.8061
3848 21 148 -2.31841 -17.8214 0.0400016
3803 21 117 -3.94907 -17.7719 -8.50289
3664 21 24 -7.31535 -18.3275 -1.97009
3748 21 82 -4.98177 -20.7249 -1.71582
3810 21 122 -9.24593 -14.8577 15.661
3781 21 103 -4.72297 -8.62542 7.13733
3839 21 141 -4.49628 -8.00588 2.86707
3846 21 146 -8.86365 -8.90932 19.9788
3671 21 29 -6.05297 1.5567 5.36374
3818 21 128 -9.06453 1.86669 6.23062
3760 21 92 -5.06885 -1.26384 15.755
3693 21 43 -3.81753 8.1759 -9.05682
3850 21 150 -8.81013 10.2984 1.37909
3666 21 26 7.49677 -22.6303 -4.64841
3681 21 35 3.37704 -23.7781 6.65322
3835 21 139 0.336702 -12.2927 0.740438
3855 21 155 7.28795 -3.5566 13.5848
3860 21 158 5.37407 -1.70139 15.7959
3861 21 159 0.301639 -1.09651 -1.71258
3799 21 115 2.08584 5.01587 2.25027
3791 21 109 2.03306 -0.694887 5.35323
3766 21 96 2.07089 0.285934 17.0795
3809 21 121 0.618531 -1.20427 19.9623
3751 21 85 5.44601 8.91607 14.9316
3822 21 132 0.266628 11.079 18.0887
3859 21 157 5.75267 13.6042 20.0061
3845 21 145 8.16839 -21.7379 13.194
3747 21 81 16.1035 -19.8944 11.8904
3750 21 84 11.1304 -8.00451 -9.23597
3853 21 153 13.9597 -1.46257 9.56677
3682 21 36 9.06761 -3.60999 0.677815
3696 21 46 8.02047 -1.91595 11.183
3752 21 86 10.5913 -2.47163 16.267
3726 21 68 8.91458 -0.54959 -2.01763
3816 21 126 10.2665 5.7192 -9.23743
3702 21 50 10.094 -1.1095 7.3693
3780 21 102 11.5697 6.01034 13.5399
3654 21 16 15.0954 4.14175 15.4071
3844 21 144 16.7244 12.1752 18.1015
ITEM: TIMESTEP
785000
ITEM: NUMBER OF ATOMS
50
ITEM: BOX BOUNDS pp pp pp
-1.8406308313780418e+01 1.6587288534854981e+01
-2.4358467241590137e+01 1.4131058999502731e+01
-9.5497173048709207e+00 2.0922376128823753e+01
ITEM: ATOMS id type mol x y z
3875 21 165 -17.6857 -19.8027 0.415504
3753 21 87 -17.5816 -20.9388 -2.2196
3815 21 125 -11.8246 -20.8164 11.8494
3660 21 20 -11.4432 -12.7343 17.174
3851 21 151 -10.8428 1.43527 -3.31844
3854 21 154 -12.8164 5.57752 20.1905
3834 21 138 -12.5227 6.53099 0.213904
3865 21 161 -10.0843 12.1259 3.40718
3847 21 147 -9.6973 7.61664 2.19263
3764 21 94 -18.2859 7.12082 17.2849
3641 21 11 -15.2521 11.3598 17.8665
3848 21 148 -2.30728 -17.8837 0.0118899
3803 21 117 -3.92506 -17.8339 -8.57353
3664 21 24 -7.26475 -18.3922 -2.00821
3748 21 82 -4.9496 -20.8014 -1.75267
3810 21 122 -9.18008 -14.9054 15.7106
3781 21 103 -4.69285 -8.64262 7.14456
3839 21 141 -4.46795 -8.02004 2.85303
3846 21 146 -8.80082 -8.92791 20.05
3671 21 29 -6.01234 1.58936 5.36213
3818 21 128 -9.00011 1.90088 6.23333
3760 21 92 -5.03599 -1.24498 15.8052
3693 21 43 -3.79456 8.24098 -9.13022
3850 21 150 -8.74772 10.3738 1.35765
3666 21 26 7.43037 -22.7161 -4.69987
3681 21 35 3.34317 -23.8695 6.65803
3835 21 139 0.326858 -12.3279 0.715814
3855 21 155 7.2232 -3.54898 13.6242
3860 21 158 5.32444 -1.68468 15.8463
3861 21 159 0.292071 -1.07684 -1.74942
3799 21 115 2.06218 5.06548 2.23316
3791 21 109 2.00981 -0.673247 5.35157
3766 21 96 2.04734 0.312377 17.1362
3809 21 121 0.60646 -1.18512 20.0334
3751 21 85 5.39581 8.98478 14.9777
3822 21 132 0.257338 11.1583 18.1505
3859 21 157 5.70004 13.6959 20.0774
3845 21 145 8.09668 -21.8193 13.2314
3747 21 81 15.9691 -19.9668 11.9213
3750 21 84 11.0353 -8.01866 -9.31027
3853 21 153 13.8423 -1.44469 9.58609
3682 21 36 8.9888 -3.60262 0.652878
3696 21 46 7.94993 -1.90029 11.2103
3752 21 86 10.5005 -2.45869 16.3197
3726 21 68 8.83698 -0.527238 -2.05599
3816 21 126 10.1782 5.77225 -9.31173
3702 21 50 10.0071 -1.08989 7.37768
3780 21 102 11.4712 6.06481 13.579
3654 21 16 14.969 4.18708 15.4555
3844 21 144 16.5851 12.2598 18.1633
ITEM: TIMESTEP
790000
ITEM: NUMBER OF ATOMS
49
ITEM: BOX BOUNDS pp pp pp
-1.8678357209125014e+01 1.6859337430199577e+01
-2.4063946210914132e+01 1.3836537968826725e+01
-9.6191172931053437e+00 2.0991776117027502e+01
ITEM: ATOMS id type mol x y z
3753 21 87 -17.8408 -20.6966 -2.25561
3815 21 125 -11.9944 -20.5761 11.8775
3660 21 20 -11.607 -12.6176 17.2263
3851 21 151 -10.9972 1.33505 -3.35946
3854 21 154 -13.0015 5.4139 20.2566
3834 21 138 -12.7033 6.35278 0.188978
3865 21 161 -10.227 11.8621 3.39679
3847 21 147 -9.83394 7.42181 2.17671
3764 21 94 -18.5561 6.93359 17.3377
3641 21 11 -15.4751 11.1077 17.9219
3848 21 148 -2.32901 -17.6882 -0.013957
3803 21 117 -3.97194 -17.6393 -8.63849
3664 21 24 -7.36356 -18.189 -2.04326
3748 21 82 -5.01242 -20.5613 -1.78656
3810 21 122 -9.30867 -14.7555 15.7563
3781 21 103 -4.75167 -8.58862 7.1512
3839 21 141 -4.52328 -7.97556 2.84012
3846 21 146 -8.92352 -8.86954 20.1154
3671 21 29 -6.09168 1.48678 5.36066
3818 21 128 -9.12591 1.79353 6.23582
3760 21 92 -5.10015 -1.30419 15.8513
3693 21 43 -3.83941 8.0366 -9.19771
3850 21 150 -8.86959 10.1368 1.33793
3666 21 26 7.56004 -22.4467 -4.74717
3681 21 35 3.4093 -23.5824 6.66246
3835 21 139 0.346082 -12.2175 0.693173
3855 21 155 7.34965 -3.57292 13.6603
3860 21 158 5.42137 -1.73715 15.8926
3861 21 159 0.310754 -1.13862 -1.78329
3799 21 115 2.10838 4.9097 2.21743
3791 21 109 2.0552 -0.741203 5.35005
3766 21 96 2.09332 0.229337 17.1884
3809 21 121 0.630031 -1.24525 20.0988
3751 21 85 5.49384 8.76902 15.02
3822 21 132 0.27548 10.9093 18.2072
3859 21 157 5.80281 13.408 20.143
3845 21 145 8.23672 -21.5637 13.2658
3747 21 81 16.2316 -19.7394 11.9497
3750 21 84 11.221 -7.97421 -9.37858
3853 21 153 14.0716 -1.50084 9.60386
3682 21 36 9.14271 -3.62575 0.629951
3696 21 46 8.08769 -1.94947 11.2355
3752 21 86 10.6779 -2.49932 16.3681
3726 21 68 8.98852 -0.597429 -2.09126
3816 21 126 10.3506 5.60565 -9.38005
3702 21 50 10.1768 -1.15147 7.38538
3780 21 102 11.6637 5.89374 13.6149
3654 21 16 15.2159 4.04474 15.5
3844 21 144 16.8571 11.994 18.2201
ITEM: TIMESTEP
795000
ITEM: NUMBER OF ATOMS
49
ITEM: BOX BOUNDS pp pp pp
-1.8576857199612217e+01 1.6757837420686780e+01
-2.4290876977802242e+01 1.4063468735714835e+01
-9.4560271108185034e+00 2.0828685934752951e+01
ITEM: ATOMS id type mol x y z
3753 21 87 -17.7441 -20.8832 -2.17098
3815 21 125 -11.931 -20.7612 11.8115
3660 21 20 -11.5459 -12.7075 17.1033
3851 21 151 -10.9396 1.41227 -3.26307
3854 21 154 -12.9324 5.53997 20.1013
3834 21 138 -12.6359 6.49009 0.247556
3865 21 161 -10.1738 12.0654 3.42119
3847 21 147 -9.78296 7.57193 2.21411
3764 21 94 -18.4553 7.07785 17.2136
3641 21 11 -15.3919 11.302 17.7916
3848 21 148 -2.3209 -17.8388 0.0467835
3803 21 117 -3.95445 -17.7893 -8.48584
3664 21 24 -7.3267 -18.3456 -1.9609
3748 21 82 -4.98898 -20.7463 -1.70693
3810 21 122 -9.2607 -14.871 15.649
3781 21 103 -4.72973 -8.63023 7.13559
3839 21 141 -4.50264 -8.00983 2.87045
3846 21 146 -8.87774 -8.91452 19.9617
3671 21 29 -6.06208 1.56582 5.36413
3818 21 128 -9.07897 1.87624 6.22997
3760 21 92 -5.07622 -1.25857 15.7429
3693 21 43 -3.82268 8.19408 -9.03911
3850 21 150 -8.82412 10.3194 1.38427
3666 21 26 7.51166 -22.6543 -4.636
3681 21 35 3.38463 -23.8036 6.65206
3835 21 139 0.33891 -12.3025 0.746379
3855 21 155 7.30247 -3.55447 13.5753
3860 21 158 5.3852 -1.69672 15.7838
3861 21 159 0.303784 -1.09101 -1.70369
3799 21 115 2.09114 5.02973 2.2544
3791 21 109 2.03827 -0.688842 5.35363
3766 21 96 2.07617 0.29332 17.0658
3809 21 121 0.621237 -1.19892 19.9452
3751 21 85 5.45727 8.93527 14.9205
3822 21 132 0.268712 11.1012 18.0738
3859 21 157 5.76447 13.6298 19.9889
3845 21 145 8.18447 -21.7607 13.185
3747 21 81 16.1337 -19.9146 11.8829
3750 21 84 11.1517 -8.00846 -9.21805
3853 21 153 13.9861 -1.45757 9.56211
3682 21 36 9.08529 -3.60793 0.68383
3696 21 46 8.03629 -1.91158 11.1764
3752 21 86 10.6117 -2.46802 16.2543
3726 21 68 8.93198 -0.543346 -2.00838
3816 21 126 10.2863 5.73402 -9.21951
3702 21 50 10.1135 -1.10402 7.36728
3780 21 102 11.5919 6.02555 13.5305
3654 21 16 15.1237 4.15442 15.3954
3844 21 144 16.7556 12.1988 18.0866
ITEM: TIMESTEP
800000
ITEM: NUMBER OF ATOMS
48
ITEM: BOX BOUNDS pp pp pp
-1.8409606659049931e+01 1.6590586880124494e+01
-2.4385005786923866e+01 1.4157597544836459e+01
-9.4760493383928619e+00 2.0848708162305833e+01
ITEM: ATOMS id type mol x y z
3753 21 87 -17.5848 -20.9606 -2.18137
3815 21 125 -11.8267 -20.838 11.8196
3660 21 20 -11.4452 -12.7448 17.1184
3851 21 151 -10.8447 1.4443 -3.2749
3854 21 154 -12.8186 5.59226 20.1204
3834 21 138 -12.5249 6.54705 0.240364
3865 21 161 -10.0861 12.1497 3.4182
3847 21 147 -9.69896 7.63419 2.20952
3764 21 94 -18.2892 7.13769 17.2288
3641 21 11 -15.2548 11.3825 17.8076
3848 21 148 -2.30754 -17.9013 0.0393265
3803 21 117 -3.92563 -17.8515 -8.50458
3664 21 24 -7.26595 -18.4105 -1.97101
3748 21 82 -4.95036 -20.823 -1.7167
3810 21 122 -9.18164 -14.9189 15.6621
3781 21 103 -4.69356 -8.64749 7.13751
3839 21 141 -4.46862 -8.02405 2.86673
3846 21 146 -8.8023 -8.93317 19.9806
3671 21 29 -6.0133 1.59861 5.3637
3818 21 128 -9.00164 1.91055 6.23069
3760 21 92 -5.03677 -1.23965 15.7562
3693 21 43 -3.7951 8.2594 -9.05858
3666 21 26 7.43194 -22.7404 -4.64965
3681 21 35 3.34398 -23.8953 6.65334
3835 21 139 0.327091 -12.3378 0.739847
3855 21 155 7.22473 -3.54682 13.5858
3860 21 158 5.32561 -1.67995 15.7972
3861 21 159 0.292298 -1.07127 -1.71347
3799 21 115 2.06274 5.07952 2.24986
3791 21 109 2.01036 -0.667123 5.35319
3766 21 96 2.0479 0.31986 17.0809
3809 21 121 0.606746 -1.17971 19.9641
3751 21 85 5.39699 9.00422 14.9328
3822 21 132 0.257558 11.1808 18.0902
3859 21 157 5.70129 13.7218 20.0079
3845 21 145 8.09838 -21.8424 13.1949
3747 21 81 15.9723 -19.9872 11.8911
3750 21 84 11.0375 -8.02267 -9.23776
3853 21 153 13.845 -1.43963 9.56724
3682 21 36 8.99067 -3.60054 0.677216
3696 21 46 7.9516 -1.89586 11.1836
3752 21 86 10.5026 -2.45503 16.2683
3726 21 68 8.83881 -0.520913 -2.01856
3816 21 126 10.1803 5.78726 -9.23922
3702 21 50 10.0091 -1.08434 7.3695
3780 21 102 11.4735 6.08023 13.5408
3654 21 16 14.972 4.19991 15.4083
3844 21 144 16.5884 12.2838 18.103
ITEM: TIMESTEP
805000
ITEM: NUMBER OF ATOMS
48
ITEM: BOX BOUNDS pp pp pp
-1.8680373810605669e+01 1.6861354031680232e+01
-2.4458312581733978e+01 1.4230904339646571e+01
-9.4041879600262064e+00 2.0776846783935103e+01
ITEM: ATOMS id type mol x y z
3753 21 87 -17.8428 -21.0209 -2.14408
3815 21 125 -11.9956 -20.8978 11.7905
3660 21 20 -11.6082 -12.7738 17.0642
3851 21 151 -10.9984 1.46925 -3.23243
3854 21 154 -13.0029 5.63299 20.052
3834 21 138 -12.7047 6.5914 0.266175
3865 21 161 -10.228 12.2154 3.42894
3847 21 147 -9.83495 7.68269 2.226
3764 21 94 -18.5581 7.1843 17.1741
3641 21 11 -15.4768 11.4453 17.7501
3848 21 148 -2.32917 -17.9499 0.0660902
3803 21 117 -3.97229 -17.8999 -8.43733
3664 21 24 -7.3643 -18.4611 -1.93472
3748 21 82 -5.01289 -20.8828 -1.68162
3810 21 122 -9.30963 -14.9562 15.6149
3781 21 103 -4.75211 -8.66093 7.13063
3839 21 141 -4.52369 -8.03512 2.88009
3846 21 146 -8.92442 -8.9477 19.9128
3671 21 29 -6.09227 1.62414 5.36523
3818 21 128 -9.12684 1.93727 6.22811
3760 21 92 -5.10063 -1.22491 15.7085
3693 21 43 -3.83975 8.31027 -8.9887
3666 21 26 7.561 -22.8074 -4.60066
3681 21 35 3.40979 -23.9668 6.64875
3835 21 139 0.346224 -12.3653 0.763291
3855 21 155 7.35059 -3.54086 13.5483
3860 21 158 5.42208 -1.66689 15.7492
3861 21 159 0.310893 -1.05589 -1.67839
3799 21 115 2.10872 5.11829 2.26615
3791 21 109 2.05554 -0.650209 5.35477
3766 21 96 2.09366 0.340529 17.0269
3809 21 121 0.630206 -1.16474 19.8964
3751 21 85 5.49457 9.05793 14.8889
3822 21 132 0.275615 11.2427 18.0314
3845 21 145 8.23776 -21.906 13.1593
3747 21 81 16.2335 -20.0438 11.8617
3750 21 84 11.2224 -8.03374 -9.16702
3853 21 153 14.0733 -1.42565 9.54884
3682 21 36 9.14385 -3.59478 0.700956
3696 21 46 8.08871 -1.88362 11.1576
3752 21 86 10.6792 -2.44492 16.2181
3726 21 68 8.98964 -0.503442 -1.98204
3816 21 126 10.3519 5.82873 -9.16848
3702 21 50 10.1781 -1.06901 7.36152
3780 21 102 11.6651 6.12281 13.5036
3654 21 16 15.2177 4.23534 15.3622
3878 21 166 10.445 7.54394 -5.97748
3844 21 144 16.8591 12.35 18.0441
ITEM: TIMESTEP
810000
ITEM: NUMBER OF ATOMS
48
ITEM: BOX BOUNDS pp pp pp
-1.8453201114460736e+01 1.6634181335535299e+01
-2.4359492538667567e+01 1.4132084296580160e+01
-9.4511384672932159e+00 2.0823797291175492e+01
ITEM: ATOMS id type mol x y z
3753 21 87 -17.6263 -20.9397 -2.16845
3815 21 125 -11.8539 -20.8172 11.8095
3660 21 20 -11.4714 -12.7347 17.0996
3851 21 151 -10.8694 1.43562 -3.26018
3854 21 154 -12.8483 5.57809 20.0967
3834 21 138 -12.5539 6.53161 0.249312
3865 21 161 -10.1089 12.1268 3.42192
3847 21 147 -9.72085 7.61732 2.21523
3764 21 94 -18.3325 7.12147 17.2098
3641 21 11 -15.2905 11.3607 17.7877
3848 21 148 -2.31103 -17.8843 0.0486042
3803 21 117 -3.93314 -17.8346 -8.48127
3664 21 24 -7.28178 -18.3929 -1.95843
3748 21 82 -4.96043 -20.8022 -1.70454
3810 21 122 -9.20225 -14.9059 15.6458
3781 21 103 -4.70299 -8.64281 7.13512
3839 21 141 -4.47749 -8.02019 2.87136
3846 21 146 -8.82197 -8.92812 19.9571
3671 21 29 -6.02601 1.58972 5.36423
3818 21 128 -9.02179 1.90125 6.22979
3760 21 92 -5.04705 -1.24478 15.7397
3693 21 43 -3.80229 8.24169 -9.03436
3666 21 26 7.45272 -22.717 -4.63267
3681 21 35 3.35457 -23.8705 6.65175
3835 21 139 0.330172 -12.3282 0.747974
3879 21 167 2.57243 -10.2985 8.97972
3855 21 155 7.24499 -3.54889 13.5728
3860 21 158 5.34114 -1.68449 15.7805
3861 21 159 0.295292 -1.07662 -1.70131
3799 21 115 2.07014 5.06602 2.2555
3791 21 109 2.01764 -0.67301 5.35374
3766 21 96 2.05527 0.312666 17.0621
3809 21 121 0.610523 -1.18491 19.9406
3751 21 85 5.4127 8.98553 14.9176
3822 21 132 0.260465 11.1592 18.0698
3845 21 145 8.12082 -21.8202 13.1826
3747 21 81 16.0144 -19.9675 11.8809
3750 21 84 11.0673 -8.01882 -9.21324
3853 21 153 13.8818 -1.44449 9.56086
3682 21 36 9.01533 -3.60254 0.685445
3696 21 46 7.97368 -1.90012 11.1746
3752 21 86 10.531 -2.45855 16.2509
3726 21 68 8.8631 -0.526993 -2.0059
3816 21 126 10.2079 5.77283 -9.21469
3702 21 50 10.0363 -1.08968 7.36673
3780 21 102 11.5044 6.06541 13.5279
3654 21 16 15.0115 4.18758 15.3923
3844 21 144 16.632 12.2608 18.0826
ITEM: TIMESTEP
815000
ITEM: NUMBER OF ATOMS
47
ITEM: BOX BOUNDS pp pp pp
-1.8557052181589874e+01 1.6738032402664437e+01
-2.4331716358536632e+01 1.4104308116449225e+01
-9.4806245790398869e+00 2.0853283402898846e+01
ITEM: ATOMS id type mol x y z
3753 21 87 -17.7253 -20.9168 -2.18375
3815 21 125 -11.9187 -20.7946 11.8215
3660 21 20 -11.5339 -12.7237 17.1219
3854 21 154 -12.919 5.56266 20.1247
3834 21 138 -12.6228 6.5148 0.238721
3865 21 161 -10.1634 12.102 3.41751
3847 21 147 -9.77301 7.59894 2.20847
3764 21 94 -18.4356 7.10382 17.2323
3641 21 11 -15.3757 11.3369 17.8112
3848 21 148 -2.31932 -17.8659 0.0376225
3803 21 117 -3.95104 -17.8162 -8.50887
3664 21 24 -7.3195 -18.3738 -1.97332
3748 21 82 -4.98441 -20.7796 -1.71894
3810 21 122 -9.25134 -14.8918 15.6652
3781 21 103 -4.72544 -8.63772 7.13794
3839 21 141 -4.49861 -8.016 2.86588
3846 21 146 -8.8688 -8.92261 19.9849
3671 21 29 -6.0563 1.58004 5.3636
3818 21 128 -9.06982 1.89113 6.23085
3760 21 92 -5.07154 -1.25036 15.7593
3693 21 43 -3.81941 8.22242 -9.06303
3880 21 168 -1.32455 8.86723 19.9429
3666 21 26 7.50222 -22.6916 -4.65277
3681 21 35 3.37981 -23.8434 6.65363
3835 21 139 0.33751 -12.3178 0.738354
3879 21 167 2.59305 -10.291 8.98614
3860 21 158 5.37815 -1.68944 15.8002
3861 21 159 0.302424 -1.08245 -1.7157
3799 21 115 2.08778 5.05133 2.24882
3791 21 109 2.03496 -0.679419 5.35309
3766 21 96 2.07282 0.304835 17.0843
3809 21 121 0.619521 -1.19058 19.9684
3751 21 85 5.45013 8.96518 14.9355
3822 21 132 0.267391 11.1357 18.0939
3845 21 145 8.17428 -21.7961 13.1972
3747 21 81 16.1146 -19.9461 11.893
3750 21 84 11.1382 -8.01463 -9.24226
3853 21 153 13.9694 -1.44979 9.56841
3682 21 36 9.07408 -3.60472 0.675704
3696 21 46 8.02626 -1.90476 11.1853
3752 21 86 10.5988 -2.46238 16.2715
3726 21 68 8.92095 -0.533613 -2.02088
3816 21 126 10.2737 5.75712 -9.24372
3702 21 50 10.1011 -1.09548 7.37001
3780 21 102 11.5778 6.04928 13.5432
3654 21 16 15.1058 4.17415 15.4112
3844 21 144 16.7358 12.2357 18.1067
ITEM: TIMESTEP
820000
ITEM: NUMBER OF ATOMS
47
ITEM: BOX BOUNDS pp pp pp
-1.8498266012517167e+01 1.6679246233591730e+01
-2.4561067620411148e+01 1.4333659378323741e+01
-9.3532349575453111e+00 2.0725893781410676e+01
ITEM: ATOMS id type mol x y z
3753 21 87 -17.6692 -21.1054 -2.11764
3815 21 125 -11.882 -20.9817 11.7699
3660 21 20 -11.4986 -12.8145 17.0258
3854 21 154 -12.879 5.69007 20.0035
3834 21 138 -12.5838 6.65358 0.284476
3865 21 161 -10.1325 12.3074 3.43657
3847 21 147 -9.74349 7.75066 2.23768
3764 21 94 -18.3773 7.24962 17.1353
3641 21 11 -15.3275 11.5332 17.7094
3848 21 148 -2.31463 -18.0181 0.0850669
3803 21 117 -3.94091 -17.9678 -8.38964
3664 21 24 -7.29815 -18.532 -1.90899
3748 21 82 -4.97084 -20.9665 -1.65674
3810 21 122 -9.22355 -15.0085 15.5813
3781 21 103 -4.71273 -8.67977 7.12575
3839 21 141 -4.48665 -8.05064 2.88957
3846 21 146 -8.84229 -8.96807 19.8648
3671 21 29 -6.03916 1.65993 5.36631
3818 21 128 -9.04263 1.97473 6.22628
3760 21 92 -5.05768 -1.20426 15.6747
3693 21 43 -3.80972 8.38157 -8.93915
3880 21 168 -1.32317 9.03408 19.8232
3666 21 26 7.4742 -22.9014 -4.56593
3681 21 35 3.36553 -24.0669 6.6455
3835 21 139 0.333356 -12.4038 0.779913
3879 21 167 2.58138 -10.3528 8.95842
3860 21 158 5.3572 -1.64858 15.7153
3861 21 159 0.298386 -1.03434 -1.65353
3799 21 115 2.07779 5.17264 2.27769
3791 21 109 2.02516 -0.626499 5.35589
3766 21 96 2.06288 0.369501 16.9886
3809 21 121 0.614428 -1.14376 19.8484
3751 21 85 5.42894 9.1332 14.8579
3822 21 132 0.26347 11.3296 17.9897
3845 21 145 8.14402 -21.9952 13.1341
3747 21 81 16.0579 -20.1231 11.8409
3750 21 84 11.098 -8.04925 -9.11687
3853 21 153 13.9198 -1.40606 9.5358
3682 21 36 9.04082 -3.58672 0.717789
3696 21 46 7.9965 -1.86646 11.1391
3752 21 86 10.5604 -2.43074 16.1826
3726 21 68 8.8882 -0.478953 -1.95615
3816 21 126 10.2365 5.88685 -9.11832
3702 21 50 10.0645 -1.04753 7.35587
3780 21 102 11.5362 6.1825 13.4772
3654 21 16 15.0524 4.285 15.3295
3844 21 144 16.6771 12.4428 18.0024
ITEM: TIMESTEP
825000
ITEM: NUMBER OF ATOMS
46
ITEM: BOX BOUNDS pp pp pp
-1.8562247705400278e+01 1.6743227926474841e+01
-2.4423225736468208e+01 1.4195817494380801e+01
-9.3880642842723638e+00 2.0760723108113439e+01
ITEM: ATOMS id type mol x y z
3753 21 87 -17.7302 -20.9921 -2.13572
3815 21 125 -11.9219 -20.8692 11.784
3660 21 20 -11.5371 -12.7599 17.0521
3854 21 154 -12.9225 5.6135 20.0366
3834 21 138 -12.6263 6.57017 0.271966
3865 21 161 -10.1661 12.1839 3.43136
3847 21 147 -9.77562 7.65948 2.22969
3764 21 94 -18.4408 7.16199 17.1618
3641 21 11 -15.3799 11.4153 17.7372
3848 21 148 -2.31974 -17.9266 0.0720952
3803 21 117 -3.95193 -17.8767 -8.42224
3664 21 24 -7.32139 -18.4369 -1.92658
3748 21 82 -4.98561 -20.8542 -1.67375
3810 21 122 -9.25379 -14.9383 15.6043
3839 21 141 -4.49966 -8.02982 2.88309
3846 21 146 -8.87115 -8.94075 19.8976
3671 21 29 -6.05782 1.61192 5.36557
3818 21 128 -9.07222 1.92448 6.22753
3760 21 92 -5.07277 -1.23197 15.6978
3693 21 43 -3.82027 8.28592 -8.97302
3881 21 169 -9.56539 10.7361 0.412614
3666 21 26 7.5047 -22.7753 -4.58967
3681 21 35 3.38108 -23.9326 6.64772
3835 21 139 0.337877 -12.3521 0.768551
3879 21 167 2.59408 -10.3157 8.966
3860 21 158 5.38 -1.67314 15.7385
3861 21 159 0.30278 -1.06325 -1.67053
3799 21 115 2.08866 5.09973 2.2698
3791 21 109 2.03583 -0.658305 5.35512
3766 21 96 2.0737 0.330636 17.0147
3809 21 121 0.619971 -1.1719 19.8812
3751 21 85 5.452 9.03222 14.8791
3822 21 132 0.267737 11.2131 18.0182
3845 21 145 8.17695 -21.8756 13.1514
3747 21 81 16.1196 -20.0167 11.8551
3750 21 84 11.1417 -8.02844 -9.15115
3853 21 153 13.9737 -1.43234 9.54472
3682 21 36 9.07702 -3.59754 0.706283
3696 21 46 8.02889 -1.88948 11.1517
3752 21 86 10.6021 -2.44976 16.2069
3726 21 68 8.92384 -0.511804 -1.97385
3816 21 126 10.277 5.80888 -9.1526
3702 21 50 10.1044 -1.07635 7.35973
3780 21 102 11.5815 6.10243 13.4953
3654 21 16 15.1105 4.21838 15.3518
3844 21 144 16.741 12.3183 18.0309
ITEM: TIMESTEP
830000
ITEM: NUMBER OF ATOMS
46
ITEM: BOX BOUNDS pp pp pp
-1.8496642568153316e+01 1.6677622789227879e+01
-2.4285062091128562e+01 1.4057653849041156e+01
-9.4272707721706439e+00 2.0799929595986512e+01
ITEM: ATOMS id type mol x y z
3753 21 87 -17.6677 -20.8785 -2.15606
3815 21 125 -11.881 -20.7565 11.7999
3660 21 20 -11.4976 -12.7052 17.0816
3854 21 154 -12.8778 5.53674 20.074
3834 21 138 -12.5827 6.48657 0.257884
3865 21 161 -10.1317 12.0602 3.42549
3847 21 147 -9.74267 7.56808 2.2207
3764 21 94 -18.3756 7.07416 17.1917
3641 21 11 -15.3261 11.297 17.7686
3848 21 148 -2.3145 -17.835 0.0574933
3803 21 117 -3.94063 -17.7854 -8.45893
3664 21 24 -7.29756 -18.3416 -1.94638
3748 21 82 -4.97046 -20.7415 -1.69289
3810 21 122 -9.22278 -14.868 15.6301
3839 21 141 -4.48632 -8.00895 2.8758
3846 21 146 -8.84156 -8.91336 19.9346
3671 21 29 -6.03868 1.56379 5.36474
3818 21 128 -9.04188 1.87412 6.22894
3760 21 92 -5.0573 -1.25974 15.7238
3693 21 43 -3.80945 8.19004 -9.01115
3881 21 169 -9.53322 10.6227 0.398898
3666 21 26 7.47343 -22.649 -4.6164
3681 21 35 3.36513 -23.7979 6.65022
3835 21 139 0.333241 -12.3003 0.75576
3879 21 167 2.58106 -10.2784 8.97453
3860 21 158 5.35662 -1.69776 15.7646
3861 21 159 0.298275 -1.09223 -1.68966
3799 21 115 2.07752 5.02666 2.26091
3791 21 109 2.02489 -0.690184 5.35426
3766 21 96 2.06261 0.291681 17.0442
3809 21 121 0.614287 -1.20011 19.9181
3751 21 85 5.42836 8.93101 14.903
3822 21 132 0.263362 11.0962 18.0503
3845 21 145 8.14318 -21.7556 13.1708
3747 21 81 16.0563 -19.9101 11.8712
3750 21 84 11.0969 -8.00758 -9.18974
3853 21 153 13.9184 -1.45868 9.55475
3682 21 36 9.03991 -3.60839 0.69333
3696 21 46 7.99567 -1.91255 11.1659
3752 21 86 10.5594 -2.46882 16.2342
3726 21 68 8.8873 -0.544732 -1.99377
3816 21 126 10.2354 5.73073 -9.1912
3702 21 50 10.0634 -1.10524 7.36408
3780 21 102 11.5351 6.02218 13.5156
3654 21 16 15.0509 4.15161 15.377
3844 21 144 16.6754 12.1936 18.063
ITEM: TIMESTEP
835000
ITEM: NUMBER OF ATOMS
47
ITEM: BOX BOUNDS pp pp pp
-1.8539712525301947e+01 1.6720692746376510e+01
-2.4382763662624761e+01 1.4155355420537354e+01
-9.4926992364673204e+00 2.0865358060252692e+01
ITEM: ATOMS id type mol x y z
3753 21 87 -17.7087 -20.9588 -2.19001
3815 21 125 -11.9079 -20.8362 11.8263
3660 21 20 -11.5235 -12.7439 17.131
3854 21 154 -12.9072 5.59102 20.1362
3834 21 138 -12.6113 6.54569 0.234384
3865 21 161 -10.1543 12.1477 3.4157
3847 21 147 -9.7643 7.63271 2.2057
3764 21 94 -18.4184 7.13627 17.2415
3641 21 11 -15.3615 11.3806 17.8209
3848 21 148 -2.31794 -17.8998 0.0331255
3803 21 117 -3.94805 -17.85 -8.52017
3664 21 24 -7.31321 -18.409 -1.97942
3748 21 82 -4.98041 -20.8212 -1.72483
3810 21 122 -9.24314 -14.9177 15.6731
3839 21 141 -4.49508 -8.02371 2.86363
3846 21 146 -8.86098 -8.93273 19.9962
3671 21 29 -6.05124 1.59782 5.36335
3818 21 128 -9.0618 1.90974 6.23129
3760 21 92 -5.06745 -1.2401 15.7673
3693 21 43 -3.81655 8.25784 -9.07477
3881 21 169 -9.55434 10.7029 0.376008
3666 21 26 7.49396 -22.7383 -4.661
3681 21 35 3.3756 -23.8931 6.6544
3835 21 139 0.336285 -12.337 0.734415
3879 21 167 2.5896 -10.3048 8.98876
3860 21 158 5.37197 -1.68035 15.8083
3861 21 159 0.301233 -1.07174 -1.72159
3799 21 115 2.08483 5.07833 2.24609
3791 21 109 2.03207 -0.667641 5.35282
3766 21 96 2.06989 0.319228 17.0934
3809 21 121 0.618019 -1.18016 19.9797
3751 21 85 5.44388 9.00258 14.9429
3885 21 171 5.23008 12.619 19.9789
3822 21 132 0.266234 11.1789 18.1038
3845 21 145 8.16535 -21.8404 13.2032
3747 21 81 16.0978 -19.9855 11.898
3750 21 84 11.1263 -8.02233 -9.25414
3853 21 153 13.9547 -1.44006 9.5715
3682 21 36 9.06427 -3.60072 0.671715
3696 21 46 8.01748 -1.89624 11.1896
3752 21 86 10.5875 -2.45534 16.2799
3726 21 68 8.91129 -0.521447 -2.02702
3816 21 126 10.2627 5.786 -9.25561
3702 21 50 10.0903 -1.08481 7.37135
3780 21 102 11.5656 6.07893 13.5495
3654 21 16 15.09 4.19882 15.4189
3844 21 144 16.7185 12.2818 18.1166
ITEM: TIMESTEP
840000
ITEM: NUMBER OF ATOMS
49
ITEM: BOX BOUNDS pp pp pp
-1.8567546488296554e+01 1.6748526709371117e+01
-2.4441787852073379e+01 1.4214379609985972e+01
-9.3354945706913384e+00 2.0708153394489983e+01
ITEM: ATOMS id type mol x y z
3753 21 87 -17.7353 -21.0073 -2.10844
3815 21 125 -11.9252 -20.8844 11.7628
3660 21 20 -11.5403 -12.7673 17.0125
3854 21 154 -12.9261 5.62381 19.9866
3834 21 138 -12.6298 6.5814 0.290848
3865 21 161 -10.1689 12.2006 3.43922
3847 21 147 -9.77828 7.67175 2.24175
3764 21 94 -18.4461 7.17379 17.1218
3641 21 11 -15.3843 11.4311 17.6952
3848 21 148 -2.32016 -17.939 0.091674
3803 21 117 -3.95285 -17.889 -8.37303
3664 21 24 -7.32332 -18.4497 -1.90003
3748 21 82 -4.98683 -20.8693 -1.64808
3810 21 122 -9.2563 -14.9478 15.5697
3839 21 141 -4.50074 -8.03262 2.89287
3846 21 146 -8.87354 -8.94443 19.848
3671 21 29 -6.05936 1.61838 5.36669
3818 21 128 -9.07467 1.93125 6.22564
3760 21 92 -5.07402 -1.22823 15.6629
3693 21 43 -3.82114 8.2988 -8.9219
3881 21 169 -9.56799 10.7513 0.431005
3666 21 26 7.50722 -22.7923 -4.55383
3681 21 35 3.38236 -23.9507 6.64437
3835 21 139 0.338252 -12.3591 0.785701
3879 21 167 2.59513 -10.3207 8.95456
3887 21 173 7.05232 -3.11207 13.899
3860 21 158 5.38188 -1.66983 15.7034
3861 21 159 0.303144 -1.05936 -1.64487
3799 21 115 2.08956 5.10955 2.28171
3791 21 109 2.03672 -0.654022 5.35628
3766 21 96 2.07459 0.33587 16.9752
3809 21 121 0.62043 -1.16811 19.8317
3751 21 85 5.45391 9.04582 14.847
3885 21 171 5.23978 12.6733 19.8309
3822 21 132 0.268091 11.2288 17.9752
3845 21 145 8.17968 -21.8917 13.1253
3747 21 81 16.1247 -20.0311 11.8336
3750 21 84 11.1453 -8.03124 -9.09941
3853 21 153 13.9782 -1.4288 9.53126
3682 21 36 9.08002 -3.59608 0.72365
3696 21 46 8.03158 -1.88638 11.1327
3752 21 86 10.6056 -2.4472 16.1702
3726 21 68 8.92679 -0.50738 -1.94713
3816 21 126 10.2804 5.81938 -9.10086
3702 21 50 10.1077 -1.07247 7.3539
3780 21 102 11.5853 6.11321 13.468
3654 21 16 15.1153 4.22735 15.3181
3886 21 172 8.14724 -0.17713 15.6868
3844 21 144 16.7463 12.3351 17.9879
ITEM: TIMESTEP
845000
ITEM: NUMBER OF ATOMS
48
ITEM: BOX BOUNDS pp pp pp
-1.8661472414112737e+01 1.6842452635187300e+01
-2.4344349604388718e+01 1.4116941362301311e+01
-9.3825538873626932e+00 2.0755212711134675e+01
ITEM: ATOMS id type mol x y z
3753 21 87 -17.8248 -20.9272 -2.13286
3815 21 125 -11.9838 -20.8049 11.7818
3660 21 20 -11.5968 -12.7287 17.0479
3854 21 154 -12.99 5.56968 20.0314
3834 21 138 -12.6921 6.52244 0.273946
3865 21 161 -10.2181 12.1133 3.43218
3847 21 147 -9.82546 7.6073 2.23096
3764 21 94 -18.5393 7.11185 17.1576
3641 21 11 -15.4613 11.3477 17.7328
3848 21 148 -2.32766 -17.8743 0.0741475
3803 21 117 -3.96903 -17.8246 -8.41708
3664 21 24 -7.35743 -18.3825 -1.92379
3748 21 82 -5.00852 -20.7899 -1.67106
3810 21 122 -9.30069 -14.8982 15.6006
3839 21 141 -4.51984 -8.01791 2.88411
3846 21 146 -8.9159 -8.92511 19.8924
3671 21 29 -6.08675 1.58444 5.36569
3818 21 128 -9.1181 1.89573 6.22733
3760 21 92 -5.09617 -1.24782 15.6941
3693 21 43 -3.83663 8.23118 -8.96766
3881 21 169 -9.61404 10.6713 0.414542
3681 21 35 3.40519 -23.8557 6.64737
3835 21 139 0.344889 -12.3226 0.770348
3879 21 167 2.61377 -10.2944 8.9648
3887 21 173 7.09467 -3.12216 13.9247
3860 21 158 5.41535 -1.68719 15.7348
3861 21 159 0.309595 -1.0798 -1.66784
3799 21 115 2.10551 5.05801 2.27105
3791 21 109 2.05239 -0.676504 5.35524
3766 21 96 2.09047 0.308397 17.0106
3809 21 121 0.628568 -1.18801 19.876
3751 21 85 5.48776 8.97444 14.8757
3885 21 171 5.27249 12.5836 19.8752
3822 21 132 0.274354 11.1464 18.0137
3845 21 145 8.22803 -21.8071 13.1486
3747 21 81 16.2153 -19.9559 11.8529
3750 21 84 11.2094 -8.01653 -9.14573
3853 21 153 14.0574 -1.44738 9.54331
3682 21 36 9.13315 -3.60373 0.708103
3696 21 46 8.07914 -1.90265 11.1497
3752 21 86 10.6669 -2.46064 16.203
3726 21 68 8.97911 -0.530602 -1.97105
3816 21 126 10.3399 5.76427 -9.14718
3702 21 50 10.1663 -1.09284 7.35912
3780 21 102 11.6517 6.05661 13.4924
3654 21 16 15.2005 4.18026 15.3483
3886 21 172 8.19541 -0.202017 15.7182
3844 21 144 16.8402 12.2471 18.0264
ITEM: TIMESTEP
850000
ITEM: NUMBER OF ATOMS
48
ITEM: BOX BOUNDS pp pp pp
-1.8572446390544957e+01 1.6753426611619521e+01
-2.4305673806087121e+01 1.4078265563999715e+01
-9.5032673001098118e+00 2.0875926123839989e+01
ITEM: ATOMS id type mol x y z
3753 21 87 -17.7399 -20.8954 -2.1955
3815 21 125 -11.9283 -20.7733 11.8306
3660 21 20 -11.5432 -12.7134 17.1389
3854 21 154 -12.9294 5.54819 20.1463
3834 21 138 -12.633 6.49904 0.230588
3865 21 161 -10.1714 12.0786 3.41412
3847 21 147 -9.78074 7.58172 2.20328
3764 21 94 -18.4509 7.08726 17.2495
3641 21 11 -15.3883 11.3146 17.8293
3848 21 148 -2.32055 -17.8486 0.0291896
3803 21 117 -3.95369 -17.799 -8.53006
3664 21 24 -7.3251 -18.3558 -1.98476
3748 21 82 -4.98796 -20.7583 -1.72999
3810 21 122 -9.25861 -14.8785 15.6801
3839 21 141 -4.50174 -8.01207 2.86167
3846 21 146 -8.87575 -8.91745 20.0062
3671 21 29 -6.06079 1.57097 5.36312
3818 21 128 -9.07693 1.88164 6.23167
3760 21 92 -5.07517 -1.2556 15.7743
3693 21 43 -3.82195 8.20435 -9.08505
3881 21 169 -9.57039 10.6396 0.37231
3681 21 35 3.38356 -23.818 6.65507
3835 21 139 0.338598 -12.3081 0.730968
3879 21 167 2.5961 -10.284 8.99106
3887 21 173 7.05453 -3.12617 13.9907
3860 21 158 5.38363 -1.69408 15.8153
3861 21 159 0.303481 -1.08791 -1.72675
3799 21 115 2.09039 5.03756 2.24369
3791 21 109 2.03753 -0.685428 5.35259
3766 21 96 2.07542 0.297492 17.1013
3809 21 121 0.620855 -1.1959 19.9897
3751 21 85 5.45568 8.94611 14.9494
3885 21 171 5.24148 12.548 19.9889
3822 21 132 0.268417 11.1137 18.1125
3845 21 145 8.1822 -21.7735 13.2084
3747 21 81 16.1294 -19.926 11.9023
3750 21 84 11.1487 -8.01069 -9.26455
3853 21 153 13.9823 -1.45475 9.5742
3682 21 36 9.08279 -3.60677 0.668224
3696 21 46 8.03406 -1.90911 11.1935
3752 21 86 10.6088 -2.46598 16.2873
3726 21 68 8.92952 -0.53982 -2.03239
3816 21 126 10.2835 5.74239 -9.26601
3702 21 50 10.1107 -1.10093 7.37252
3780 21 102 11.5887 6.03415 13.5549
3654 21 16 15.1197 4.16157 15.4257
3886 21 172 8.14975 -0.211895 15.7985
3844 21 144 16.7512 12.2122 18.1253
ITEM: TIMESTEP
855000
ITEM: NUMBER OF ATOMS
49
ITEM: BOX BOUNDS pp pp pp
-1.8556254624645018e+01 1.6737234845719581e+01
-2.4412250265697327e+01 1.4184842023609921e+01
-9.4898725930454511e+00 2.0862531416760493e+01
ITEM: ATOMS id type mol x y z
3753 21 87 -17.7245 -20.983 -2.18855
3815 21 125 -11.9182 -20.8603 11.8252
3660 21 20 -11.5335 -12.7556 17.1288
3854 21 154 -12.9184 5.6074 20.1336
3834 21 138 -12.6223 6.56353 0.235399
3865 21 161 -10.163 12.1741 3.41613
3847 21 147 -9.77261 7.65222 2.20635
3764 21 94 -18.4348 7.15501 17.2393
3641 21 11 -15.375 11.4059 17.8186
3848 21 148 -2.31926 -17.9194 0.0341782
3803 21 117 -3.9509 -17.8695 -8.51752
3664 21 24 -7.31921 -18.4293 -1.97799
3748 21 82 -4.98423 -20.8452 -1.72345
3810 21 122 -9.25096 -14.9327 15.6712
3839 21 141 -4.49845 -8.02816 2.86416
3846 21 146 -8.86845 -8.93857 19.9936
3671 21 29 -6.05607 1.6081 5.36341
3818 21 128 -9.06945 1.92048 6.23118
3888 21 174 -7.85784 0.918995 3.33393
3760 21 92 -5.07136 -1.23417 15.7654
3693 21 43 -3.81928 8.2783 -9.07202
3881 21 169 -9.56245 10.7271 0.376997
3889 21 175 -2.11413 8.42239 13.4309
3681 21 35 3.37962 -23.9219 6.65422
3835 21 139 0.337454 -12.348 0.735337
3879 21 167 2.59289 -10.3127 8.98815
3887 21 173 7.04723 -3.11513 13.9834
3860 21 158 5.37786 -1.67509 15.8064
3799 21 115 2.08764 5.09393 2.24673
3791 21 109 2.03483 -0.660837 5.35289
3766 21 96 2.07268 0.327541 17.0912
3809 21 121 0.619452 -1.17414 19.9771
3751 21 85 5.44984 9.02418 14.9412
3885 21 171 5.23585 12.6461 19.9762
3822 21 132 0.267338 11.2038 18.1015
3845 21 145 8.17387 -21.866 13.2018
3747 21 81 16.1138 -20.0083 11.8968
3750 21 84 11.1376 -8.02678 -9.25136
3853 21 153 13.9687 -1.43443 9.57078
3682 21 36 9.07363 -3.5984 0.672649
3696 21 46 8.02586 -1.89131 11.1886
3752 21 86 10.5982 -2.45127 16.2779
3726 21 68 8.9205 -0.51442 -2.02558
3816 21 126 10.2732 5.80267 -9.25282
3702 21 50 10.1006 -1.07865 7.37103
3780 21 102 11.5773 6.09605 13.548
3654 21 16 15.105 4.21307 15.4171
3886 21 172 8.14145 -0.184674 15.7896
3844 21 144 16.735 12.3084 18.1143
ITEM: TIMESTEP
860000
ITEM: NUMBER OF ATOMS
48
ITEM: BOX BOUNDS pp pp pp
-1.8518883676629773e+01 1.6699863897704336e+01
-2.4330375852321652e+01 1.4102967610234245e+01
-9.5042969731478877e+00 2.0876955796842111e+01
ITEM: ATOMS id type mol x y z
3753 21 87 -17.6889 -20.9157 -2.19603
3815 21 125 -11.8949 -20.7935 11.831
3660 21 20 -11.511 -12.7231 17.1397
3854 21 154 -12.893 5.56192 20.1473
3834 21 138 -12.5975 6.51399 0.230218
3865 21 161 -10.1434 12.1008 3.41397
3847 21 147 -9.75384 7.59806 2.20304
3764 21 94 -18.3977 7.10296 17.2503
3641 21 11 -15.3444 11.3358 17.8301
3848 21 148 -2.31627 -17.865 0.0288061
3803 21 117 -3.94446 -17.8154 -8.53102
3664 21 24 -7.30564 -18.3728 -1.98528
3748 21 82 -4.9756 -20.7785 -1.7305
3810 21 122 -9.23329 -14.8911 15.6807
3890 21 176 -1.0057 -1.40965 -0.669835
3839 21 141 -4.49084 -8.0158 2.86148
3846 21 146 -8.85159 -8.92235 20.0072
3671 21 29 -6.04517 1.57958 5.3631
3818 21 128 -9.05217 1.89064 6.2317
3760 21 92 -5.06254 -1.25063 15.775
3693 21 43 -3.81312 8.22149 -9.08605
3881 21 169 -9.54413 10.6599 0.37195
3889 21 175 -2.11158 8.36496 13.4383
3681 21 35 3.37054 -23.8421 6.65514
3835 21 139 0.334813 -12.3173 0.730632
3879 21 167 2.58547 -10.2906 8.99129
3887 21 173 7.03038 -3.12361 13.9913
3799 21 115 2.0813 5.05062 2.24346
3791 21 109 2.0286 -0.679728 5.35257
3766 21 96 2.06637 0.304457 17.1021
3809 21 121 0.616214 -1.19086 19.9907
3751 21 85 5.43637 8.9642 14.95
3885 21 171 5.22283 12.5708 19.9898
3822 21 132 0.264845 11.1346 18.1133
3845 21 145 8.15463 -21.795 13.2089
3747 21 81 16.0777 -19.9451 11.9027
3750 21 84 11.1121 -8.01442 -9.26556
3853 21 153 13.9372 -1.45004 9.57447
3682 21 36 9.05249 -3.60483 0.667884
3696 21 46 8.00694 -1.90498 11.1939
3752 21 86 10.5739 -2.46257 16.288
3726 21 68 8.89969 -0.533932 -2.03291
3816 21 126 10.2495 5.75636 -9.26702
3702 21 50 10.0773 -1.09576 7.37264
3780 21 102 11.5508 6.0485 13.5555
3654 21 16 15.0711 4.17351 15.4264
3886 21 172 8.12228 -0.205586 15.7992
3844 21 144 16.6977 12.2345 18.1261
ITEM: TIMESTEP
865000
ITEM: NUMBER OF ATOMS
48
ITEM: BOX BOUNDS pp pp pp
-1.8475534353253455e+01 1.6656514574328018e+01
-2.4382998128292250e+01 1.4155589886204844e+01
-9.5017770303249236e+00 2.0874435854001970e+01
ITEM: ATOMS id type mol x y z
3753 21 87 -17.6476 -20.959 -2.19472
3815 21 125 -11.8678 -20.8364 11.83
3660 21 20 -11.4849 -12.744 17.1378
3854 21 154 -12.8635 5.59115 20.1449
3834 21 138 -12.5687 6.54583 0.231123
3865 21 161 -10.1206 12.1479 3.41435
3847 21 147 -9.73207 7.63287 2.20362
3764 21 94 -18.3547 7.13642 17.2484
3641 21 11 -15.3088 11.3808 17.8281
3848 21 148 -2.31281 -17.8999 0.0297446
3803 21 117 -3.93699 -17.8501 -8.52866
3664 21 24 -7.2899 -18.4091 -1.984
3748 21 82 -4.96559 -20.8214 -1.72927
3810 21 122 -9.2128 -14.9179 15.6791
3890 21 176 -1.00546 -1.39951 -0.668781
3839 21 141 -4.48203 -8.02374 2.86194
3846 21 146 -8.83204 -8.93277 20.0048
3671 21 29 -6.03253 1.59791 5.36315
3818 21 128 -9.03212 1.90982 6.23161
3760 21 92 -5.05232 -1.24005 15.7733
3693 21 43 -3.80597 8.258 -9.0836
3881 21 169 -9.52287 10.7031 0.372832
3889 21 175 -2.10862 8.40187 13.437
3681 21 35 3.36 -23.8934 6.65498
3835 21 139 0.33175 -12.3371 0.731454
3879 21 167 2.57687 -10.3048 8.99074
3887 21 173 7.01083 -3.11816 13.9899
3799 21 115 2.07393 5.07846 2.24403
3791 21 109 2.02136 -0.667587 5.35262
3766 21 96 2.05904 0.319294 17.1002
3809 21 121 0.612458 -1.18012 19.9883
3751 21 85 5.42075 9.00275 14.9484
3885 21 171 5.20774 12.6192 19.9875
3822 21 132 0.261954 11.1791 18.1112
3845 21 145 8.13232 -21.8406 13.2077
3747 21 81 16.0359 -19.9857 11.9017
3750 21 84 11.0825 -8.02237 -9.26308
3853 21 153 13.9006 -1.44001 9.57382
3682 21 36 9.02796 -3.6007 0.668716
3696 21 46 7.98499 -1.8962 11.1929
3752 21 86 10.5456 -2.45531 16.2862
3726 21 68 8.87554 -0.521391 -2.03163
3816 21 126 10.222 5.78613 -9.26454
3702 21 50 10.0503 -1.08476 7.37236
3780 21 102 11.5202 6.07906 13.5542
3654 21 16 15.0318 4.19894 15.4247
3886 21 172 8.10005 -0.192145 15.7975
3844 21 144 16.6543 12.282 18.124
ITEM: TIMESTEP
870000
ITEM: NUMBER OF ATOMS
48
ITEM: BOX BOUNDS pp pp pp
-1.8378304389433808e+01 1.6559284610508371e+01
-2.4379347663525767e+01 1.4151939421438360e+01
-9.5287826125882269e+00 2.0901441436241829e+01
ITEM: ATOMS id type mol x y z
3753 21 87 -17.5549 -20.956 -2.20874
3815 21 125 -11.8072 -20.8334 11.8409
3660 21 20 -11.4263 -12.7425 17.1582
3854 21 154 -12.7973 5.58912 20.1706
3834 21 138 -12.5042 6.54362 0.221424
3865 21 161 -10.0696 12.1446 3.41031
3847 21 147 -9.68324 7.63045 2.19743
3764 21 94 -18.2581 7.1341 17.2689
3641 21 11 -15.2291 11.3777 17.8497
3848 21 148 -2.30504 -17.8975 0.0196868
3803 21 117 -3.92023 -17.8477 -8.55394
3664 21 24 -7.25458 -18.4066 -1.99764
3748 21 82 -4.94314 -20.8184 -1.74245
3810 21 122 -9.16684 -14.916 15.6968
3890 21 176 -1.00493 -1.40021 -0.680081
3839 21 141 -4.46225 -8.02319 2.85692
3846 21 146 -8.78819 -8.93205 20.0303
3671 21 29 -6.00417 1.59663 5.36258
3818 21 128 -8.98716 1.90849 6.23258
3760 21 92 -5.02939 -1.24079 15.7913
3693 21 43 -3.78994 8.25547 -9.10986
3881 21 169 -9.47519 10.7001 0.363384
3889 21 175 -2.10198 8.39931 13.4508
3681 21 35 3.33637 -23.8898 6.6567
3835 21 139 0.324879 -12.3357 0.722644
3879 21 167 2.55757 -10.3038 8.99661
3887 21 173 6.96699 -3.11854 14.0046
3799 21 115 2.05742 5.07653 2.23791
3791 21 109 2.00514 -0.668429 5.35203
3766 21 96 2.04261 0.318265 17.1205
3809 21 121 0.604034 -1.18086 20.0137
3751 21 85 5.38571 9.00008 14.9649
3885 21 171 5.17388 12.6158 20.0129
3822 21 132 0.25547 11.176 18.1333
3845 21 145 8.08227 -21.8375 13.221
3747 21 81 15.9421 -19.9829 11.9127
3750 21 84 11.0161 -8.02182 -9.28966
3853 21 153 13.8186 -1.44071 9.58073
3682 21 36 8.97296 -3.60098 0.659795
3696 21 46 7.93575 -1.89681 11.2027
3752 21 86 10.4822 -2.45581 16.3051
3726 21 68 8.82138 -0.522261 -2.04535
3816 21 126 10.1604 5.78406 -9.29113
3702 21 50 9.98961 -1.08552 7.37535
3780 21 102 11.4514 6.07694 13.5681
3654 21 16 14.9436 4.19717 15.4421
3886 21 172 8.05018 -0.193078 15.8155
3844 21 144 16.5571 12.2787 18.1462
ITEM: TIMESTEP
875000
ITEM: NUMBER OF ATOMS
50
ITEM: BOX BOUNDS pp pp pp
-1.8401537804109161e+01 1.6582518025183724e+01
-2.4414473144577190e+01 1.4187064902489784e+01
-9.5703039008629673e+00 2.0942962724490211e+01
ITEM: ATOMS id type mol x y z
3753 21 87 -17.5771 -20.9849 -2.23028
3815 21 125 -11.8217 -20.8621 11.8577
3660 21 20 -11.4403 -12.7564 17.1895
3854 21 154 -12.8131 5.60863 20.2101
3834 21 138 -12.5196 6.56488 0.20651
3865 21 161 -10.0818 12.1761 3.4041
3847 21 147 -9.6949 7.65369 2.18791
3764 21 94 -18.2812 7.15643 17.3005
3641 21 11 -15.2482 11.4078 17.8829
3848 21 148 -2.3069 -17.9208 0.00422278
3803 21 117 -3.92423 -17.8709 -8.5928
3664 21 24 -7.26302 -18.4309 -2.01861
3748 21 82 -4.9485 -20.847 -1.76272
3810 21 122 -9.17782 -14.9339 15.7242
3890 21 176 -1.00506 -1.39344 -0.697454
3839 21 141 -4.46698 -8.0285 2.8492
3846 21 146 -8.79867 -8.93901 20.0694
3671 21 29 -6.01095 1.60887 5.36169
3818 21 128 -8.99791 1.92129 6.23407
3760 21 92 -5.03487 -1.23372 15.8188
3693 21 43 -3.79377 8.27985 -9.15024
3881 21 169 -9.48659 10.7289 0.348858
3889 21 175 -2.10357 8.42395 13.4719
3681 21 35 3.34201 -23.924 6.65935
3835 21 139 0.326521 -12.3489 0.709098
3879 21 167 2.56218 -10.3133 9.00565
3887 21 173 6.97747 -3.1149 14.0273
3799 21 115 2.06137 5.09511 2.2285
3791 21 109 2.00902 -0.660324 5.35112
3766 21 96 2.04654 0.328168 17.1517
3809 21 121 0.606047 -1.17369 20.0528
3891 21 177 5.84359 7.12299 0.225614
3751 21 85 5.39409 9.02581 14.9902
3885 21 171 5.18197 12.6482 20.052
3822 21 132 0.25702 11.2057 18.1673
3892 21 178 16.4286 -22.1186 9.33791
3845 21 145 8.09423 -21.868 13.2416
3747 21 81 15.9645 -20.01 11.9297
3750 21 84 11.032 -8.02712 -9.33053
3853 21 153 13.8382 -1.43401 9.59136
3682 21 36 8.9861 -3.59823 0.646077
3696 21 46 7.94752 -1.89094 11.2178
3752 21 86 10.4973 -2.45097 16.334
3726 21 68 8.83432 -0.51389 -2.06645
3816 21 126 10.1752 5.80393 -9.332
3702 21 50 10.0041 -1.07818 7.37996
3780 21 102 11.4678 6.09735 13.5897
3654 21 16 14.9646 4.21415 15.4687
3886 21 172 8.06209 -0.184106 15.8432
3844 21 144 16.5803 12.3104 18.1802
ITEM: TIMESTEP
880000
ITEM: NUMBER OF ATOMS
49
ITEM: BOX BOUNDS pp pp pp
-1.8581726089606672e+01 1.6762706310681235e+01
-2.4330550086614288e+01 1.4103141844526881e+01
-9.5159652037934492e+00 2.0888624027414046e+01
ITEM: ATOMS id type mol x y z
3753 21 87 -17.7488 -20.9159 -2.20208
3815 21 125 -11.9341 -20.7936 11.8358
3660 21 20 -11.5488 -12.7232 17.1485
3854 21 154 -12.9357 5.56201 20.1584
3834 21 138 -12.6392 6.5141 0.226027
3865 21 161 -10.1763 12.1009 3.41222
3847 21 147 -9.7854 7.59817 2.20037
3764 21 94 -18.4601 7.10308 17.2592
3641 21 11 -15.3959 11.3359 17.8395
3848 21 148 -2.32129 -17.8651 0.0244604
3803 21 117 -3.95529 -17.8155 -8.54194
3664 21 24 -7.32847 -18.373 -1.99117
3748 21 82 -4.99011 -20.7786 -1.73619
3810 21 122 -9.263 -14.8912 15.6884
3890 21 176 -1.00604 -1.40962 -0.674718
3839 21 141 -4.50363 -8.01582 2.85931
3846 21 146 -8.87993 -8.92238 20.0182
3671 21 29 -6.0635 1.57964 5.36285
3818 21 128 -9.08123 1.8907 6.23212
3760 21 92 -5.07736 -1.2506 15.7827
3693 21 43 -3.82348 8.22161 -9.0974
3881 21 169 -9.57494 10.66 0.367868
3889 21 175 -2.11587 8.36508 13.4442
3681 21 35 3.38581 -23.8423 6.65588
3835 21 139 0.339254 -12.3174 0.726825
3879 21 167 2.59794 -10.2907 8.99383
3887 21 173 7.05871 -3.12359 13.9976
3799 21 115 2.09197 5.05072 2.24081
3791 21 109 2.03908 -0.679688 5.35231
3766 21 96 2.07699 0.304506 17.1109
3809 21 121 0.621659 -1.19082 20.0016
3891 21 177 5.91316 7.06978 0.245063
3751 21 85 5.45902 8.96433 14.9571
3885 21 171 5.24472 12.5709 20.0008
3822 21 132 0.269036 11.1347 18.1228
3845 21 145 8.18698 -21.7951 13.2147
3747 21 81 16.1384 -19.9452 11.9075
3750 21 84 11.155 -8.01445 -9.27704
3853 21 153 13.9902 -1.45001 9.57745
3682 21 36 9.08804 -3.60482 0.664029
3696 21 46 8.03876 -1.90496 11.1981
3752 21 86 10.6149 -2.46254 16.2961
3726 21 68 8.93469 -0.533891 -2.03884
3816 21 126 10.2893 5.75646 -9.27851
3702 21 50 10.1165 -1.09573 7.37393
3780 21 102 11.5953 6.0486 13.5615
3654 21 16 15.1282 4.17359 15.4338
3886 21 172 8.15451 -0.205541 15.807
3844 21 144 16.7605 12.2346 18.1357
ITEM: TIMESTEP
885000
ITEM: NUMBER OF ATOMS
49
ITEM: BOX BOUNDS pp pp pp
-1.8647804910834662e+01 1.6828785131909225e+01
-2.4236583349346930e+01 1.4009175107259523e+01
-9.4882581119439777e+00 2.0860916935552527e+01
ITEM: ATOMS id type mol x y z
3753 21 87 -17.8117 -20.8386 -2.18771
3815 21 125 -11.9753 -20.7169 11.8246
3660 21 20 -11.5886 -12.686 17.1276
3854 21 154 -12.9807 5.50981 20.132
3834 21 138 -12.683 6.45724 0.235979
3865 21 161 -10.211 12.0167 3.41637
3847 21 147 -9.81859 7.53601 2.20672
3764 21 94 -18.5258 7.04334 17.2381
3641 21 11 -15.4501 11.2555 17.8173
3848 21 148 -2.32657 -17.8028 0.0347795
3803 21 117 -3.96668 -17.7534 -8.51601
3664 21 24 -7.35247 -18.3081 -1.97718
3748 21 82 -5.00537 -20.702 -1.72267
3810 21 122 -9.29423 -14.8434 15.6702
3890 21 176 -1.0064 -1.42773 -0.663124
3839 21 141 -4.51706 -8.00163 2.86446
3846 21 146 -8.90974 -8.90376 19.9921
3671 21 29 -6.08277 1.54691 5.36344
3818 21 128 -9.11178 1.85645 6.23113
3760 21 92 -5.09295 -1.26949 15.7643
3693 21 43 -3.83438 8.1564 -9.07045
3881 21 169 -9.60734 10.5829 0.377561
3889 21 175 -2.12038 8.29917 13.4301
3681 21 35 3.40187 -23.7507 6.65411
3835 21 139 0.343923 -12.2822 0.735864
3879 21 167 2.61106 -10.2654 8.9878
3887 21 173 7.08851 -3.13332 13.9825
3791 21 109 2.05011 -0.70137 5.35292
3896 21 180 7.1288 0.225346 12.7205
3766 21 96 2.08816 0.278012 17.09
3809 21 121 0.627384 -1.21 19.9756
3891 21 177 5.93867 7.01021 0.25498
3751 21 85 5.48283 8.89549 14.9402
3885 21 171 5.26773 12.4845 19.9747
3822 21 132 0.273443 11.0553 18.1002
3845 21 145 8.22099 -21.7135 13.201
3747 21 81 16.2021 -19.8727 11.8961
3750 21 84 11.2001 -8.00027 -9.24977
3853 21 153 14.0459 -1.46793 9.57036
3682 21 36 9.12542 -3.61219 0.673182
3696 21 46 8.07222 -1.92065 11.188
3752 21 86 10.6579 -2.47551 16.2768
3726 21 68 8.9715 -0.556285 -2.02476
3816 21 126 10.3312 5.70331 -9.25123
3702 21 50 10.1578 -1.11537 7.37085
3780 21 102 11.6421 5.99402 13.5472
3654 21 16 15.1881 4.12818 15.4161
3886 21 172 8.1884 -0.229541 15.7885
3844 21 144 16.8266 12.1498 18.113
ITEM: TIMESTEP
890000
ITEM: NUMBER OF ATOMS
48
ITEM: BOX BOUNDS pp pp pp
-1.8511340353929278e+01 1.6692320575003841e+01
-2.4427390293471955e+01 1.4199982051384548e+01
-9.4659573910870769e+00 2.0838616214682720e+01
ITEM: ATOMS id type mol x y z
3753 21 87 -17.6817 -20.9955 -2.17614
3815 21 125 -11.8902 -20.8726 11.8155
3660 21 20 -11.5064 -12.7615 17.1108
3854 21 154 -12.8878 5.61581 20.1108
3834 21 138 -12.5925 6.57269 0.243989
3865 21 161 -10.1394 12.1877 3.4197
3847 21 147 -9.75005 7.66223 2.21183
3764 21 94 -18.3902 7.16464 17.2211
3641 21 11 -15.3382 11.4188 17.7995
3848 21 148 -2.31567 -17.9294 0.0430851
3803 21 117 -3.94316 -17.8795 -8.49514
3664 21 24 -7.3029 -18.4398 -1.96591
3748 21 82 -4.97386 -20.8576 -1.71178
3810 21 122 -9.22973 -14.9404 15.6555
3890 21 176 -1.00566 -1.39095 -0.653793
3839 21 141 -4.48931 -8.03045 2.86861
3846 21 146 -8.84819 -8.94157 19.971
3671 21 29 -6.04297 1.61337 5.36391
3818 21 128 -9.04868 1.926 6.23033
3760 21 92 -5.06076 -1.23113 15.7495
3881 21 169 -9.54043 10.7395 0.385363
3889 21 175 -2.11107 8.43301 13.4187
3681 21 35 3.3687 -23.9366 6.65269
3835 21 139 0.33428 -12.3537 0.743139
3879 21 167 2.58397 -10.3168 8.98295
3887 21 173 7.02697 -3.11356 13.9703
3791 21 109 2.02734 -0.657344 5.35341
3896 21 180 7.06696 0.278619 12.7102
3766 21 96 2.06509 0.33181 17.0733
3809 21 121 0.615561 -1.17105 19.9546
3891 21 177 5.88598 7.13118 0.262962
3751 21 85 5.43366 9.03527 14.9266
3885 21 171 5.2202 12.6601 19.9537
3822 21 132 0.264342 11.2166 18.0819
3845 21 145 8.15075 -21.8792 13.1899
3747 21 81 16.0705 -20.0199 11.887
3750 21 84 11.107 -8.02907 -9.22782
3853 21 153 13.9308 -1.43155 9.56465
3682 21 36 9.04822 -3.59721 0.68055
3696 21 46 8.00312 -1.88879 11.18
3752 21 86 10.569 -2.44918 16.2612
3726 21 68 8.89548 -0.510812 -2.01343
3816 21 126 10.2447 5.81124 -9.22928
3702 21 50 10.0726 -1.07548 7.36838
3780 21 102 11.5455 6.10485 13.5356
3654 21 16 15.0643 4.22039 15.4018
3886 21 172 8.11841 -0.180807 15.7737
3844 21 144 16.6901 12.3221 18.0947
ITEM: TIMESTEP
895000
ITEM: NUMBER OF ATOMS
50
ITEM: BOX BOUNDS pp pp pp
-1.8567678807908031e+01 1.6748659028982594e+01
-2.4303074269497088e+01 1.4075666027409682e+01
-9.5845781207101446e+00 2.0957236944263215e+01
ITEM: ATOMS id type mol x y z
3753 21 87 -17.7354 -20.8933 -2.23769
3900 21 182 -17.9833 -20.2902 1.31132
3815 21 125 -11.9253 -20.7712 11.8635
3901 21 183 -17.9324 -11.8271 7.48614
3660 21 20 -11.5403 -12.7123 17.2003
3854 21 154 -12.9262 5.54675 20.2237
3834 21 138 -12.6299 6.49747 0.201383
3865 21 161 -10.1689 12.0763 3.40196
3847 21 147 -9.77835 7.58 2.18463
3764 21 94 -18.4462 7.08561 17.3114
3641 21 11 -15.3844 11.3124 17.8943
3848 21 148 -2.32017 -17.8469 -0.00109345
3803 21 117 -3.95287 -17.7973 -8.60616
3664 21 24 -7.32336 -18.354 -2.02582
3748 21 82 -4.98686 -20.7562 -1.76969
3810 21 122 -9.25636 -14.8772 15.7335
3890 21 176 -1.00597 -1.41492 -0.703427
3839 21 141 -4.50077 -8.01167 2.84655
3846 21 146 -8.8736 -8.91693 20.0829
3671 21 29 -6.0594 1.57007 5.36139
3818 21 128 -9.07473 1.88069 6.23458
3760 21 92 -5.07405 -1.25612 15.8283
3881 21 169 -9.56805 10.6375 0.343864
3889 21 175 -2.11491 8.34581 13.4792
3681 21 35 3.3824 -23.8155 6.66026
3835 21 139 0.338261 -12.3071 0.704441
3879 21 167 2.59515 -10.2833 9.00875
3887 21 173 7.05238 -3.12644 14.0351
3791 21 109 2.03674 -0.686028 5.3508
3896 21 180 7.09249 0.24391 12.7652
3766 21 96 2.07461 0.296759 17.1624
3809 21 121 0.620442 -1.19643 20.0663
3891 21 177 5.90773 7.05236 0.220505
3751 21 85 5.45396 8.9442 14.9989
3885 21 171 5.23982 12.5457 20.0654
3822 21 132 0.268099 11.1115 18.179
3845 21 145 8.17975 -21.7713 13.2487
3747 21 81 16.1248 -19.924 11.9356
3750 21 84 11.1454 -8.0103 -9.34458
3853 21 153 13.9783 -1.45525 9.59502
3682 21 36 9.08009 -3.60697 0.641362
3696 21 46 8.03164 -1.90954 11.223
3752 21 86 10.6057 -2.46633 16.344
3726 21 68 8.92687 -0.540439 -2.07371
3816 21 126 10.2804 5.74092 -9.34605
3702 21 50 10.1078 -1.10147 7.38155
3780 21 102 11.5854 6.03264 13.597
3654 21 16 15.1154 4.16031 15.4778
3886 21 172 8.14731 -0.212559 15.8527
3844 21 144 16.7465 12.2098 18.1918
ITEM: TIMESTEP
900000
ITEM: NUMBER OF ATOMS
48
ITEM: BOX BOUNDS pp pp pp
-1.8439296292985826e+01 1.6620276514060389e+01
-2.4339315862908123e+01 1.4111907620820716e+01
-9.6036572370160549e+00 2.0976316060547390e+01
ITEM: ATOMS id type mol x y z
3753 21 87 -17.6131 -20.9231 -2.24759
3900 21 182 -17.8592 -20.3188 1.30586
3815 21 125 -11.8452 -20.8008 11.8712
3901 21 183 -17.8086 -11.8397 7.48839
3660 21 20 -11.463 -12.7267 17.2146
3854 21 154 -12.8388 5.56688 20.2419
3865 21 161 -10.1016 12.1088 3.39911
3847 21 147 -9.71387 7.60397 2.18026
3764 21 94 -18.3187 7.10865 17.3259
3641 21 11 -15.2791 11.3434 17.9096
3848 21 148 -2.30991 -17.871 -0.00819918
3803 21 117 -3.93074 -17.8213 -8.62402
3664 21 24 -7.27673 -18.379 -2.03545
3748 21 82 -4.95722 -20.7858 -1.77901
3810 21 122 -9.19567 -14.8956 15.7461
3890 21 176 -1.00527 -1.40793 -0.71141
3839 21 141 -4.47466 -8.01715 2.843
3846 21 146 -8.8157 -8.92412 20.1009
3671 21 29 -6.02196 1.58269 5.36098
3818 21 128 -9.01537 1.8939 6.23527
3760 21 92 -5.04377 -1.24883 15.841
3881 21 169 -9.5051 10.6672 0.337189
3889 21 175 -2.10615 8.37123 13.489
3681 21 35 3.35119 -23.8508 6.66147
3835 21 139 0.329189 -12.3207 0.698217
3887 21 173 6.99449 -3.12268 14.0456
3791 21 109 2.01532 -0.677666 5.35039
3896 21 180 7.03431 0.254029 12.774
3766 21 96 2.05292 0.306978 17.1768
3809 21 121 0.609318 -1.18903 20.0842
3891 21 177 5.85817 7.07534 0.213676
3751 21 85 5.40769 8.97075 15.0106
3885 21 171 5.19512 12.579 20.0834
3822 21 132 0.259538 11.1421 18.1946
3845 21 145 8.11366 -21.8027 13.2581
3747 21 81 16.001 -19.952 11.9434
3750 21 84 11.0578 -8.01577 -9.36336
3853 21 153 13.8701 -1.44834 9.5999
3682 21 36 9.00746 -3.60413 0.635059
3696 21 46 7.96664 -1.90349 11.2299
3752 21 86 10.522 -2.46133 16.3573
3726 21 68 8.85535 -0.531802 -2.0834
3816 21 126 10.1991 5.76142 -9.36483
3702 21 50 10.0277 -1.09389 7.38366
3780 21 102 11.4945 6.05369 13.6069
3654 21 16 14.9989 4.17783 15.4901
3886 21 172 8.08146 -0.203302 15.8654
3844 21 144 16.6181 12.2426 18.2075
ITEM: TIMESTEP
905000
ITEM: NUMBER OF ATOMS
49
ITEM: BOX BOUNDS pp pp pp
-1.8452604280214658e+01 1.6633584501289221e+01
-2.4367368740759215e+01 1.4139960498671808e+01
-9.5117247216595828e+00 2.0884383545192534e+01
ITEM: ATOMS id type mol x y z
3753 21 87 -17.6257 -20.9461 -2.19988
3900 21 182 -17.872 -20.341 1.33219
3815 21 125 -11.8535 -20.8236 11.834
3901 21 183 -17.8215 -11.8495 7.47755
3660 21 20 -11.4711 -12.7378 17.1453
3854 21 154 -12.8479 5.58247 20.1544
3865 21 161 -10.1086 12.1339 3.41286
3847 21 147 -9.72055 7.62253 2.20134
3764 21 94 -18.3319 7.12648 17.256
3641 21 11 -15.29 11.3674 17.8361
3848 21 148 -2.31098 -17.8896 0.0260397
3803 21 117 -3.93304 -17.8398 -8.53797
3664 21 24 -7.28157 -18.3984 -1.98903
3748 21 82 -4.96029 -20.8086 -1.73412
3902 21 184 -8.62989 -13.5179 1.77003
3810 21 122 -9.20196 -14.9099 15.6856
3890 21 176 -1.00534 -1.40252 -0.672943
3839 21 141 -4.47737 -8.02138 2.86009
3846 21 146 -8.8217 -8.92968 20.0142
3671 21 29 -6.02584 1.59246 5.36294
3818 21 128 -9.02152 1.90412 6.23197
3760 21 92 -5.04691 -1.24319 15.7799
3881 21 169 -9.51163 10.6902 0.369352
3889 21 175 -2.10706 8.39091 13.442
3681 21 35 3.35443 -23.8781 6.65561
3835 21 139 0.33013 -12.3312 0.728208
3887 21 173 7.00049 -3.11978 13.9953
3791 21 109 2.01754 -0.671193 5.35241
3896 21 180 7.04034 0.261861 12.7314
3766 21 96 2.05517 0.314887 17.1077
3809 21 121 0.610471 -1.18331 19.9977
3891 21 177 5.86331 7.09312 0.246581
3751 21 85 5.41249 8.9913 14.9545
3885 21 171 5.19975 12.6048 19.9968
3822 21 132 0.260425 11.1658 18.1194
3845 21 145 8.12051 -21.8271 13.2126
3747 21 81 16.0138 -19.9736 11.9057
3750 21 84 11.0669 -8.02001 -9.27287
3853 21 153 13.8813 -1.44299 9.57637
3682 21 36 9.01499 -3.60192 0.66543
3696 21 46 7.97338 -1.89881 11.1965
3752 21 86 10.5306 -2.45746 16.2932
3726 21 68 8.86277 -0.525116 -2.03668
3816 21 126 10.2075 5.77729 -9.27433
3702 21 50 10.036 -1.08803 7.37346
3780 21 102 11.5039 6.06998 13.5593
3654 21 16 15.011 4.19138 15.4311
3886 21 172 8.08829 -0.196137 15.8042
3844 21 144 16.6314 12.2679 18.1322
ITEM: TIMESTEP
910000
ITEM: NUMBER OF ATOMS
48
ITEM: BOX BOUNDS pp pp pp
-1.8545710995783633e+01 1.6726691216858196e+01
-2.4383316682126278e+01 1.4155908440038871e+01
-9.6154445002754514e+00 2.0988103323768502e+01
ITEM: ATOMS id type mol x y z
3753 21 87 -17.7144 -20.9592 -2.2537
3900 21 182 -17.9621 -20.3536 1.30248
3815 21 125 -11.9116 -20.8367 11.876
3901 21 183 -17.9112 -11.8551 7.48978
3660 21 20 -11.5271 -12.7441 17.2235
3854 21 154 -12.9112 5.59133 20.2531
3865 21 161 -10.1574 12.1482 3.39734
3847 21 147 -9.76732 7.63308 2.17755
3764 21 94 -18.4244 7.13662 17.3349
3641 21 11 -15.3664 11.3811 17.919
3848 21 148 -2.31842 -17.9002 -0.0125892
3803 21 117 -3.94908 -17.8504 -8.63505
3664 21 24 -7.31538 -18.4094 -2.04141
3748 21 82 -4.98179 -20.8216 -1.78476
3902 21 184 -8.67086 -13.5249 1.7433
3810 21 122 -9.24597 -14.918 15.7539
3890 21 176 -1.00585 -1.39945 -0.716343
3839 21 141 -4.4963 -8.02379 2.84081
3846 21 146 -8.86369 -8.93284 20.112
3671 21 29 -6.05299 1.59802 5.36073
3818 21 128 -9.06457 1.90994 6.23569
3760 21 92 -5.06887 -1.23999 15.8488
3881 21 169 -9.55728 10.7033 0.333066
3889 21 175 -2.11341 8.40209 13.495
3681 21 35 3.37706 -23.8937 6.66223
3835 21 139 0.336709 -12.3372 0.694372
3887 21 173 7.04247 -3.11813 14.052
3791 21 109 2.03307 -0.667513 5.35013
3896 21 180 7.08253 0.266313 12.7795
3766 21 96 2.0709 0.319384 17.1856
3809 21 121 0.618538 -1.18005 20.0953
3891 21 177 5.89925 7.10323 0.209457
3885 21 171 5.23217 12.6195 20.0945
3822 21 132 0.266634 11.1793 18.2042
3845 21 145 8.16844 -21.8409 13.264
3747 21 81 16.1036 -19.9859 11.9482
3750 21 84 11.1304 -8.02242 -9.37496
3853 21 153 13.9598 -1.43995 9.60292
3682 21 36 9.06767 -3.60067 0.631165
3696 21 46 8.02052 -1.89614 11.2341
3752 21 86 10.5914 -2.45526 16.3656
3726 21 68 8.91463 -0.521315 -2.08939
3816 21 126 10.2665 5.78631 -9.37643
3702 21 50 10.0941 -1.08469 7.38497
3780 21 102 11.5698 6.07925 13.613
3654 21 16 15.0955 4.19909 15.4976
3886 21 172 8.13604 -0.192064 15.8732
3844 21 144 16.7245 12.2823 18.2171
ITEM: TIMESTEP
915000
ITEM: NUMBER OF ATOMS
47
ITEM: BOX BOUNDS pp pp pp
-1.8526723770593478e+01 1.6707703991668041e+01
-2.4331434604802986e+01 1.4104026362715580e+01
-9.4067843704133516e+00 2.0779443193933005e+01
ITEM: ATOMS id type mol x y z
3753 21 87 -17.6964 -20.9166 -2.14543
3900 21 182 -17.9437 -20.3126 1.36226
3815 21 125 -11.8998 -20.7943 11.7916
3901 21 183 -17.8929 -11.837 7.46519
3660 21 20 -11.5157 -12.7236 17.0662
3854 21 154 -12.8983 5.5625 20.0545
3865 21 161 -10.1475 12.1017 3.42856
3847 21 147 -9.75778 7.59876 2.2254
3764 21 94 -18.4055 7.10364 17.1761
3641 21 11 -15.3508 11.3367 17.7522
3848 21 148 -2.3169 -17.8657 0.0651232
3803 21 117 -3.94581 -17.8161 -8.43976
3664 21 24 -7.30849 -18.3736 -1.93603
3748 21 82 -4.97741 -20.7793 -1.68289
3902 21 184 -8.66251 -13.5022 1.79707
3810 21 122 -9.237 -14.8916 15.6166
3890 21 176 -1.00574 -1.40945 -0.629034
3839 21 141 -4.49244 -8.01596 2.87961
3846 21 146 -8.85513 -8.92256 19.9153
3671 21 29 -6.04746 1.57995 5.36517
3818 21 128 -9.05579 1.89103 6.2282
3760 21 92 -5.06439 -1.25042 15.7102
3881 21 169 -9.54797 10.6607 0.406065
3889 21 175 -2.11212 8.3657 13.3885
3681 21 35 3.37244 -23.8431 6.64892
3835 21 139 0.335367 -12.3177 0.762444
3887 21 173 7.03391 -3.1235 13.9379
3791 21 109 2.0299 -0.679484 5.35471
3896 21 180 7.07393 0.251828 12.6827
3766 21 96 2.06769 0.304755 17.0288
3809 21 121 0.616893 -1.19064 19.8988
3891 21 177 5.89192 7.07034 0.284142
3885 21 171 5.22556 12.5718 19.898
3822 21 132 0.265368 11.1355 18.0335
3845 21 145 8.15867 -21.7959 13.1606
3747 21 81 16.0853 -19.9459 11.8628
3750 21 84 11.1175 -8.01458 -9.16958
3853 21 153 13.9438 -1.44984 9.54951
3682 21 36 9.05692 -3.60475 0.700098
3752 21 86 10.579 -2.46242 16.2199
3726 21 68 8.90405 -0.53368 -1.98336
3816 21 126 10.2545 5.75696 -9.17103
3702 21 50 10.0822 -1.09554 7.36181
3780 21 102 11.5564 6.04911 13.5049
3654 21 16 15.0782 4.17402 15.3638
3886 21 172 8.1263 -0.205315 15.7343
3844 21 144 16.7055 12.2354 18.0463
ITEM: TIMESTEP
920000
ITEM: NUMBER OF ATOMS
49
ITEM: BOX BOUNDS pp pp pp
-1.8690386666236055e+01 1.6871366887310618e+01
-2.4298379808672468e+01 1.4070971566585062e+01
-9.3945885708753174e+00 2.0767247394379947e+01
ITEM: ATOMS id type mol x y z
3753 21 87 -17.8523 -20.8894 -2.1391
3900 21 182 -18.1019 -20.2864 1.36575
3815 21 125 -12.0019 -20.7674 11.7867
3901 21 183 -18.0507 -11.8254 7.46375
3660 21 20 -11.6142 -12.7105 17.057
3903 21 185 -16.3555 -5.48418 -2.71854
3854 21 154 -13.0097 5.54414 20.0428
3865 21 161 -10.2333 12.0721 3.43038
3847 21 147 -9.83998 7.57689 2.2282
3764 21 94 -18.5681 7.08262 17.1668
3641 21 11 -15.485 11.3084 17.7424
3848 21 148 -2.32997 -17.8438 0.0696653
3803 21 117 -3.97402 -17.7942 -8.42834
3664 21 24 -7.36793 -18.3508 -1.92987
3748 21 82 -5.0152 -20.7524 -1.67693
3902 21 184 -8.73453 -13.4878 1.80021
3810 21 122 -9.31436 -14.8748 15.6085
3890 21 176 -1.00664 -1.41582 -0.62393
3839 21 141 -4.52572 -8.01097 2.88188
3846 21 146 -8.92894 -8.916 19.9038
3671 21 29 -6.09519 1.56843 5.36543
3818 21 128 -9.13147 1.87898 6.22776
3760 21 92 -5.10299 -1.25706 15.7021
3881 21 169 -9.62822 10.6336 0.410331
3889 21 175 -2.12329 8.34252 13.3823
3681 21 35 3.41222 -23.8109 6.64814
3835 21 139 0.346932 -12.3053 0.766422
3887 21 173 7.1077 -3.12692 13.9313
3904 21 186 1.65536 2.32634 5.04297
3791 21 109 2.05721 -0.687111 5.35498
3896 21 180 7.14809 0.242599 12.6771
3766 21 96 2.09535 0.295436 17.0196
3809 21 121 0.631074 -1.19739 19.8873
3891 21 177 5.95511 7.04938 0.288507
3885 21 171 5.28256 12.5413 19.8865
3822 21 132 0.276283 11.1075 18.0236
3845 21 145 8.24291 -21.7672 13.1546
3747 21 81 16.2432 -19.9204 11.8578
3750 21 84 11.2292 -8.00959 -9.15758
3853 21 153 14.0818 -1.45614 9.54639
3682 21 36 9.14951 -3.60734 0.704128
3752 21 86 10.6857 -2.46698 16.2114
3726 21 68 8.99522 -0.541558 -1.97716
3816 21 126 10.3582 5.73826 -9.15903
3702 21 50 10.1843 -1.10245 7.36046
3780 21 102 11.6722 6.02991 13.4986
3654 21 16 15.2268 4.15804 15.356
3886 21 172 8.21024 -0.213758 15.7262
3844 21 144 16.8691 12.2056 18.0363
ITEM: TIMESTEP
925000
ITEM: NUMBER OF ATOMS
51
ITEM: BOX BOUNDS pp pp pp
-1.8609851880159415e+01 1.6790832101233978e+01
-2.4272523285785098e+01 1.4045115043697692e+01
-9.5233015807821282e+00 2.0895960404241432e+01
ITEM: ATOMS id type mol x y z
3753 21 87 -17.7756 -20.8681 -2.20589
3900 21 182 -18.0241 -20.266 1.32888
3815 21 125 -11.9516 -20.7463 11.8387
3901 21 183 -17.9731 -11.8164 7.47892
3660 21 20 -11.5657 -12.7002 17.1541
3903 21 185 -16.2856 -5.48368 -2.79028
3854 21 154 -12.9549 5.52978 20.1654
3906 21 188 -17.4956 13.7487 -9.33881
3865 21 161 -10.1911 12.0489 3.41113
3847 21 147 -9.79953 7.55979 2.19868
3764 21 94 -18.4881 7.06619 17.2648
3641 21 11 -15.419 11.2863 17.8453
3848 21 148 -2.32354 -17.8266 0.0217281
3803 21 117 -3.96014 -17.7771 -8.54881
3664 21 24 -7.33868 -18.3329 -1.99487
3748 21 82 -4.9966 -20.7313 -1.73978
3902 21 184 -8.69909 -13.4765 1.76705
3810 21 122 -9.27629 -14.8616 15.6932
3890 21 176 -1.0062 -1.4208 -0.677787
3839 21 141 -4.50935 -8.00706 2.85794
3846 21 146 -8.89262 -8.91088 20.0251
3671 21 29 -6.0717 1.55943 5.36269
3818 21 128 -9.09423 1.86955 6.23238
3760 21 92 -5.084 -1.26226 15.7876
3881 21 169 -9.58873 10.6124 0.365302
3889 21 175 -2.11779 8.32438 13.448
3681 21 35 3.39265 -23.7857 6.65635
3835 21 139 0.341241 -12.2956 0.724432
3887 21 173 7.07139 -3.1296 14.0016
3904 21 186 1.64374 2.31632 5.03748
3791 21 109 2.04377 -0.693077 5.35215
3896 21 180 7.1116 0.23538 12.7368
3766 21 96 2.08174 0.288145 17.1164
3809 21 121 0.624096 -1.20267 20.0086
3891 21 177 5.92401 7.03299 0.242437
3885 21 171 5.25451 12.5175 20.0077
3822 21 132 0.270912 11.0856 18.1289
3845 21 145 8.20146 -21.7447 13.2183
3747 21 81 16.1655 -19.9004 11.9105
3905 21 187 13.1918 -12.6724 -7.62052
3750 21 84 11.1742 -8.00569 -9.28427
3853 21 153 14.0139 -1.46107 9.57933
3682 21 36 9.10395 -3.60937 0.661605
3752 21 86 10.6332 -2.47055 16.3012
3726 21 68 8.95036 -0.54772 -2.04257
3816 21 126 10.3072 5.72364 -9.28573
3702 21 50 10.1341 -1.10786 7.37474
3780 21 102 11.6152 6.01489 13.5653
3654 21 16 15.1537 4.14555 15.4385
3886 21 172 8.16894 -0.220362 15.8119
3844 21 144 16.7886 12.1823 18.1417
ITEM: TIMESTEP
930000
ITEM: NUMBER OF ATOMS
51
ITEM: BOX BOUNDS pp pp pp
-1.8531634023982747e+01 1.6712614245057310e+01
-2.4484461768137571e+01 1.4257053526050164e+01
-9.4848997089107101e+00 2.0857558532360741e+01
ITEM: ATOMS id type mol x y z
3753 21 87 -17.701 -21.0424 -2.18597
3900 21 182 -17.9484 -20.4336 1.33988
3815 21 125 -11.9028 -20.9192 11.8232
3901 21 183 -17.8977 -11.8905 7.47439
3660 21 20 -11.5186 -12.7841 17.1251
3903 21 185 -16.2176 -5.48777 -2.76887
3854 21 154 -12.9017 5.64752 20.1288
3906 21 188 -17.4223 13.9574 -9.30087
3865 21 161 -10.15 12.2388 3.41687
3847 21 147 -9.76025 7.69998 2.20749
3764 21 94 -18.4104 7.20092 17.2355
3641 21 11 -15.3548 11.4677 17.8146
3848 21 148 -2.31729 -17.9673 0.0360303
3803 21 117 -3.94666 -17.9172 -8.51287
3664 21 24 -7.31027 -18.4792 -1.97548
3748 21 82 -4.97854 -20.9041 -1.72103
3902 21 184 -8.66467 -13.569 1.77694
3810 21 122 -9.23932 -14.9695 15.668
3890 21 176 -1.00577 -1.37995 -0.661719
3839 21 141 -4.49344 -8.03907 2.86508
3846 21 146 -8.85734 -8.95288 19.9889
3671 21 29 -6.04889 1.63325 5.36351
3818 21 128 -9.05806 1.9468 6.23101
3760 21 92 -5.06555 -1.21965 15.7621
3881 21 169 -9.55038 10.7863 0.378736
3889 21 175 -2.11245 8.47304 13.4284
3681 21 35 3.37364 -23.9923 6.6539
3835 21 139 0.335714 -12.3751 0.73696
3887 21 173 7.03612 -3.10765 13.9807
3904 21 186 1.63246 2.39851 5.03912
3791 21 109 2.03072 -0.644175 5.35299
3896 21 180 7.07615 0.294553 12.719
3766 21 96 2.06852 0.347902 17.0875
3809 21 121 0.617319 -1.1594 19.9724
3891 21 177 5.89382 7.16736 0.256182
3885 21 171 5.22727 12.7126 19.9716
3822 21 132 0.265696 11.2648 18.0974
3845 21 145 8.16119 -21.9287 13.1993
3747 21 81 16.09 -20.064 11.8948
3905 21 187 13.1295 -12.7561 -7.58692
3750 21 84 11.1208 -8.03768 -9.24647
3853 21 153 13.9479 -1.42067 9.5695
3682 21 36 9.0597 -3.59273 0.674292
3752 21 86 10.5822 -2.44131 16.2744
3726 21 68 8.90679 -0.49721 -2.02305
3816 21 126 10.2576 5.84352 -9.24793
3702 21 50 10.0853 -1.06355 7.37048
3780 21 102 11.5599 6.138 13.5454
3654 21 16 15.0827 4.24797 15.4139
3886 21 172 8.12882 -0.166231 15.7863
3844 21 144 16.7104 12.3736 18.1102
ITEM: TIMESTEP
935000
ITEM: NUMBER OF ATOMS
50
ITEM: BOX BOUNDS pp pp pp
-1.8599921770551685e+01 1.6780901991626248e+01
-2.4449234315495119e+01 1.4221826073407712e+01
-9.4139463210086447e+00 2.0786605144456580e+01
ITEM: ATOMS id type mol x y z
3753 21 87 -17.7661 -21.0135 -2.14915
3900 21 182 -18.0145 -20.4057 1.36021
3815 21 125 -11.9454 -20.8904 11.7945
3901 21 183 -17.9635 -11.8782 7.46603
3660 21 20 -11.5598 -12.7702 17.0716
3903 21 185 -16.2769 -5.48709 -2.72933
3854 21 154 -12.9481 5.62795 20.0613
3865 21 161 -10.1858 12.2072 3.42749
3847 21 147 -9.79454 7.67668 2.22376
3764 21 94 -18.4782 7.17853 17.1815
3641 21 11 -15.4108 11.4375 17.7579
3848 21 148 -2.32275 -17.9439 0.0624558
3803 21 117 -3.95843 -17.8939 -8.44646
3664 21 24 -7.33508 -18.4548 -1.93965
3748 21 82 -4.99431 -20.8754 -1.68638
3902 21 184 -8.69472 -13.5537 1.79523
3810 21 122 -9.2716 -14.9516 15.6213
3890 21 176 -1.00614 -1.38674 -0.63203
3839 21 141 -4.50733 -8.03375 2.87828
3846 21 146 -8.88814 -8.9459 19.922
3671 21 29 -6.0688 1.62098 5.36502
3818 21 128 -9.08964 1.93396 6.22846
3760 21 92 -5.08165 -1.22674 15.715
3881 21 169 -9.58386 10.7574 0.403559
3889 21 175 -2.11711 8.44833 13.3921
3681 21 35 3.39023 -23.9579 6.64937
3835 21 139 0.340539 -12.3619 0.760107
3887 21 173 7.06692 -3.1113 13.9419
3904 21 186 1.64231 2.38485 5.04215
3791 21 109 2.04212 -0.652303 5.35455
3896 21 180 7.1071 0.284717 12.6861
3766 21 96 2.08006 0.337969 17.0342
3809 21 121 0.623235 -1.16659 19.9056
3891 21 177 5.92018 7.14503 0.281578
3885 21 171 5.25105 12.6802 19.9048
3822 21 132 0.27025 11.2351 18.0394
3845 21 145 8.19634 -21.8981 13.1642
3747 21 81 16.1559 -20.0368 11.8657
3905 21 187 13.1839 -12.7422 -7.52484
3750 21 84 11.1674 -8.03237 -9.17663
3853 21 153 14.0055 -1.42738 9.55134
3682 21 36 9.09833 -3.5955 0.697732
3752 21 86 10.6267 -2.44617 16.2249
3726 21 68 8.94483 -0.505606 -1.987
3816 21 126 10.3009 5.8236 -9.17808
3702 21 50 10.1279 -1.07091 7.36261
3780 21 102 11.6082 6.11754 13.5087
3654 21 16 15.1447 4.23095 15.3684
3886 21 172 8.16384 -0.175228 15.7391
3844 21 144 16.7787 12.3418 18.0521
ITEM: TIMESTEP
940000
ITEM: NUMBER OF ATOMS
49
ITEM: BOX BOUNDS pp pp pp
-1.8674903868148185e+01 1.6855884089222748e+01
-2.4450645366058790e+01 1.4223237123971384e+01
-9.4368468838817918e+00 2.0809505707306716e+01
ITEM: ATOMS id type mol x y z
3753 21 87 -17.8376 -21.0146 -2.16103
3900 21 182 -18.087 -20.4069 1.35365
3815 21 125 -11.9922 -20.8916 11.8038
3901 21 183 -18.0358 -11.8787 7.46873
3660 21 20 -11.6049 -12.7708 17.0889
3903 21 185 -16.3421 -5.48712 -2.74209
3854 21 154 -12.9992 5.62873 20.0831
3865 21 161 -10.2252 12.2085 3.42406
3847 21 147 -9.8322 7.67761 2.21851
3764 21 94 -18.5527 7.17942 17.1989
3641 21 11 -15.4723 11.4387 17.7762
3848 21 148 -2.32874 -17.9448 0.0539269
3803 21 117 -3.97135 -17.8949 -8.46789
3664 21 24 -7.36231 -18.4558 -1.95121
3748 21 82 -5.01162 -20.8765 -1.69756
3902 21 184 -8.72772 -13.5543 1.78933
3810 21 122 -9.30704 -14.9523 15.6364
3890 21 176 -1.00655 -1.38647 -0.641612
3839 21 141 -4.52258 -8.03396 2.87402
3846 21 146 -8.92196 -8.94618 19.9436
3671 21 29 -6.09067 1.62147 5.36453
3818 21 128 -9.12431 1.93448 6.22928
3760 21 92 -5.09934 -1.22645 15.7302
3881 21 169 -9.62063 10.7586 0.395547
3889 21 175 -2.12223 8.44932 13.4038
3681 21 35 3.40846 -23.9593 6.65084
3835 21 139 0.345838 -12.3624 0.752636
3887 21 173 7.10072 -3.11115 13.9544
3904 21 186 1.65313 2.38539 5.04117
3791 21 109 2.05463 -0.651978 5.35405
3896 21 180 7.14108 0.285111 12.6967
3766 21 96 2.09273 0.338367 17.0514
3809 21 121 0.629732 -1.16631 19.9271
3891 21 177 5.94913 7.14592 0.273381
3822 21 132 0.27525 11.2363 18.0581
3845 21 145 8.23494 -21.8994 13.1755
3747 21 81 16.2283 -20.0379 11.8751
3905 21 187 13.2436 -12.7427 -7.54488
3750 21 84 11.2186 -8.03258 -9.19917
3853 21 153 14.0687 -1.42711 9.5572
3682 21 36 9.14075 -3.59539 0.690167
3752 21 86 10.6756 -2.44597 16.2409
3726 21 68 8.9866 -0.50527 -1.99863
3816 21 126 10.3484 5.82439 -9.20063
3702 21 50 10.1747 -1.07062 7.36515
3780 21 102 11.6612 6.11836 13.5205
3654 21 16 15.2127 4.23163 15.3831
3886 21 172 8.2023 -0.174868 15.7543
3844 21 144 16.8537 12.3431 18.0709
ITEM: TIMESTEP
945000
ITEM: NUMBER OF ATOMS
51
ITEM: BOX BOUNDS pp pp pp
-1.8574750446677768e+01 1.6755730667752331e+01
-2.4419671878221838e+01 1.4192263636134431e+01
-9.4356083124641259e+00 2.0808267135871727e+01
ITEM: ATOMS id type mol x y z
3753 21 87 -17.7421 -20.9891 -2.16039
3900 21 182 -17.9901 -20.3824 1.354
3815 21 125 -11.9297 -20.8663 11.8033
3901 21 183 -17.9392 -11.8678 7.46858
3660 21 20 -11.5446 -12.7585 17.0879
3903 21 185 -16.2551 -5.48652 -2.7414
3854 21 154 -12.931 5.61152 20.0819
3865 21 161 -10.1727 12.1807 3.42424
3847 21 147 -9.7819 7.65712 2.21879
3764 21 94 -18.4532 7.15973 17.198
3641 21 11 -15.3902 11.4122 17.7752
3848 21 148 -2.32074 -17.9243 0.0543881
3803 21 117 -3.95409 -17.8744 -8.46673
3664 21 24 -7.32593 -18.4344 -1.95059
3748 21 82 -4.9885 -20.8513 -1.69696
3902 21 184 -8.68364 -13.5408 1.78964
3810 21 122 -9.2597 -14.9365 15.6355
3890 21 176 -1.00601 -1.39244 -0.641094
3839 21 141 -4.50221 -8.02928 2.87425
3846 21 146 -8.87679 -8.94004 19.9424
3671 21 29 -6.06146 1.61068 5.36456
3818 21 128 -9.078 1.92319 6.22924
3760 21 92 -5.07572 -1.23268 15.7294
3881 21 169 -9.57152 10.7332 0.395981
3889 21 175 -2.11539 8.42759 13.4032
3681 21 35 3.38412 -23.9291 6.65076
3835 21 139 0.338761 -12.3508 0.75304
3887 21 173 7.05557 -3.11436 13.9537
3904 21 186 1.63868 2.37338 5.04122
3791 21 109 2.03792 -0.659125 5.35408
3896 21 180 7.09569 0.276464 12.6961
3766 21 96 2.07581 0.329634 17.0505
3809 21 121 0.621055 -1.17263 19.926
3891 21 177 5.91046 7.12628 0.273825
3822 21 132 0.268571 11.2101 18.0571
3845 21 145 8.18339 -21.8725 13.1749
3747 21 81 16.1316 -20.014 11.8746
3905 21 187 13.1638 -12.7305 -7.5438
3750 21 84 11.1502 -8.0279 -9.19795
3853 21 153 13.9843 -1.43302 9.55689
3682 21 36 9.08409 -3.59782 0.690576
3752 21 86 10.6103 -2.45025 16.24
3910 21 190 9.03185 2.03298 -0.145821
3726 21 68 8.93081 -0.512651 -1.99801
3816 21 126 10.2849 5.80687 -9.19941
3702 21 50 10.1122 -1.07709 7.36501
3780 21 102 11.5904 6.10036 13.5199
3654 21 16 15.1218 4.21666 15.3823
3886 21 172 8.15093 -0.182779 15.7535
3909 21 189 9.98244 9.98748 12.9699
3844 21 144 16.7535 12.3151 18.0699
ITEM: TIMESTEP
950000
ITEM: NUMBER OF ATOMS
52
ITEM: BOX BOUNDS pp pp pp
-1.8654250783998126e+01 1.6835231005072689e+01
-2.4274309047152517e+01 1.4046900805065111e+01
-9.4702656181968230e+00 2.0842924441579139e+01
ITEM: ATOMS id type mol x y z
3753 21 87 -17.8179 -20.8696 -2.17837
3900 21 182 -18.067 -20.2674 1.34407
3815 21 125 -11.9793 -20.7477 11.8173
3911 21 191 -13.6767 -15.4474 0.402524
3901 21 183 -18.0159 -11.817 7.47267
3660 21 20 -11.5925 -12.7009 17.1141
3903 21 185 -16.3241 -5.48371 -2.76072
3854 21 154 -12.9851 5.53077 20.1149
3865 21 161 -10.2143 12.0505 3.41906
3847 21 147 -9.82183 7.56097 2.21084
3764 21 94 -18.5322 7.06732 17.2244
3641 21 11 -15.4553 11.2878 17.8029
3848 21 148 -2.32709 -17.8278 0.0414805
3803 21 117 -3.96779 -17.7783 -8.49917
3664 21 24 -7.35481 -18.3342 -1.96809
3748 21 82 -5.00685 -20.7328 -1.71388
3902 21 184 -8.71863 -13.4773 1.78071
3810 21 122 -9.29728 -14.8626 15.6583
3890 21 176 -1.00644 -1.42046 -0.655596
3839 21 141 -4.51838 -8.00733 2.8678
3846 21 146 -8.91264 -8.91123 19.9751
3671 21 29 -6.08465 1.56005 5.36382
3818 21 128 -9.11476 1.8702 6.23048
3760 21 92 -5.09447 -1.2619 15.7524
3881 21 169 -9.6105 10.6139 0.383856
3889 21 175 -2.12082 8.32564 13.4209
3681 21 35 3.40344 -23.7874 6.65297
3835 21 139 0.344378 -12.2963 0.741734
3887 21 173 7.09141 -3.12942 13.9727
3904 21 186 1.65015 2.31701 5.03974
3791 21 109 2.05118 -0.692665 5.35332
3896 21 180 7.13172 0.235879 12.7122
3766 21 96 2.08924 0.288649 17.0765
3809 21 121 0.627943 -1.2023 19.9586
3891 21 177 5.94116 7.03412 0.26142
3822 21 132 0.273873 11.0872 18.0855
3845 21 145 8.22431 -21.7463 13.1921
3747 21 81 16.2083 -19.9018 11.8888
3905 21 187 13.2272 -12.6731 -7.57412
3750 21 84 11.2045 -8.00596 -9.23206
3853 21 153 14.0513 -1.46073 9.56576
3682 21 36 9.12907 -3.60923 0.679126
3752 21 86 10.6621 -2.4703 16.2642
3910 21 190 9.07659 1.97917 -0.159188
3726 21 68 8.97509 -0.547294 -2.01562
3816 21 126 10.3353 5.72465 -9.23352
3702 21 50 10.1618 -1.10749 7.36886
3780 21 102 11.6466 6.01593 13.5378
3654 21 16 15.194 4.14641 15.4045
3886 21 172 8.19171 -0.219906 15.7766
3909 21 189 10.0315 9.87377 12.9866
3844 21 144 16.833 12.1839 18.0982
ITEM: TIMESTEP
955000
ITEM: NUMBER OF ATOMS
51
ITEM: BOX BOUNDS pp pp pp
-1.8583479141944490e+01 1.6764459363019053e+01
-2.4315577943874423e+01 1.4088169701787017e+01
-9.5485864878548874e+00 2.0921245311202021e+01
ITEM: ATOMS id type mol x y z
3753 21 87 -17.7504 -20.9035 -2.21901
3900 21 182 -17.9986 -20.3 1.32163
3815 21 125 -11.9352 -20.7814 11.849
3911 21 191 -13.6258 -15.4697 0.375221
3901 21 183 -17.9476 -11.8314 7.4819
3660 21 20 -11.5499 -12.7173 17.1731
3903 21 185 -16.2627 -5.48451 -2.80437
3854 21 154 -12.9369 5.55369 20.1894
3847 21 147 -9.78628 7.58827 2.19289
3764 21 94 -18.4619 7.09356 17.284
3641 21 11 -15.3973 11.3231 17.8656
3848 21 148 -2.32143 -17.8552 0.0123111
3803 21 117 -3.95559 -17.8056 -8.57247
3664 21 24 -7.3291 -18.3626 -2.00764
3748 21 82 -4.99051 -20.7664 -1.75212
3902 21 184 -8.68748 -13.4953 1.76053
3810 21 122 -9.26383 -14.8835 15.7099
3890 21 176 -1.00605 -1.41251 -0.688367
3839 21 141 -4.50398 -8.01356 2.85324
3846 21 146 -8.88072 -8.91941 20.0489
3671 21 29 -6.06401 1.57442 5.36216
3818 21 128 -9.08204 1.88525 6.23329
3760 21 92 -5.07778 -1.25361 15.8044
3881 21 169 -9.5758 10.6477 0.356456
3889 21 175 -2.11599 8.35458 13.4609
3912 21 192 5.64298 -22.9807 -3.52
3681 21 35 3.38624 -23.8277 6.65796
3835 21 139 0.339377 -12.3118 0.716183
3887 21 173 7.0595 -3.12514 14.0155
3904 21 186 1.63994 2.33301 5.0364
3896 21 180 7.09965 0.247401 12.7485
3766 21 96 2.07728 0.300285 17.1354
3809 21 121 0.621811 -1.19388 20.0324
3891 21 177 5.91383 7.06029 0.233387
3822 21 132 0.269153 11.1221 18.1495
3845 21 145 8.18788 -21.7821 13.2309
3747 21 81 16.1401 -19.9337 11.9208
3905 21 187 13.1708 -12.6894 -7.64264
3750 21 84 11.1562 -8.01219 -9.30915
3853 21 153 13.9916 -1.45287 9.5858
3682 21 36 9.08903 -3.60599 0.653252
3752 21 86 10.616 -2.46461 16.3189
3910 21 190 9.03676 1.99444 -0.189394
3726 21 68 8.93567 -0.537459 -2.05542
3816 21 126 10.2905 5.74799 -9.31062
3702 21 50 10.1176 -1.09886 7.37755
3780 21 102 11.5965 6.0399 13.5784
3654 21 16 15.1298 4.16635 15.4548
3886 21 172 8.15541 -0.209365 15.8287
3909 21 189 9.98782 9.90605 13.0243
3844 21 144 16.7623 12.2211 18.1624
ITEM: TIMESTEP
960000
ITEM: NUMBER OF ATOMS
51
ITEM: BOX BOUNDS pp pp pp
-1.8640267004523444e+01 1.6821247225598007e+01
-2.4392008700744029e+01 1.4164600458656622e+01
-9.4765407690355801e+00 2.0849199592380835e+01
ITEM: ATOMS id type mol x y z
3753 21 87 -17.8045 -20.9664 -2.18163
3900 21 182 -18.0535 -20.3605 1.34227
3815 21 125 -11.9706 -20.8437 11.8198
3911 21 191 -13.6667 -15.5109 0.400337
3901 21 183 -18.0024 -11.8582 7.47341
3660 21 20 -11.584 -12.7475 17.1188
3903 21 185 -16.312 -5.48598 -2.76422
3854 21 154 -12.9756 5.59616 20.1209
3847 21 147 -9.81481 7.63883 2.20941
3764 21 94 -18.5183 7.14215 17.2292
3641 21 11 -15.4439 11.3885 17.808
3848 21 148 -2.32597 -17.9059 0.0391435
3803 21 117 -3.96538 -17.8561 -8.50504
3664 21 24 -7.34973 -18.4154 -1.97126
3748 21 82 -5.00362 -20.8287 -1.71694
3902 21 184 -8.71247 -13.5287 1.7791
3810 21 122 -9.29067 -14.9224 15.6625
3890 21 176 -1.00636 -1.39777 -0.658221
3839 21 141 -4.51553 -8.02511 2.86664
3846 21 146 -8.90634 -8.93456 19.981
3671 21 29 -6.08057 1.60104 5.36369
3818 21 128 -9.1083 1.91311 6.23071
3760 21 92 -5.09117 -1.23824 15.7566
3881 21 169 -9.60365 10.7105 0.381661
3889 21 175 -2.11987 8.40819 13.4241
3912 21 192 5.66404 -23.0518 -3.47647
3681 21 35 3.40004 -23.9021 6.65337
3835 21 139 0.34339 -12.3404 0.739687
3887 21 173 7.08511 -3.11723 13.9761
3904 21 186 1.64813 2.36265 5.03948
3896 21 180 7.12538 0.26874 12.7151
3766 21 96 2.08688 0.321834 17.0812
3809 21 121 0.626731 -1.17828 19.9645
3891 21 177 5.93576 7.10875 0.259174
3822 21 132 0.27294 11.1867 18.0906
3845 21 145 8.21711 -21.8485 13.1952
3747 21 81 16.1948 -19.9926 11.8913
3905 21 187 13.216 -12.7196 -7.57961
3750 21 84 11.195 -8.02373 -9.23824
3853 21 153 14.0395 -1.43829 9.56736
3682 21 36 9.12116 -3.59999 0.677053
3752 21 86 10.653 -2.45406 16.2686
3910 21 190 9.06872 2.02274 -0.161608
3726 21 68 8.9673 -0.519244 -2.01881
3816 21 126 10.3264 5.79122 -9.2397
3702 21 50 10.153 -1.08288 7.36955
3780 21 102 11.6367 6.0843 13.5411
3654 21 16 15.1813 4.20329 15.4086
3886 21 172 8.18454 -0.189844 15.7807
3909 21 189 10.0228 9.96584 12.9896
3844 21 144 16.819 12.2901 18.1034
ITEM: TIMESTEP
965000
ITEM: NUMBER OF ATOMS
51
ITEM: BOX BOUNDS pp pp pp
-1.8800772748495675e+01 1.6981752969570238e+01
-2.4244691193722073e+01 1.4017282951634666e+01
-9.4400229856076727e+00 2.0812681808943310e+01
ITEM: ATOMS id type mol x y z
3753 21 87 -17.9575 -20.8453 -2.16268
3900 21 182 -18.2087 -20.244 1.35274
3815 21 125 -12.0707 -20.7235 11.805
3911 21 191 -13.7822 -15.4314 0.413067
3901 21 183 -18.1571 -11.8066 7.4691
3660 21 20 -11.6807 -12.6892 17.0913
3903 21 185 -16.4514 -5.48314 -2.74386
3854 21 154 -13.0848 5.51431 20.0861
3847 21 147 -9.89542 7.54138 2.21778
3764 21 94 -18.6777 7.04849 17.2014
3641 21 11 -15.5755 11.2624 17.7788
3848 21 148 -2.33879 -17.8082 0.052744
3803 21 117 -3.99304 -17.7587 -8.47087
3664 21 24 -7.40803 -18.3137 -1.95282
3748 21 82 -5.04069 -20.7086 -1.69911
3902 21 184 -8.78311 -13.4644 1.78851
3810 21 122 -9.36654 -14.8475 15.6384
3890 21 176 -1.00724 -1.42617 -0.642941
3839 21 141 -4.54817 -8.00286 2.87343
3846 21 146 -8.97873 -8.90536 19.9466
3671 21 29 -6.12738 1.54973 5.36447
3818 21 128 -9.18251 1.85941 6.22939
3760 21 92 -5.12902 -1.26786 15.7323
3881 21 169 -9.68235 10.5895 0.394436
3889 21 175 -2.13082 8.30486 13.4055
3912 21 192 5.72354 -22.9147 -3.4544
3681 21 35 3.43905 -23.7586 6.65104
3835 21 139 0.354732 -12.2852 0.7516
3887 21 173 7.15748 -3.13248 13.9561
3904 21 186 1.67128 2.30552 5.04103
3896 21 180 7.19812 0.22761 12.6982
3766 21 96 2.11401 0.280298 17.0538
3809 21 121 0.640638 -1.20835 19.9301
3891 21 177 5.99772 7.01535 0.272245
3822 21 132 0.283644 11.0621 18.0607
3845 21 145 8.29973 -21.7206 13.1771
3747 21 81 16.3497 -19.8789 11.8764
3905 21 187 13.3439 -12.6615 -7.54766
3750 21 84 11.3045 -8.00149 -9.2023
3853 21 153 14.1748 -1.46638 9.55802
3682 21 36 9.21196 -3.61156 0.689118
3752 21 86 10.7577 -2.47439 16.2431
3910 21 190 9.15904 1.9682 -0.147524
3726 21 68 9.05671 -0.554353 -2.00025
3816 21 126 10.4282 5.70789 -9.20375
3702 21 50 10.2532 -1.11368 7.3655
3780 21 102 11.7503 5.99873 13.5222
3654 21 16 15.327 4.13209 15.3852
3886 21 172 8.26686 -0.22747 15.7564
3909 21 189 10.1218 9.85061 12.972
3844 21 144 16.9795 12.1571 18.0735
ITEM: TIMESTEP
970000
ITEM: NUMBER OF ATOMS
50
ITEM: BOX BOUNDS pp pp pp
-1.8564893186103017e+01 1.6745873407177580e+01
-2.4623297861510572e+01 1.4395889619423166e+01
-9.4416318970368387e+00 2.0814290720354265e+01
ITEM: ATOMS id type mol x y z
3753 21 87 -17.7327 -21.1566 -2.16351
3900 21 182 -17.9806 -20.5434 1.35227
3815 21 125 -11.9236 -21.0325 11.8057
3911 21 191 -13.6125 -15.6356 0.412506
3901 21 183 -17.9297 -11.9391 7.46929
3660 21 20 -11.5387 -12.8391 17.0925
3903 21 185 -16.2465 -5.49045 -2.74476
3854 21 154 -12.9243 5.72465 20.0876
3847 21 147 -9.77695 7.79182 2.21741
3764 21 94 -18.4434 7.28918 17.2026
3641 21 11 -15.3821 11.5865 17.7801
3848 21 148 -2.31995 -18.0594 0.0521448
3803 21 117 -3.95239 -18.009 -8.47237
3664 21 24 -7.32235 -18.5749 -1.95363
3748 21 82 -4.98622 -21.0173 -1.6999
3902 21 184 -8.6793 -13.6296 1.78809
3810 21 122 -9.25504 -15.0401 15.6395
3890 21 176 -1.00595 -1.35319 -0.643615
3839 21 141 -4.5002 -8.06003 2.87313
3846 21 146 -8.87234 -8.9804 19.9481
3671 21 29 -6.05859 1.6816 5.36443
3818 21 128 -9.07344 1.99741 6.22945
3760 21 92 -5.07339 -1.19175 15.7334
3881 21 169 -9.56669 10.9003 0.393873
3889 21 175 -2.11472 8.57042 13.4063
3912 21 192 5.63609 -23.267 -3.45537
3681 21 35 3.38172 -24.1276 6.65114
3835 21 139 0.338064 -12.4271 0.751075
3887 21 173 7.05112 -3.09327 13.957
3904 21 186 1.63726 2.45235 5.04097
3896 21 180 7.09122 0.333315 12.6989
3766 21 96 2.07414 0.387047 17.055
3809 21 121 0.6202 -1.13106 19.9316
3891 21 177 5.90666 7.25538 0.271669
3822 21 132 0.267914 11.3822 18.062
3845 21 145 8.17831 -22.0492 13.1779
3747 21 81 16.1221 -20.1711 11.8771
3905 21 187 13.156 -12.8108 -7.54907
3913 21 193 10.0131 -9.3132 9.37481
3750 21 84 11.1435 -8.05864 -9.20388
3853 21 153 13.976 -1.3942 9.55843
3682 21 36 9.07852 -3.58183 0.688586
3752 21 86 10.6039 -2.42216 16.2442
3726 21 68 8.92532 -0.464122 -2.00107
3816 21 126 10.2787 5.92206 -9.20534
3702 21 50 10.106 -1.03452 7.36568
3780 21 102 11.5834 6.21864 13.523
3654 21 16 15.1129 4.31507 15.3862
3886 21 172 8.14588 -0.130771 15.7575
3844 21 144 16.7437 12.4989 18.0748
ITEM: TIMESTEP
975000
ITEM: NUMBER OF ATOMS
49
ITEM: BOX BOUNDS pp pp pp
-1.8769549601296838e+01 1.6950529822371401e+01
-2.4470707347084954e+01 1.4243299104997547e+01
-9.3619505374350389e+00 2.0734609360753151e+01
ITEM: ATOMS id type mol x y z
3753 21 87 -17.9277 -21.0311 -2.12217
3900 21 182 -18.1785 -20.4227 1.3751
3815 21 125 -12.0513 -20.908 11.7735
3911 21 191 -13.7597 -15.5533 0.440285
3660 21 20 -11.6619 -12.7787 17.0324
3903 21 185 -16.4243 -5.4875 -2.70035
3854 21 154 -13.0636 5.63988 20.0118
3847 21 147 -9.87974 7.69088 2.23568
3764 21 94 -18.6467 7.19218 17.1419
3641 21 11 -15.5499 11.4559 17.7164
3848 21 148 -2.3363 -17.9581 0.0818209
3803 21 117 -3.98766 -17.9081 -8.3978
3664 21 24 -7.39669 -18.4697 -1.91339
3748 21 82 -5.03348 -20.8929 -1.661
3902 21 184 -8.76937 -13.563 1.80863
3810 21 122 -9.35178 -14.9625 15.5871
3890 21 176 -1.00707 -1.3826 -0.610274
3839 21 141 -4.54182 -8.03699 2.88795
3846 21 146 -8.96464 -8.95016 19.873
3671 21 29 -6.11827 1.62846 5.36613
3818 21 128 -9.16808 1.94179 6.22659
3760 21 92 -5.12166 -1.22242 15.6805
3881 21 169 -9.66704 10.7751 0.42175
3889 21 175 -2.12869 8.46339 13.3656
3912 21 192 5.71197 -23.125 -3.40722
3681 21 35 3.43146 -23.9788 6.64606
3835 21 139 0.352526 -12.3699 0.77707
3887 21 173 7.1434 -3.10908 13.9134
3904 21 186 1.66678 2.39318 5.04437
3896 21 180 7.18397 0.290713 12.662
3766 21 96 2.10873 0.344023 16.9951
3809 21 121 0.637932 -1.16221 19.8566
3891 21 177 5.98567 7.15864 0.300189
3822 21 132 0.281562 11.2532 17.9969
3845 21 145 8.28366 -21.9168 13.1384
3747 21 81 16.3196 -20.0534 11.8445
3905 21 187 13.319 -12.7506 -7.47935
3913 21 193 10.1397 -9.28036 9.35538
3750 21 84 11.2832 -8.03561 -9.12545
3853 21 153 14.1485 -1.42329 9.53803
3682 21 36 9.1943 -3.59381 0.71491
3752 21 86 10.7373 -2.44321 16.1886
3726 21 68 9.03932 -0.500488 -1.96058
3816 21 126 10.4084 5.83574 -9.1269
3702 21 50 10.2337 -1.06642 7.35683
3780 21 102 11.7282 6.13001 13.4817
3654 21 16 15.2986 4.24133 15.3351
3886 21 172 8.25085 -0.169744 15.7045
3844 21 144 16.9483 12.3612 18.0095
ITEM: TIMESTEP
980000
ITEM: NUMBER OF ATOMS
49
ITEM: BOX BOUNDS pp pp pp
-1.8642435580990050e+01 1.6823415802064613e+01
-2.4327895140825387e+01 1.4100486898737980e+01
-9.5423841267926264e+00 2.0915042950051475e+01
ITEM: ATOMS id type mol x y z
3753 21 87 -17.8066 -20.9137 -2.21579
3900 21 182 -18.0556 -20.3098 1.32341
3815 21 125 -11.972 -20.7914 11.8464
3911 21 191 -13.6682 -15.4763 0.377383
3660 21 20 -11.5853 -12.7222 17.1684
3903 21 185 -16.3139 -5.48475 -2.80091
3854 21 154 -12.9771 5.56054 20.1835
3847 21 147 -9.8159 7.59641 2.19431
3764 21 94 -18.5204 7.10139 17.2793
3641 21 11 -15.4457 11.3337 17.8606
3848 21 148 -2.32614 -17.8634 0.0146211
3803 21 117 -3.96575 -17.8137 -8.56667
3664 21 24 -7.35052 -18.3711 -2.00451
3748 21 82 -5.00413 -20.7765 -1.74909
3902 21 184 -8.71343 -13.5007 1.76213
3810 21 122 -9.29169 -14.8898 15.7058
3890 21 176 -1.00637 -1.41013 -0.685772
3839 21 141 -4.51597 -8.01542 2.85439
3846 21 146 -8.90731 -8.92185 20.0431
3671 21 29 -6.0812 1.57871 5.36229
3818 21 128 -9.1093 1.88974 6.23307
3760 21 92 -5.09168 -1.25113 15.8003
3881 21 169 -9.60471 10.6578 0.358626
3889 21 175 -2.12002 8.36322 13.4577
3912 21 192 5.66484 -22.9922 -3.51625
3681 21 35 3.40057 -23.8397 6.65757
3835 21 139 0.343543 -12.3164 0.718206
3887 21 173 7.08608 -3.12387 14.0121
3904 21 186 1.64844 2.33779 5.03667
3896 21 180 7.12636 0.25084 12.7456
3766 21 96 2.08725 0.303757 17.1307
3809 21 121 0.626919 -1.19136 20.0265
3891 21 177 5.93659 7.0681 0.235607
3822 21 132 0.273085 11.1325 18.1445
3845 21 145 8.21823 -21.7928 13.2278
3747 21 81 16.1969 -19.9432 11.9183
3905 21 187 13.2178 -12.6943 -7.63721
3913 21 193 10.0611 -9.24962 9.39938
3750 21 84 11.1965 -8.01405 -9.30305
3853 21 153 14.0413 -1.45052 9.58422
3682 21 36 9.12238 -3.60502 0.655301
3752 21 86 10.6544 -2.46291 16.3146
3726 21 68 8.96851 -0.534524 -2.05226
3816 21 126 10.3278 5.75496 -9.30451
3702 21 50 10.1544 -1.09628 7.37686
3780 21 102 11.6383 6.04706 13.5752
3654 21 16 15.1833 4.17231 15.4508
3886 21 172 8.18565 -0.206219 15.8246
3844 21 144 16.8212 12.2322 18.1573
ITEM: TIMESTEP
985000
ITEM: NUMBER OF ATOMS
49
ITEM: BOX BOUNDS pp pp pp
-1.8694248541341569e+01 1.6875228762416132e+01
-2.4354343948251710e+01 1.4126935706164303e+01
-9.4149972187508304e+00 2.0787656042021201e+01
ITEM: ATOMS id type mol x y z
3753 21 87 -17.856 -20.9354 -2.14969
3900 21 182 -18.1057 -20.3307 1.35991
3815 21 125 -12.0043 -20.813 11.7949
3911 21 191 -13.7055 -15.4906 0.421792
3660 21 20 -11.6165 -12.7326 17.0724
3903 21 185 -16.3589 -5.48526 -2.72992
3854 21 154 -13.0123 5.57523 20.0623
3847 21 147 -9.84192 7.61391 2.22352
3764 21 94 -18.5719 7.1182 17.1823
3641 21 11 -15.4881 11.3563 17.7588
3848 21 148 -2.33028 -17.8809 0.0620644
3803 21 117 -3.97468 -17.8312 -8.44744
3664 21 24 -7.36934 -18.3894 -1.94018
3748 21 82 -5.01609 -20.798 -1.6869
3902 21 184 -8.73623 -13.5122 1.79496
3810 21 122 -9.31619 -14.9033 15.622
3890 21 176 -1.00666 -1.40503 -0.63247
3839 21 141 -4.52651 -8.01942 2.87808
3846 21 146 -8.93068 -8.9271 19.923
3671 21 29 -6.09631 1.58793 5.365
3818 21 128 -9.13326 1.89938 6.2285
3760 21 92 -5.1039 -1.24581 15.7157
3881 21 169 -9.63012 10.6795 0.403191
3889 21 175 -2.12355 8.38177 13.3927
3912 21 192 5.68405 -23.0168 -3.43928
3681 21 35 3.41316 -23.8654 6.64944
3835 21 139 0.347205 -12.3263 0.759764
3887 21 173 7.10945 -3.12113 13.9424
3904 21 186 1.65592 2.34805 5.0421
3896 21 180 7.14984 0.258224 12.6866
3766 21 96 2.096 0.311215 17.035
3809 21 121 0.631408 -1.18596 19.9066
3891 21 177 5.9566 7.08487 0.281202
3822 21 132 0.27654 11.1548 18.0403
3845 21 145 8.2449 -21.8158 13.1647
3747 21 81 16.2469 -19.9636 11.8662
3905 21 187 13.259 -12.7047 -7.52576
3913 21 193 10.0932 -9.25531 9.36832
3750 21 84 11.2318 -8.01804 -9.17766
3853 21 153 14.085 -1.44547 9.55161
3682 21 36 9.1517 -3.60295 0.697385
3752 21 86 10.6882 -2.45926 16.2257
3726 21 68 8.99737 -0.52822 -1.98753
3816 21 126 10.3606 5.76992 -9.17912
3702 21 50 10.1867 -1.09075 7.36272
3780 21 102 11.6749 6.06242 13.5092
3654 21 16 15.2303 4.18509 15.3691
3886 21 172 8.21222 -0.199464 15.7398
3844 21 144 16.873 12.2561 18.053
ITEM: TIMESTEP
990000
ITEM: NUMBER OF ATOMS
49
ITEM: BOX BOUNDS pp pp pp
-1.8756574210826141e+01 1.6937554431900704e+01
-2.4487063101059796e+01 1.4259654858972389e+01
-9.2819808004829945e+00 2.0654639623766343e+01
ITEM: ATOMS id type mol x y z
3753 21 87 -17.9154 -21.0446 -2.08067
3900 21 182 -18.1659 -20.4357 1.39801
3815 21 125 -12.0432 -20.9213 11.7411
3911 21 191 -13.7504 -15.5621 0.468163
3660 21 20 -11.6541 -12.7852 16.9721
3903 21 185 -16.413 -5.48782 -2.65578
3854 21 154 -13.0547 5.64896 19.9356
3847 21 147 -9.87322 7.7017 2.25402
3764 21 94 -18.6338 7.20258 17.0811
3641 21 11 -15.5392 11.4699 17.6524
3848 21 148 -2.33526 -17.969 0.111604
3803 21 117 -3.98542 -17.9189 -8.32295
3664 21 24 -7.39198 -18.4809 -1.873
3748 21 82 -5.03048 -20.9062 -1.62195
3902 21 184 -8.76366 -13.5702 1.82923
3810 21 122 -9.34565 -14.9708 15.5345
3890 21 176 -1.007 -1.37945 -0.576812
3839 21 141 -4.53919 -8.03946 2.90282
3846 21 146 -8.95879 -8.9534 19.7976
3671 21 29 -6.11449 1.63415 5.36783
3818 21 128 -9.16208 1.94775 6.22372
3760 21 92 -5.1186 -1.21913 15.6274
3881 21 169 -9.66068 10.7885 0.449727
3889 21 175 -2.12781 8.47486 13.3248
3912 21 192 5.70716 -23.1403 -3.3589
3681 21 35 3.42831 -23.9948 6.64096
3835 21 139 0.351609 -12.3761 0.803159
3887 21 173 7.13755 -3.10738 13.8697
3904 21 186 1.66491 2.39952 5.04778
3896 21 180 7.17809 0.295279 12.6249
3766 21 96 2.10654 0.348635 16.935
3809 21 121 0.636808 -1.15887 19.7813
3891 21 177 5.98066 7.16901 0.328812
3822 21 132 0.280697 11.267 17.9314
3845 21 145 8.27698 -21.931 13.0988
3747 21 81 16.307 -20.066 11.8117
3905 21 187 13.3087 -12.7571 -7.40939
3913 21 193 10.1317 -9.28388 9.33588
3750 21 84 11.2744 -8.03808 -9.04674
3853 21 153 14.1376 -1.42017 9.51756
3682 21 36 9.18696 -3.59253 0.741329
3752 21 86 10.7289 -2.44095 16.1328
3726 21 68 9.03209 -0.49659 -1.91994
3816 21 126 10.4001 5.84499 -9.04818
3702 21 50 10.2256 -1.063 7.34796
3780 21 102 11.719 6.13951 13.4403
3654 21 16 15.2868 4.24923 15.2838
3886 21 172 8.24419 -0.165566 15.6512
3844 21 144 16.9353 12.3759 17.944
ITEM: TIMESTEP
995000
ITEM: NUMBER OF ATOMS
50
ITEM: BOX BOUNDS pp pp pp
-1.8618925394118950e+01 1.6799905615193513e+01
-2.4405532588146745e+01 1.4178124346059338e+01
-9.5195758993960489e+00 2.0892234722606112e+01
ITEM: ATOMS id type mol x y z
3753 21 87 -17.7842 -20.9775 -2.20396
3900 21 182 -18.0329 -20.3712 1.32994
3815 21 125 -11.9573 -20.8548 11.8372
3911 21 191 -13.6513 -15.5182 0.385334
3660 21 20 -11.5712 -12.7529 17.1512
3917 21 195 -12.9728 -15.6019 16.2024
3903 21 185 -16.2934 -5.48625 -2.7882
3854 21 154 -12.9611 5.60367 20.1618
3847 21 147 -9.80409 7.64777 2.19954
3764 21 94 -18.4971 7.15074 17.2619
3641 21 11 -15.4264 11.4001 17.8424
3848 21 148 -2.32426 -17.9149 0.0231157
3803 21 117 -3.9617 -17.865 -8.54532
3664 21 24 -7.34198 -18.4247 -1.99299
3748 21 82 -4.9987 -20.8397 -1.73796
3902 21 184 -8.70308 -13.5346 1.76801
3810 21 122 -9.28058 -14.9293 15.6908
3890 21 176 -1.00625 -1.39517 -0.676229
3839 21 141 -4.51119 -8.02715 2.85863
3846 21 146 -8.89671 -8.93724 20.0216
3671 21 29 -6.07435 1.60576 5.36277
3818 21 128 -9.09843 1.91803 6.23225
3760 21 92 -5.08614 -1.23552 15.7851
3881 21 169 -9.59318 10.7216 0.366605
3889 21 175 -2.11841 8.41768 13.4461
3912 21 192 5.65612 -23.0644 -3.50247
3681 21 35 3.39485 -23.9153 6.65611
3835 21 139 0.341882 -12.3455 0.725647
3887 21 173 7.07548 -3.11583 13.9996
3904 21 186 1.64505 2.3679 5.03764
3896 21 180 7.11571 0.272516 12.735
3766 21 96 2.08327 0.325647 17.1136
3809 21 121 0.624882 -1.17552 20.005
3891 21 177 5.92752 7.11732 0.243771
3822 21 132 0.271517 11.1981 18.1258
3845 21 145 8.20613 -21.8602 13.2165
3747 21 81 16.1743 -20.0031 11.909
3905 21 187 13.199 -12.7249 -7.61726
3913 21 193 10.0466 -9.26633 9.39381
3750 21 84 11.1804 -8.02577 -9.2806
3853 21 153 14.0215 -1.43572 9.57838
3682 21 36 9.10908 -3.59893 0.662836
3752 21 86 10.6391 -2.4522 16.2986
3726 21 68 8.95541 -0.516021 -2.04067
3816 21 126 10.3129 5.79887 -9.28206
3702 21 50 10.1397 -1.08005 7.37433
3780 21 102 11.6216 6.09215 13.5634
3654 21 16 15.1619 4.20983 15.4362
3886 21 172 8.17359 -0.18639 15.8094
3844 21 144 16.7977 12.3023 18.1386
ITEM: TIMESTEP
1000000
ITEM: NUMBER OF ATOMS
50
ITEM: BOX BOUNDS pp pp pp
-1.8617080450153846e+01 1.6798060671228409e+01
-2.4513865211777450e+01 1.4286456969690043e+01
-9.3464902451294165e+00 2.0719149068362142e+01
ITEM: ATOMS id type mol x y z
3753 21 87 -17.7825 -21.0666 -2.11415
3900 21 182 -18.0311 -20.4569 1.37953
3815 21 125 -11.9561 -20.9432 11.7672
3911 21 191 -13.65 -15.5766 0.445674
3918 21 196 -12.8575 -10.9814 15.5594
3917 21 195 -12.9715 -15.6608 16.0827
3903 21 185 -16.2918 -5.48834 -2.69174
3854 21 154 -12.9598 5.66385 19.9971
3847 21 147 -9.80316 7.71943 2.23923
3764 21 94 -18.4952 7.21961 17.1302
3641 21 11 -15.4249 11.4928 17.704
3848 21 148 -2.32412 -17.9868 0.0875789
3803 21 117 -3.96138 -17.9366 -8.38333
3664 21 24 -7.34131 -18.4994 -1.90558
3748 21 82 -4.99827 -20.928 -1.65345
3902 21 184 -8.70227 -13.5819 1.81261
3810 21 122 -9.27971 -14.9844 15.5769
3890 21 176 -1.00624 -1.37429 -0.603805
3839 21 141 -4.51082 -8.04351 2.89082
3846 21 146 -8.89588 -8.95871 19.8584
3671 21 29 -6.07381 1.64349 5.36646
3818 21 128 -9.09757 1.95752 6.22604
3760 21 92 -5.0857 -1.21374 15.6702
3881 21 169 -9.59228 10.8105 0.427158
3889 21 175 -2.11828 8.49366 13.3577
3912 21 192 5.65544 -23.1652 -3.39788
3681 21 35 3.3944 -24.0209 6.64507
3835 21 139 0.341752 -12.3861 0.782114
3887 21 173 7.07465 -3.10461 13.905
3904 21 186 1.64478 2.40991 5.04502
3896 21 180 7.11487 0.302762 12.6548
3766 21 96 2.08296 0.356192 16.9835
3809 21 121 0.624722 -1.1534 19.8421
3891 21 177 5.92681 7.186 0.305722
3822 21 132 0.271394 11.2897 17.9842
3845 21 145 8.20518 -21.9542 13.1308
3747 21 81 16.1725 -20.0867 11.8381
3905 21 187 13.1976 -12.7677 -7.46583
3913 21 193 10.0454 -9.28965 9.35161
3750 21 84 11.1791 -8.04212 -9.11023
3853 21 153 14.02 -1.41506 9.53408
3682 21 36 9.10804 -3.59042 0.720017
3752 21 86 10.6379 -2.43725 16.1778
3726 21 68 8.95439 -0.490203 -1.95272
3816 21 126 10.3117 5.86015 -9.11168
3702 21 50 10.1386 -1.0574 7.35512
3780 21 102 11.6203 6.15508 13.4737
3654 21 16 15.1602 4.26218 15.3252
3886 21 172 8.17265 -0.158721 15.6942
3844 21 144 16.7959 12.4001 17.9969
ITEM: TIMESTEP
1005000
ITEM: NUMBER OF ATOMS
51
ITEM: BOX BOUNDS pp pp pp
-1.8656153072642041e+01 1.6837133293716604e+01
-2.4289786830358974e+01 1.4062378588271567e+01
-9.5224271491518202e+00 2.0895085972325518e+01
ITEM: ATOMS id type mol x y z
3753 21 87 -17.8197 -20.8823 -2.20544
3900 21 182 -18.0688 -20.2796 1.32913
3815 21 125 -11.9805 -20.7603 11.8384
3911 21 191 -13.6781 -15.4557 0.38434
3918 21 196 -12.8838 -10.9136 15.6749
3917 21 195 -12.9981 -15.539 16.2044
3903 21 185 -16.3258 -5.48401 -2.78979
3854 21 154 -12.9864 5.53937 20.1645
3847 21 147 -9.82279 7.57121 2.19888
3764 21 94 -18.5341 7.07716 17.2641
3919 21 197 -15.7485 8.19538 18.3352
3641 21 11 -15.4569 11.301 17.8446
3848 21 148 -2.32724 -17.8381 0.0220538
3803 21 117 -3.96812 -17.7885 -8.54799
3664 21 24 -7.3555 -18.3448 -1.99443
3748 21 82 -5.00729 -20.7454 -1.73935
3902 21 184 -8.71947 -13.4841 1.76727
3810 21 122 -9.29818 -14.8704 15.6927
3890 21 176 -1.00645 -1.41748 -0.677422
3839 21 141 -4.51876 -8.00967 2.8581
3846 21 146 -8.9135 -8.9143 20.0243
3671 21 29 -6.0852 1.56544 5.36271
3818 21 128 -9.11564 1.87585 6.23235
3760 21 92 -5.09492 -1.25879 15.787
3881 21 169 -9.61144 10.6266 0.365607
3889 21 175 -2.12095 8.33649 13.4475
3912 21 192 5.66993 -22.9567 -3.50419
3681 21 35 3.4039 -23.8025 6.65629
3835 21 139 0.344513 -12.3021 0.724717
3887 21 173 7.09227 -3.12781 14.0012
3904 21 186 1.65042 2.32301 5.03752
3896 21 180 7.13258 0.2402 12.7364
3766 21 96 2.08957 0.293013 17.1157
3809 21 121 0.628107 -1.19914 20.0077
3891 21 177 5.94189 7.04394 0.24275
3822 21 132 0.274 11.1002 18.1281
3845 21 145 8.22529 -21.7597 13.2179
3747 21 81 16.2102 -19.9137 11.9101
3905 21 187 13.2287 -12.6793 -7.61975
3913 21 193 10.0696 -9.24141 9.39451
3750 21 84 11.2058 -8.0083 -9.28341
3853 21 153 14.0529 -1.45778 9.57911
3682 21 36 9.13014 -3.60802 0.661894
3752 21 86 10.6634 -2.46817 16.3006
3726 21 68 8.97615 -0.543606 -2.04212
3816 21 126 10.3365 5.7334 -9.28487
3702 21 50 10.163 -1.10425 7.37465
3780 21 102 11.648 6.02492 13.5649
3654 21 16 15.1957 4.15389 15.438
3886 21 172 8.19269 -0.215952 15.8113
3844 21 144 16.8349 12.1978 18.141
ITEM: TIMESTEP
1010000
ITEM: NUMBER OF ATOMS
53
ITEM: BOX BOUNDS pp pp pp
-1.8581294809912524e+01 1.6762275030987087e+01
-2.4395570023246758e+01 1.4168161781159352e+01
-9.5367573344409671e+00 2.0909416157593643e+01
ITEM: ATOMS id type mol x y z
3753 21 87 -17.7484 -20.9693 -2.21287
3900 21 182 -17.9965 -20.3633 1.32502
3815 21 125 -11.9338 -20.8467 11.8442
3911 21 191 -13.6243 -15.5128 0.379344
3918 21 196 -12.8333 -10.9456 15.6843
3917 21 195 -12.9471 -15.5965 16.2143
3903 21 185 -16.2608 -5.48605 -2.79778
3854 21 154 -12.9355 5.59813 20.1782
3847 21 147 -9.78519 7.64118 2.1956
3764 21 94 -18.4597 7.14441 17.275
3919 21 197 -15.6859 8.2688 18.3471
3641 21 11 -15.3955 11.3916 17.8561
3848 21 148 -2.32126 -17.9083 0.0167167
3803 21 117 -3.95522 -17.8585 -8.5614
3664 21 24 -7.32831 -18.4178 -2.00167
3748 21 82 -4.99001 -20.8316 -1.74635
3902 21 184 -8.68652 -13.5302 1.76358
3810 21 122 -9.26279 -14.9242 15.7021
3890 21 176 -1.00604 -1.39709 -0.683418
3839 21 141 -4.50354 -8.02564 2.85544
3846 21 146 -8.87974 -8.93527 20.0378
3920 21 198 -8.00433 2.13582 -9.0862
3671 21 29 -6.06337 1.60229 5.36241
3818 21 128 -9.08103 1.9144 6.23287
3760 21 92 -5.07726 -1.23752 15.7966
3881 21 169 -9.57473 10.7134 0.360594
3889 21 175 -2.11584 8.41069 13.4548
3912 21 192 5.64217 -23.0551 -3.51285
3681 21 35 3.38571 -23.9056 6.65721
3835 21 139 0.339223 -12.3418 0.720042
3887 21 173 7.05852 -3.11686 14.009
3904 21 186 1.63962 2.36404 5.03691
3896 21 180 7.09866 0.269735 12.743
3766 21 96 2.07692 0.322838 17.1265
3809 21 121 0.621622 -1.17755 20.0212
3891 21 177 5.91299 7.111 0.237621
3822 21 132 0.269007 11.1897 18.1399
3845 21 145 8.18676 -21.8515 13.225
3747 21 81 16.138 -19.9954 11.916
3921 21 199 14.1614 -17.3519 14.6204
3905 21 187 13.169 -12.721 -7.63229
3913 21 193 10.0233 -9.26418 9.398
3750 21 84 11.1547 -8.02426 -9.29751
3853 21 153 13.9898 -1.43761 9.58278
3682 21 36 9.0878 -3.59971 0.65716
3752 21 86 10.6146 -2.45357 16.3106
3726 21 68 8.93445 -0.518395 -2.04941
3816 21 126 10.2891 5.79324 -9.29898
3702 21 50 10.1163 -1.08213 7.37624
3780 21 102 11.595 6.08637 13.5723
3654 21 16 15.1278 4.20501 15.4472
3886 21 172 8.15429 -0.188934 15.8208
3844 21 144 16.7601 12.2933 18.1527
ITEM: TIMESTEP
1015000
ITEM: NUMBER OF ATOMS
52
ITEM: BOX BOUNDS pp pp pp
-1.8624874292381840e+01 1.6805854513456403e+01
-2.4369331829516874e+01 1.4141923587429467e+01
-9.5137521868583299e+00 2.0886411009998533e+01
ITEM: ATOMS id type mol x y z
3753 21 87 -17.7899 -20.9477 -2.20094
3900 21 182 -18.0386 -20.3426 1.33161
3815 21 125 -11.961 -20.8252 11.8349
3911 21 191 -13.6556 -15.4986 0.387364
3918 21 196 -12.8627 -10.9376 15.6692
3917 21 195 -12.9768 -15.5822 16.1984
3903 21 185 -16.2986 -5.48555 -2.78495
3854 21 154 -12.9651 5.58356 20.1563
3847 21 147 -9.80708 7.62383 2.20087
3764 21 94 -18.503 7.12773 17.2575
3641 21 11 -15.4313 11.3691 17.8377
3848 21 148 -2.32474 -17.8909 0.0252846
3803 21 117 -3.96273 -17.8411 -8.53987
3664 21 24 -7.34414 -18.3997 -1.99005
3748 21 82 -5.00007 -20.8102 -1.73511
3902 21 184 -8.7057 -13.5188 1.76951
3810 21 122 -9.28339 -14.9109 15.6869
3890 21 176 -1.00628 -1.40214 -0.673792
3839 21 141 -4.5124 -8.02168 2.85972
3846 21 146 -8.89939 -8.93007 20.0161
3920 21 198 -8.02182 2.12595 -9.06387
3671 21 29 -6.07608 1.59315 5.3629
3818 21 128 -9.10118 1.90484 6.23204
3760 21 92 -5.08754 -1.2428 15.7813
3881 21 169 -9.5961 10.6918 0.368642
3889 21 175 -2.11882 8.39229 13.4431
3912 21 192 5.65833 -23.0307 -3.49895
3681 21 35 3.3963 -23.88 6.65574
3835 21 139 0.342303 -12.3319 0.727547
3887 21 173 7.07817 -3.11958 13.9964
3904 21 186 1.64591 2.35386 5.03789
3896 21 180 7.1184 0.262409 12.7323
3766 21 96 2.08428 0.315441 17.1092
3809 21 121 0.625397 -1.18291 19.9996
3891 21 177 5.92981 7.09437 0.245855
3822 21 132 0.271914 11.1675 18.121
3845 21 145 8.20919 -21.8288 13.2136
3747 21 81 16.18 -19.9751 11.9066
3921 21 199 14.1985 -17.3353 14.6069
3905 21 187 13.2038 -12.7106 -7.61216
3913 21 193 10.0502 -9.25853 9.39239
3750 21 84 11.1845 -8.0203 -9.27487
3853 21 153 14.0265 -1.44262 9.57689
3682 21 36 9.11245 -3.60177 0.66476
3752 21 86 10.643 -2.45719 16.2946
3726 21 68 8.95873 -0.524648 -2.03772
3816 21 126 10.3167 5.7784 -9.27633
3702 21 50 10.1434 -1.08762 7.37368
3780 21 102 11.6258 6.07112 13.5604
3654 21 16 15.1673 4.19233 15.4324
3886 21 172 8.17664 -0.195636 15.8055
3844 21 144 16.8036 12.2697 18.1338
ITEM: TIMESTEP
1020000
ITEM: NUMBER OF ATOMS
52
ITEM: BOX BOUNDS pp pp pp
-1.8550568916813113e+01 1.6731549137887676e+01
-2.4318997645192624e+01 1.4091589403105218e+01
-9.5183458989853769e+00 2.0891004722106697e+01
ITEM: ATOMS id type mol x y z
3753 21 87 -17.7191 -20.9064 -2.20332
3900 21 182 -17.9668 -20.3027 1.3303
3815 21 125 -11.9146 -20.7842 11.8367
3911 21 191 -13.6021 -15.4715 0.385763
3918 21 196 -12.8126 -10.9224 15.6722
3917 21 195 -12.9262 -15.5549 16.2015
3903 21 185 -16.2341 -5.48457 -2.78751
3854 21 154 -12.9145 5.55559 20.1607
3847 21 147 -9.76976 7.59053 2.19982
3764 21 94 -18.4292 7.09573 17.261
3641 21 11 -15.3704 11.326 17.8414
3848 21 148 -2.3188 -17.8575 0.0235738
3803 21 117 -3.94992 -17.8078 -8.54417
3664 21 24 -7.31715 -18.365 -1.99237
3748 21 82 -4.98291 -20.7692 -1.73736
3902 21 184 -8.673 -13.4968 1.76832
3810 21 122 -9.24827 -14.8853 15.69
3890 21 176 -1.00587 -1.41185 -0.675714
3839 21 141 -4.49729 -8.01408 2.85886
3846 21 146 -8.86588 -8.92009 20.0204
3920 21 198 -7.99199 2.10703 -9.06833
3671 21 29 -6.05441 1.57561 5.3628
3818 21 128 -9.06682 1.88649 6.23221
3760 21 92 -5.07002 -1.25292 15.7843
3881 21 169 -9.55966 10.6505 0.367035
3889 21 175 -2.11374 8.35698 13.4454
3912 21 192 5.63078 -22.9839 -3.50173
3681 21 35 3.37824 -23.831 6.65603
3835 21 139 0.337052 -12.3131 0.726048
3887 21 173 7.04466 -3.12479 13.9989
3904 21 186 1.63519 2.33434 5.03769
3896 21 180 7.08473 0.248356 12.7345
3766 21 96 2.07172 0.301249 17.1126
3809 21 121 0.618959 -1.19318 20.0039
3891 21 177 5.90113 7.06246 0.244211
3822 21 132 0.266958 11.1249 18.1248
3845 21 145 8.17094 -21.7851 13.2159
3747 21 81 16.1083 -19.9363 11.9085
3921 21 199 14.1352 -17.3033 14.6096
3905 21 187 13.1446 -12.6908 -7.61618
3913 21 193 10.0043 -9.2477 9.39351
3750 21 84 11.1337 -8.01271 -9.27939
3853 21 153 13.9639 -1.45221 9.57806
3682 21 36 9.07041 -3.60572 0.663242
3752 21 86 10.5945 -2.46414 16.2978
3726 21 68 8.91734 -0.536644 -2.04005
3816 21 126 10.2696 5.74993 -9.28085
3702 21 50 10.0971 -1.09814 7.37419
3780 21 102 11.5732 6.04189 13.5627
3654 21 16 15.0999 4.16801 15.4354
3886 21 172 8.13853 -0.208492 15.8086
3844 21 144 16.7293 12.2242 18.1376
ITEM: TIMESTEP
1025000
ITEM: NUMBER OF ATOMS
53
ITEM: BOX BOUNDS pp pp pp
-1.8676952496445988e+01 1.6857932717520551e+01
-2.4218271059089989e+01 1.3990862817002583e+01
-9.6120190984215981e+00 2.0984677921502673e+01
ITEM: ATOMS id type mol x y z
3753 21 87 -17.8395 -20.8235 -2.25193
3900 21 182 -18.089 -20.2231 1.30346
3815 21 125 -11.9935 -20.702 11.8746
3911 21 191 -13.6931 -15.4172 0.353107
3918 21 196 -12.8979 -10.892 15.7337
3917 21 195 -13.0123 -15.5001 16.2663
3903 21 185 -16.3439 -5.48263 -2.83972
3854 21 154 -13.0006 5.49964 20.2498
3847 21 147 -9.83323 7.5239 2.17834
3764 21 94 -18.5547 7.0317 17.3323
3641 21 11 -15.474 11.2398 17.9163
3848 21 148 -2.3289 -17.7906 -0.0113134
3803 21 117 -3.9717 -17.7413 -8.63184
3664 21 24 -7.36305 -18.2955 -2.03968
3748 21 82 -5.0121 -20.6871 -1.78309
3902 21 184 -8.72862 -13.4529 1.74419
3810 21 122 -9.30801 -14.834 15.7516
3890 21 176 -1.00656 -1.43126 -0.714909
3839 21 141 -4.52299 -7.99887 2.84144
3846 21 146 -8.92288 -8.90013 20.1087
3920 21 198 -8.04273 2.06916 -9.15923
3671 21 29 -6.09127 1.54053 5.36081
3818 21 128 -9.12526 1.84978 6.23557
3760 21 92 -5.09982 -1.27317 15.8465
3881 21 169 -9.62163 10.5679 0.334264
3889 21 175 -2.12237 8.28633 13.4932
3912 21 192 5.67764 -22.8902 -3.55833
3681 21 35 3.40896 -23.7328 6.66201
3835 21 139 0.345983 -12.2753 0.695489
3887 21 173 7.10165 -3.13522 14.0502
3904 21 186 1.65342 2.29528 5.0337
3896 21 180 7.142 0.220233 12.7779
3766 21 96 2.09308 0.272849 17.183
3809 21 121 0.62991 -1.21374 20.0921
3891 21 177 5.94992 6.9986 0.210683
3822 21 132 0.275387 11.0398 18.2014
3845 21 145 8.23599 -21.6976 13.2623
3747 21 81 16.2302 -19.8585 11.9468
3921 21 199 14.2429 -17.2394 14.6646
3905 21 187 13.2452 -12.651 -7.69814
3925 21 201 15.1417 -14.2576 2.45293
3913 21 193 10.0825 -9.22602 9.41635
3750 21 84 11.22 -7.9975 -9.37159
3853 21 153 14.0704 -1.47142 9.60204
3682 21 36 9.14191 -3.61363 0.632296
3752 21 86 10.6769 -2.47803 16.3632
3726 21 68 8.98774 -0.56065 -2.08765
3816 21 126 10.3497 5.69295 -9.37306
3702 21 50 10.1759 -1.1192 7.38459
3780 21 102 11.6627 5.98338 13.6113
3654 21 16 15.2146 4.11933 15.4954
3886 21 172 8.20335 -0.234218 15.8709
3844 21 144 16.8557 12.1333 18.2143
ITEM: TIMESTEP
1030000
ITEM: NUMBER OF ATOMS
53
ITEM: BOX BOUNDS pp pp pp
-1.8878546750046436e+01 1.7059526971120999e+01
-2.4250212435263414e+01 1.4022804193176007e+01
-9.4187224515675219e+00 2.0791381274677292e+01
ITEM: ATOMS id type mol x y z
3753 21 87 -18.0316 -20.8498 -2.15163
3900 21 182 -18.2839 -20.2483 1.35884
3815 21 125 -12.1192 -20.7281 11.7964
3911 21 191 -13.8381 -15.4344 0.420493
3918 21 196 -13.0339 -10.9016 15.6068
3917 21 195 -13.1496 -15.5175 16.1326
3903 21 185 -16.519 -5.48325 -2.73199
3854 21 154 -13.1377 5.51738 20.0658
3847 21 147 -9.93448 7.54503 2.22266
3764 21 94 -18.7549 7.052 17.1852
3641 21 11 -15.6392 11.2672 17.7617
3848 21 148 -2.34501 -17.8118 0.060677
3803 21 117 -4.00645 -17.7624 -8.45093
3664 21 24 -7.43628 -18.3175 -1.94206
3748 21 82 -5.05864 -20.7131 -1.68871
3902 21 184 -8.81734 -13.4668 1.794
3810 21 122 -9.4033 -14.8503 15.6244
3890 21 176 -1.00766 -1.42511 -0.634029
3839 21 141 -4.56399 -8.00369 2.87739
3846 21 146 -9.0138 -8.90646 19.9265
3920 21 198 -8.12366 2.08116 -8.97165
3671 21 29 -6.15006 1.55166 5.36492
3818 21 128 -9.21848 1.86142 6.22863
3760 21 92 -5.14737 -1.26675 15.7182
3881 21 169 -9.72048 10.5941 0.401888
3889 21 175 -2.13613 8.30873 13.3946
3912 21 192 5.75238 -22.9199 -3.44153
3681 21 35 3.45795 -23.764 6.64968
3835 21 139 0.360228 -12.2873 0.758549
3887 21 173 7.19254 -3.13191 13.9445
3904 21 186 1.6825 2.30766 5.04194
3896 21 180 7.23336 0.229151 12.6883
3766 21 96 2.12715 0.281855 17.0378
3809 21 121 0.647376 -1.20722 19.9101
3891 21 177 6.02775 7.01885 0.279869
3822 21 132 0.288831 11.0668 18.0433
3845 21 145 8.33976 -21.7254 13.1665
3747 21 81 16.4247 -19.8832 11.8677
3921 21 199 14.4149 -17.2597 14.5511
3905 21 187 13.4059 -12.6636 -7.52902
3925 21 201 15.3238 -14.2729 2.49378
3913 21 193 10.2072 -9.23289 9.36922
3750 21 84 11.3576 -8.00232 -9.18133
3853 21 153 14.2404 -1.46533 9.55256
3682 21 36 9.25596 -3.61112 0.696155
3752 21 86 10.8084 -2.47363 16.2283
3726 21 68 9.10003 -0.553037 -1.98942
3816 21 126 10.4774 5.71102 -9.18278
3702 21 50 10.3017 -1.11253 7.36314
3780 21 102 11.8053 6.00193 13.5111
3654 21 16 15.3975 4.13476 15.3715
3886 21 172 8.30675 -0.22606 15.7423
3844 21 144 17.0573 12.1621 18.056
ITEM: TIMESTEP
1035000
ITEM: NUMBER OF ATOMS
53
ITEM: BOX BOUNDS pp pp pp
-1.8631875558042132e+01 1.6812855779116695e+01
-2.4372711459273400e+01 1.4145303217185994e+01
-9.5465217448035666e+00 2.0919180567864665e+01
ITEM: ATOMS id type mol x y z
3753 21 87 -17.7966 -20.9505 -2.21794
3900 21 182 -18.0454 -20.3452 1.32222
3815 21 125 -11.9654 -20.828 11.8481
3911 21 191 -13.6606 -15.5005 0.37594
3918 21 196 -12.8674 -10.9387 15.6907
3917 21 195 -12.9816 -15.5841 16.221
3903 21 185 -16.3047 -5.48561 -2.80322
3854 21 154 -12.9699 5.58543 20.1875
3847 21 147 -9.81059 7.62606 2.19336
3764 21 94 -18.5099 7.12988 17.2824
3641 21 11 -15.437 11.372 17.8639
3848 21 148 -2.3253 -17.8931 0.0130801
3803 21 117 -3.96393 -17.8433 -8.57054
3664 21 24 -7.34668 -18.402 -2.0066
3748 21 82 -5.00169 -20.813 -1.75111
3902 21 184 -8.70878 -13.5203 1.76106
3810 21 122 -9.2867 -14.9126 15.7085
3890 21 176 -1.00632 -1.40149 -0.687503
3839 21 141 -4.51382 -8.02219 2.85362
3846 21 146 -8.90255 -8.93074 20.047
3920 21 198 -8.02463 2.12722 -9.09567
3671 21 29 -6.07812 1.59432 5.3622
3818 21 128 -9.10441 1.90607 6.23322
3760 21 92 -5.08919 -1.24212 15.803
3881 21 169 -9.59953 10.6946 0.357178
3889 21 175 -2.11929 8.39466 13.4598
3681 21 35 3.398 -23.8833 6.65783
3835 21 139 0.342797 -12.3332 0.716857
3887 21 173 7.08132 -3.11923 14.0143
3904 21 186 1.64692 2.35517 5.03649
3896 21 180 7.12158 0.263352 12.7475
3766 21 96 2.08546 0.316393 17.1338
3809 21 121 0.626004 -1.18222 20.0304
3891 21 177 5.93252 7.09651 0.234126
3822 21 132 0.272381 11.1704 18.1478
3845 21 145 8.21279 -21.8317 13.2298
3747 21 81 16.1867 -19.9777 11.92
3921 21 199 14.2045 -17.3374 14.6261
3905 21 187 13.2093 -12.712 -7.64083
3925 21 201 15.101 -14.3315 2.46677
3913 21 193 10.0546 -9.25926 9.40038
3750 21 84 11.1892 -8.02081 -9.30712
3853 21 153 14.0324 -1.44197 9.58528
3682 21 36 9.11641 -3.60151 0.653934
3752 21 86 10.6476 -2.45673 16.3175
3726 21 68 8.96263 -0.523843 -2.05437
3816 21 126 10.3211 5.78031 -9.30859
3702 21 50 10.1478 -1.08691 7.37732
3780 21 102 11.6308 6.07309 13.5773
3654 21 16 15.1737 4.19397 15.4534
3886 21 172 8.18023 -0.194773 15.8273
3926 21 202 9.41016 7.50009 3.16147
3844 21 144 16.8106 12.2727 18.1607
ITEM: TIMESTEP
1040000
ITEM: NUMBER OF ATOMS
54
ITEM: BOX BOUNDS pp pp pp
-1.8604238910525318e+01 1.6785219131599881e+01
-2.4320742534027129e+01 1.4093334291939723e+01
-9.5837434602413474e+00 2.0956402283275768e+01
ITEM: ATOMS id type mol x y z
3753 21 87 -17.7702 -20.9078 -2.23725
3900 21 182 -18.0187 -20.3041 1.31156
3815 21 125 -11.9481 -20.7856 11.8632
3911 21 191 -13.6408 -15.4724 0.362964
3918 21 196 -12.8488 -10.9229 15.7152
3917 21 195 -12.9628 -15.5558 16.2468
3903 21 185 -16.2807 -5.48461 -2.82396
3854 21 154 -12.9511 5.55656 20.2229
3847 21 147 -9.79671 7.59168 2.18482
3764 21 94 -18.4825 7.09684 17.3108
3641 21 11 -15.4143 11.3275 17.8937
3848 21 148 -2.32309 -17.8586 -0.000782588
3803 21 117 -3.95917 -17.809 -8.60538
3664 21 24 -7.33664 -18.3662 -2.0254
3748 21 82 -4.99531 -20.7706 -1.76929
3902 21 184 -8.69662 -13.4976 1.75147
3810 21 122 -9.27364 -14.8862 15.733
3890 21 176 -1.00617 -1.41151 -0.703078
3839 21 141 -4.5082 -8.01434 2.8467
3846 21 146 -8.89009 -8.92044 20.0821
3920 21 198 -8.01354 2.10768 -9.13179
3671 21 29 -6.07006 1.57622 5.36141
3818 21 128 -9.09164 1.88713 6.23455
3760 21 92 -5.08267 -1.25257 15.8278
3881 21 169 -9.58598 10.652 0.344156
3889 21 175 -2.11741 8.3582 13.4788
3681 21 35 3.39128 -23.8327 6.6602
3835 21 139 0.340844 -12.3137 0.704714
3887 21 173 7.06886 -3.12461 14.0347
3927 21 203 6.90469 -1.81977 10.8361
3904 21 186 1.64293 2.33502 5.0349
3896 21 180 7.10905 0.248843 12.7648
3766 21 96 2.08079 0.301741 17.1618
3809 21 121 0.62361 -1.19282 20.0655
3891 21 177 5.92185 7.06356 0.220804
3822 21 132 0.270538 11.1264 18.1783
3845 21 145 8.19857 -21.7866 13.2483
3747 21 81 16.1601 -19.9376 11.9352
3921 21 199 14.1809 -17.3044 14.648
3905 21 187 13.1873 -12.6915 -7.6734
3925 21 201 15.076 -14.3066 2.4589
3913 21 193 10.0375 -9.24808 9.40946
3750 21 84 11.1704 -8.01297 -9.34376
3853 21 153 14.0091 -1.45188 9.5948
3682 21 36 9.10078 -3.60559 0.641637
3752 21 86 10.6295 -2.4639 16.3434
3726 21 68 8.94723 -0.536228 -2.07328
3816 21 126 10.3036 5.75091 -9.34523
3702 21 50 10.1306 -1.09778 7.38145
3780 21 102 11.6112 6.0429 13.5966
3654 21 16 15.1486 4.16885 15.4773
3886 21 172 8.16606 -0.208046 15.8521
3926 21 202 9.39407 7.46605 3.15531
3844 21 144 16.783 12.2258 18.1912
ITEM: TIMESTEP
1045000
ITEM: NUMBER OF ATOMS
53
ITEM: BOX BOUNDS pp pp pp
-1.8699201667549389e+01 1.6880181888623952e+01
-2.4255824420769120e+01 1.4028416178681713e+01
-9.5541147674318090e+00 2.0926773590455902e+01
ITEM: ATOMS id type mol x y z
3753 21 87 -17.8607 -20.8544 -2.22188
3900 21 182 -18.1105 -20.2528 1.32005
3815 21 125 -12.0074 -20.7326 11.8512
3918 21 196 -12.9129 -10.9033 15.6957
3917 21 195 -13.0274 -15.5205 16.2263
3903 21 185 -16.3632 -5.48335 -2.80745
3854 21 154 -13.0157 5.5205 20.1947
3847 21 147 -9.84441 7.54874 2.19162
3764 21 94 -18.5768 7.05557 17.2882
3641 21 11 -15.4922 11.272 17.87
3848 21 148 -2.33068 -17.8156 0.0102522
3803 21 117 -3.97554 -17.7661 -8.57765
3664 21 24 -7.37114 -18.3214 -2.01043
3748 21 82 -5.01723 -20.7177 -1.75482
3902 21 184 -8.73841 -13.4692 1.75911
3810 21 122 -9.31853 -14.8531 15.7135
3890 21 176 -1.00669 -1.42402 -0.690681
3839 21 141 -4.52752 -8.00454 2.85221
3846 21 146 -8.93292 -8.90757 20.0541
3920 21 198 -8.05166 2.08327 -9.10304
3671 21 29 -6.09776 1.55361 5.36204
3818 21 128 -9.13555 1.86347 6.23349
3760 21 92 -5.10507 -1.26562 15.8081
3881 21 169 -9.63254 10.5987 0.354522
3889 21 175 -2.12389 8.31267 13.4637
3681 21 35 3.41436 -23.7694 6.65831
3835 21 139 0.347555 -12.2894 0.714379
3887 21 173 7.11168 -3.13133 14.0185
3927 21 203 6.94663 -1.8309 10.8261
3904 21 186 1.65663 2.30984 5.03617
3896 21 180 7.15209 0.230718 12.751
3766 21 96 2.09684 0.283437 17.1395
3809 21 121 0.631837 -1.20608 20.0376
3891 21 177 5.95851 7.0224 0.231408
3822 21 132 0.276871 11.0715 18.1541
3845 21 145 8.24745 -21.7302 13.2336
3747 21 81 16.2517 -19.8875 11.9231
3921 21 199 14.2619 -17.2632 14.6306
3905 21 187 13.263 -12.6659 -7.64748
3925 21 201 15.1618 -14.2756 2.46517
3913 21 193 10.0962 -9.2341 9.40224
3750 21 84 11.2352 -8.00317 -9.31459
3853 21 153 14.0892 -1.46426 9.58722
3682 21 36 9.1545 -3.61068 0.651426
3752 21 86 10.6915 -2.47285 16.3228
3726 21 68 9.00013 -0.5517 -2.05823
3816 21 126 10.3638 5.71419 -9.31606
3702 21 50 10.1898 -1.11135 7.37817
3780 21 102 11.6784 6.00519 13.5813
3654 21 16 15.2348 4.13748 15.4583
3886 21 172 8.21476 -0.224627 15.8324
3926 21 202 9.44936 7.42353 3.16022
3844 21 144 16.878 12.1672 18.1669
ITEM: TIMESTEP
1050000
ITEM: NUMBER OF ATOMS
53
ITEM: BOX BOUNDS pp pp pp
-1.8629162581563349e+01 1.6810142802637912e+01
-2.4534051327757073e+01 1.4306643085669666e+01
-9.5495101904410262e+00 2.0922169013448457e+01
ITEM: ATOMS id type mol x y z
3753 21 87 -17.794 -21.0832 -2.21949
3900 21 182 -18.0428 -20.4728 1.32137
3815 21 125 -11.9637 -20.9596 11.8493
3928 21 204 -16.1109 -13.1939 -6.92
3918 21 196 -12.8656 -10.9875 15.6927
3917 21 195 -12.9797 -15.6718 16.2231
3903 21 185 -16.3023 -5.48873 -2.80488
3854 21 154 -12.968 5.67507 20.1903
3847 21 147 -9.80923 7.73279 2.19267
3764 21 94 -18.5072 7.23245 17.2847
3641 21 11 -15.4348 11.5101 17.8663
3848 21 148 -2.32508 -18.0002 0.0119671
3803 21 117 -3.96347 -17.95 -8.57334
3664 21 24 -7.3457 -18.5134 -2.00811
3748 21 82 -5.00106 -20.9445 -1.75257
3902 21 184 -8.70759 -13.5907 1.76029
3810 21 122 -9.28542 -14.9947 15.7105
3890 21 176 -1.0063 -1.37039 -0.688754
3839 21 141 -4.51327 -8.04656 2.85307
3846 21 146 -8.90133 -8.96271 20.0498
3920 21 198 -8.02354 2.18788 -9.09857
3671 21 29 -6.07733 1.65052 5.36214
3818 21 128 -9.10316 1.96488 6.23333
3760 21 92 -5.08855 -1.20969 15.805
3881 21 169 -9.5982 10.8271 0.356133
3889 21 175 -2.11911 8.50782 13.4613
3681 21 35 3.39734 -24.0406 6.65802
3835 21 139 0.342606 -12.3937 0.715882
3887 21 173 7.0801 -3.10252 14.016
3927 21 203 6.9157 -1.78319 10.8245
3904 21 186 1.64653 2.41774 5.03636
3766 21 96 2.085 0.361883 17.1361
3809 21 121 0.625769 -1.14928 20.0332
3891 21 177 5.93147 7.1988 0.233057
3822 21 132 0.2722 11.3068 18.1503
3845 21 145 8.2114 -21.9718 13.2313
3747 21 81 16.1841 -20.1023 11.9212
3921 21 199 14.2022 -17.4398 14.6279
3905 21 187 13.2072 -12.7756 -7.64345
3925 21 201 15.0985 -14.4087 2.46614
3913 21 193 10.0529 -9.29399 9.40111
3750 21 84 11.1874 -8.04517 -9.31006
3853 21 153 14.0301 -1.41121 9.58604
3682 21 36 9.11488 -3.58884 0.652947
3752 21 86 10.6458 -2.43447 16.3195
3726 21 68 8.96112 -0.485392 -2.05589
3816 21 126 10.3194 5.87157 -9.31153
3702 21 50 10.1461 -1.05318 7.37765
3780 21 102 11.6289 6.1668 13.5789
3654 21 16 15.1712 4.27194 15.4554
3886 21 172 8.17884 -0.153565 15.8293
3926 21 202 9.40858 7.60576 3.16098
3844 21 144 16.8079 12.4184 18.1631
ITEM: TIMESTEP
1055000
ITEM: NUMBER OF ATOMS
53
ITEM: BOX BOUNDS pp pp pp
-1.8804955566785580e+01 1.6985935787860143e+01
-2.4424257811893167e+01 1.4196849569805760e+01
-9.5045419023888300e+00 2.0877200725389734e+01
ITEM: ATOMS id type mol x y z
3753 21 87 -17.9615 -20.9929 -2.19616
3900 21 182 -18.2127 -20.386 1.33425
3815 21 125 -12.0733 -20.8701 11.8311
3928 21 204 -16.2617 -13.1482 -6.88279
3918 21 196 -12.9842 -10.9543 15.6632
3917 21 195 -13.0995 -15.6121 16.192
3903 21 185 -16.455 -5.48661 -2.77982
3854 21 154 -13.0877 5.61407 20.1475
3847 21 147 -9.89752 7.66016 2.20298
3764 21 94 -18.6818 7.16265 17.2505
3641 21 11 -15.5789 11.4161 17.8303
3848 21 148 -2.33913 -17.9273 0.0287149
3803 21 117 -3.99376 -17.8774 -8.53125
3664 21 24 -7.40955 -18.4376 -1.9854
3748 21 82 -5.04165 -20.855 -1.73062
3902 21 184 -8.78495 -13.5428 1.77188
3810 21 122 -9.36852 -14.9388 15.6809
3890 21 176 -1.00726 -1.39156 -0.669938
3839 21 141 -4.54903 -8.02998 2.86143
3846 21 146 -8.98061 -8.94095 20.0074
3920 21 198 -8.09412 2.1466 -9.05493
3671 21 29 -6.1286 1.61228 5.36309
3818 21 128 -9.18445 1.92486 6.23171
3760 21 92 -5.13001 -1.23176 15.7752
3881 21 169 -9.6844 10.7369 0.371865
3889 21 175 -2.13111 8.43081 13.4384
3681 21 35 3.44007 -23.9336 6.65515
3835 21 139 0.355028 -12.3525 0.730552
3887 21 173 7.15936 -3.11389 13.9914
3927 21 203 6.99333 -1.80202 10.8094
3904 21 186 1.67188 2.37516 5.03828
3766 21 96 2.11471 0.330927 17.1023
3809 21 121 0.641 -1.17169 19.9909
3891 21 177 5.99934 7.12919 0.249152
3822 21 132 0.283923 11.2139 18.1135
3845 21 145 8.30188 -21.8764 13.209
3747 21 81 16.3537 -20.0175 11.9028
3921 21 199 14.3521 -17.3701 14.6015
3905 21 187 13.3472 -12.7323 -7.60411
3925 21 201 15.2573 -14.3562 2.47564
3913 21 193 10.1617 -9.27036 9.39015
3750 21 84 11.3074 -8.0286 -9.2658
3853 21 153 14.1784 -1.43215 9.57453
3682 21 36 9.21433 -3.59746 0.667803
3752 21 86 10.7604 -2.44962 16.2882
3726 21 68 9.05904 -0.511558 -2.03303
3816 21 126 10.4308 5.80947 -9.26726
3702 21 50 10.2558 -1.07613 7.37266
3780 21 102 11.7533 6.10303 13.5556
3654 21 16 15.3307 4.21888 15.4265
3886 21 172 8.26901 -0.181607 15.7994
3926 21 202 9.51094 7.53385 3.16843
3844 21 144 16.9837 12.3192 18.1263
ITEM: TIMESTEP
1060000
ITEM: NUMBER OF ATOMS
52
ITEM: BOX BOUNDS pp pp pp
-1.8805916410587294e+01 1.6986896631661857e+01
-2.4388959101763295e+01 1.4161550859675888e+01
-9.4351612816571375e+00 2.0807820104657416e+01
ITEM: ATOMS id type mol x y z
3753 21 87 -17.9624 -20.9639 -2.16016
3900 21 182 -18.2137 -20.3581 1.35413
3815 21 125 -12.0739 -20.8413 11.8031
3928 21 204 -16.2625 -13.1335 -6.82539
3918 21 196 -12.9849 -10.9436 15.6176
3917 21 195 -13.1001 -15.5929 16.144
3903 21 185 -16.4559 -5.48593 -2.74115
3854 21 154 -13.0883 5.59446 20.0815
3847 21 147 -9.898 7.63681 2.21889
3764 21 94 -18.6828 7.14021 17.1977
3641 21 11 -15.5797 11.3859 17.7749
3848 21 148 -2.3392 -17.9039 0.0545546
3803 21 117 -3.99393 -17.8541 -8.46632
3664 21 24 -7.4099 -18.4133 -1.95036
3748 21 82 -5.04187 -20.8262 -1.69674
3902 21 184 -8.78537 -13.5274 1.78976
3810 21 122 -9.36897 -14.9209 15.6352
3890 21 176 -1.00727 -1.39836 -0.640907
3839 21 141 -4.54922 -8.02464 2.87433
3846 21 146 -8.98105 -8.93396 19.942
3920 21 198 -8.09451 2.13333 -8.98761
3671 21 29 -6.12888 1.59998 5.36457
3818 21 128 -9.18489 1.91199 6.22922
3760 21 92 -5.13024 -1.23885 15.7291
3881 21 169 -9.68487 10.708 0.396137
3889 21 175 -2.13117 8.40605 13.403
3681 21 35 3.4403 -23.8992 6.65073
3835 21 139 0.355095 -12.3393 0.753186
3887 21 173 7.1598 -3.11754 13.9535
3927 21 203 6.99376 -1.80807 10.786
3904 21 186 1.67202 2.36147 5.04124
3766 21 96 2.11488 0.320974 17.0501
3891 21 177 5.99971 7.10681 0.273985
3822 21 132 0.283987 11.1841 18.0567
3845 21 145 8.30238 -21.8458 13.1747
3747 21 81 16.3546 -19.9903 11.8744
3921 21 199 14.3529 -17.3477 14.5608
3905 21 187 13.348 -12.7184 -7.54341
3925 21 201 15.2582 -14.3393 2.49031
3913 21 193 10.1622 -9.26276 9.37323
3750 21 84 11.3081 -8.02327 -9.19751
3853 21 153 14.1792 -1.43888 9.55677
3682 21 36 9.21487 -3.60023 0.690724
3752 21 86 10.761 -2.45449 16.2397
3726 21 68 9.05958 -0.519971 -1.99778
3816 21 126 10.4314 5.7895 -9.19897
3702 21 50 10.2564 -1.08352 7.36496
3780 21 102 11.7539 6.08253 13.5196
3654 21 16 15.3316 4.20182 15.382
3886 21 172 8.2695 -0.190623 15.7532
3926 21 202 9.5115 7.51073 3.17993
3844 21 144 16.9847 12.2874 18.0695
ITEM: TIMESTEP
1065000
ITEM: NUMBER OF ATOMS
52
ITEM: BOX BOUNDS pp pp pp
-1.8726095114166480e+01 1.6907075335241043e+01
-2.4493991118031303e+01 1.4266582875943897e+01
-9.4511642160790821e+00 2.0823823039057853e+01
ITEM: ATOMS id type mol x y z
3753 21 87 -17.8863 -21.0503 -2.16846
3900 21 182 -18.1365 -20.4411 1.34954
3815 21 125 -12.0241 -20.927 11.8095
3928 21 204 -16.194 -13.1772 -6.83863
3918 21 196 -12.931 -10.9753 15.6281
3917 21 195 -13.0458 -15.65 16.1551
3903 21 185 -16.3865 -5.48795 -2.75007
3854 21 154 -13.034 5.65281 20.0967
3847 21 147 -9.85791 7.70629 2.21522
3764 21 94 -18.6035 7.20698 17.2098
3641 21 11 -15.5142 11.4758 17.7877
3848 21 148 -2.33283 -17.9736 0.0485946
3803 21 117 -3.98017 -17.9235 -8.48129
3664 21 24 -7.3809 -18.4857 -1.95844
3748 21 82 -5.02344 -20.9118 -1.70455
3902 21 184 -8.75025 -13.5732 1.78564
3810 21 122 -9.33124 -14.9743 15.6458
3890 21 176 -1.00683 -1.37812 -0.647603
3839 21 141 -4.53299 -8.04051 2.87136
3846 21 146 -8.94505 -8.95477 19.9571
3920 21 198 -8.06246 2.17282 -9.00314
3671 21 29 -6.1056 1.63657 5.36423
3818 21 128 -9.14798 1.95028 6.22979
3760 21 92 -5.11141 -1.21774 15.7397
3881 21 169 -9.64573 10.7942 0.390538
3889 21 175 -2.12573 8.47972 13.4111
3681 21 35 3.4209 -24.0015 6.65175
3835 21 139 0.349455 -12.3787 0.747965
3887 21 173 7.12381 -3.10667 13.9622
3927 21 203 6.95851 -1.79006 10.7914
3904 21 186 1.66051 2.4022 5.04056
3766 21 96 2.10139 0.350588 17.0622
3891 21 177 5.96889 7.1734 0.268257
3822 21 132 0.278664 11.2729 18.0698
3845 21 145 8.26129 -21.937 13.1826
3747 21 81 16.2776 -20.0713 11.881
3921 21 199 14.2849 -17.4144 14.5702
3905 21 187 13.2844 -12.7598 -7.55741
3925 21 201 15.1861 -14.3895 2.48693
3913 21 193 10.1129 -9.28537 9.37713
3750 21 84 11.2536 -8.03912 -9.21326
3853 21 153 14.1119 -1.41885 9.56087
3682 21 36 9.16971 -3.59198 0.685437
3752 21 86 10.709 -2.43999 16.2509
3726 21 68 9.01511 -0.494939 -2.00591
3816 21 126 10.3808 5.84891 -9.21472
3702 21 50 10.2066 -1.06155 7.36674
3780 21 102 11.6975 6.14353 13.5279
3654 21 16 15.2592 4.25258 15.3923
3886 21 172 8.22856 -0.163797 15.7639
3926 21 202 9.46502 7.57952 3.17728
3844 21 144 16.9049 12.3822 18.0826
ITEM: TIMESTEP
1070000
ITEM: NUMBER OF ATOMS
53
ITEM: BOX BOUNDS pp pp pp
-1.8678135528679746e+01 1.6859115749754309e+01
-2.4180080161695315e+01 1.3952671919607909e+01
-9.6536475555545138e+00 2.1026306378464842e+01
ITEM: ATOMS id type mol x y z
3753 21 87 -17.8406 -20.7921 -2.27353
3900 21 182 -18.0901 -20.1929 1.29153
3815 21 125 -11.9942 -20.6708 11.8915
3928 21 204 -16.1529 -13.0466 -7.00617
3918 21 196 -12.8987 -10.8804 15.7611
3917 21 195 -13.0131 -15.4793 16.2951
3903 21 185 -16.3449 -5.48189 -2.86292
3854 21 154 -13.0014 5.47842 20.2895
3847 21 147 -9.83383 7.49864 2.16879
3764 21 94 -18.5559 7.00742 17.364
3641 21 11 -15.4749 11.2071 17.9495
3848 21 148 -2.32899 -17.7653 -0.0268173
3803 21 117 -3.97191 -17.716 -8.6708
3664 21 24 -7.36348 -18.2691 -2.0607
3748 21 82 -5.01237 -20.656 -1.80342
3902 21 184 -8.72914 -13.4362 1.73346
3810 21 122 -9.30857 -14.8146 15.779
3890 21 176 -1.00657 -1.43862 -0.732328
3839 21 141 -4.52323 -7.9931 2.8337
3846 21 146 -8.92342 -8.89256 20.148
3920 21 198 -8.0432 2.0548 -9.19963
3671 21 29 -6.09161 1.52723 5.35992
3818 21 128 -9.12581 1.83586 6.23706
3760 21 92 -5.1001 -1.28084 15.8742
3881 21 169 -9.62221 10.5365 0.319701
3889 21 175 -2.12245 8.25954 13.5145
3929 21 205 -6.74888 7.35891 14.9088
3681 21 35 3.40924 -23.6956 6.66466
3835 21 139 0.346066 -12.261 0.681908
3887 21 173 7.10218 -3.13917 14.0729
3927 21 203 6.93733 -1.84389 10.8596
3904 21 186 1.65359 2.28047 5.03192
3766 21 96 2.09328 0.262081 17.2143
3891 21 177 5.95038 6.97438 0.195783
3822 21 132 0.275466 11.0075 18.2355
3845 21 145 8.2366 -21.6645 13.2829
3747 21 81 16.2314 -19.8291 11.9638
3921 21 199 14.244 -17.2151 14.689
3905 21 187 13.2462 -12.636 -7.73456
3925 21 201 15.1427 -14.2393 2.44413
3913 21 193 10.0832 -9.2178 9.4265
3750 21 84 11.2208 -7.99174 -9.41256
3853 21 153 14.0714 -1.4787 9.61269
3682 21 36 9.14258 -3.61663 0.618544
3752 21 86 10.6777 -2.4833 16.3922
3726 21 68 8.9884 -0.569751 -2.1088
3816 21 126 10.3504 5.67135 -9.41404
3702 21 50 10.1767 -1.12719 7.38921
3780 21 102 11.6635 5.9612 13.6328
3654 21 16 15.2157 4.10087 15.5221
3886 21 172 8.20396 -0.243973 15.8987
3926 21 202 9.4371 7.37392 3.14372
3844 21 144 16.8569 12.0988 18.2484
ITEM: TIMESTEP
1075000
ITEM: NUMBER OF ATOMS
52
ITEM: BOX BOUNDS pp pp pp
-1.8658403631242372e+01 1.6839383852316935e+01
-2.4626500181649668e+01 1.4399091939562261e+01
-9.5071634274701680e+00 2.0879822250399581e+01
ITEM: ATOMS id type mol x y z
3753 21 87 -17.8218 -21.1592 -2.19752
3900 21 182 -18.071 -20.5459 1.3335
3815 21 125 -11.9819 -21.0351 11.8322
3928 21 204 -16.136 -13.2323 -6.88496
3918 21 196 -12.8853 -11.0154 15.6649
3917 21 195 -12.9997 -15.722 16.1938
3903 21 185 -16.3277 -5.49051 -2.78128
3854 21 154 -12.9879 5.72642 20.15
3847 21 147 -9.82392 7.79394 2.20238
3764 21 94 -18.5363 7.29122 17.2525
3641 21 11 -15.4587 11.5893 17.8324
3848 21 148 -2.32742 -18.0615 0.0277385
3803 21 117 -3.9685 -18.0111 -8.5337
3664 21 24 -7.35632 -18.5772 -1.98672
3748 21 82 -5.00781 -21.0199 -1.7319
3902 21 184 -8.72046 -13.631 1.77121
3810 21 122 -9.29924 -15.0417 15.6826
3890 21 176 -1.00646 -1.35258 -0.671035
3839 21 141 -4.51922 -8.06052 2.86094
3846 21 146 -8.91452 -8.98104 20.0099
3920 21 198 -8.03528 2.22264 -9.05748
3671 21 29 -6.08586 1.68272 5.36304
3818 21 128 -9.11668 1.99858 6.23181
3760 21 92 -5.09545 -1.1911 15.7769
3881 21 169 -9.61254 10.9029 0.370947
3889 21 175 -2.12111 8.57266 13.4397
3681 21 35 3.40445 -24.1307 6.65532
3835 21 139 0.344672 -12.4283 0.729697
3887 21 173 7.09328 -3.09294 13.9928
3927 21 203 6.92861 -1.76733 10.8102
3904 21 186 1.65074 2.45359 5.03817
3766 21 96 2.08995 0.387949 17.1042
3891 21 177 5.94276 7.25741 0.248214
3822 21 132 0.27415 11.3849 18.1156
3845 21 145 8.22645 -22.052 13.2103
3747 21 81 16.2123 -20.1736 11.9039
3921 21 199 14.2271 -17.4985 14.603
3905 21 187 13.2305 -12.8121 -7.6064
3925 21 201 15.1249 -14.453 2.47509
3913 21 193 10.071 -9.31389 9.39079
3750 21 84 11.2074 -8.05912 -9.26838
3853 21 153 14.0548 -1.39359 9.5752
3682 21 36 9.13142 -3.58158 0.666937
3752 21 86 10.6649 -2.42171 16.29
3726 21 68 8.9774 -0.463359 -2.03437
3816 21 126 10.3379 5.92387 -9.26984
3702 21 50 10.1644 -1.03385 7.37295
3780 21 102 11.6496 6.2205 13.5569
3654 21 16 15.1977 4.31662 15.4282
3886 21 172 8.19384 -0.129953 15.8011
3926 21 202 9.42561 7.66631 3.168
3844 21 144 16.8372 12.5018 18.1285
ITEM: TIMESTEP
1080000
ITEM: NUMBER OF ATOMS
51
ITEM: BOX BOUNDS pp pp pp
-1.8600882551059293e+01 1.6781862772133856e+01
-2.4372035063532635e+01 1.4144626821445229e+01
-9.6034427487602869e+00 2.0976101571647593e+01
ITEM: ATOMS id type mol x y z
3753 21 87 -17.767 -20.95 -2.24748
3900 21 182 -18.0154 -20.3447 1.30592
3815 21 125 -11.946 -20.8275 11.8711
3928 21 204 -16.0866 -13.1264 -6.96463
3917 21 195 -12.9605 -15.5837 16.2604
3903 21 185 -16.2778 -5.4856 -2.83494
3854 21 154 -12.9488 5.58506 20.2417
3847 21 147 -9.79503 7.62561 2.18031
3764 21 94 -18.4792 7.12945 17.3258
3641 21 11 -15.4116 11.3714 17.9094
3848 21 148 -2.32282 -17.8927 -0.0081193
3803 21 117 -3.95859 -17.8429 -8.62382
3664 21 24 -7.33542 -18.4016 -2.03535
3748 21 82 -4.99453 -20.8124 -1.7789
3902 21 184 -8.69514 -13.52 1.7464
3810 21 122 -9.27205 -14.9123 15.746
3890 21 176 -1.00615 -1.40162 -0.711321
3839 21 141 -4.50752 -8.02209 2.84304
3846 21 146 -8.88857 -8.9306 20.1007
3920 21 198 -8.01219 2.12697 -9.15091
3671 21 29 -6.06908 1.59409 5.36099
3818 21 128 -9.09008 1.90583 6.23526
3760 21 92 -5.08188 -1.24226 15.8408
3881 21 169 -9.58433 10.6941 0.337264
3889 21 175 -2.11718 8.39418 13.4889
3681 21 35 3.39047 -23.8827 6.66146
3835 21 139 0.340607 -12.3329 0.698287
3887 21 173 7.06735 -3.1193 14.0455
3927 21 203 6.90321 -1.81097 10.8427
3904 21 186 1.64245 2.35491 5.03406
3766 21 96 2.08023 0.316203 17.1766
3891 21 177 5.92055 7.09608 0.213753
3822 21 132 0.270314 11.1698 18.1944
3845 21 145 8.19684 -21.8311 13.258
3747 21 81 16.1568 -19.9772 11.9433
3921 21 199 14.1781 -17.337 14.6595
3905 21 187 13.1846 -12.7117 -7.69063
3925 21 201 15.073 -14.3312 2.45474
3913 21 193 10.0354 -9.25912 9.41426
3750 21 84 11.1681 -8.02071 -9.36315
3853 21 153 14.0063 -1.4421 9.59984
3682 21 36 9.09888 -3.60156 0.635129
3752 21 86 10.6273 -2.45682 16.3572
3726 21 68 8.94536 -0.524004 -2.08329
3816 21 126 10.3015 5.77993 -9.36462
3702 21 50 10.1285 -1.08705 7.38364
3780 21 102 11.6089 6.07269 13.6068
3654 21 16 15.1455 4.19364 15.4899
3886 21 172 8.16434 -0.194945 15.8652
3926 21 202 9.39211 7.49964 3.15204
3844 21 144 16.7797 12.2721 18.2073
ITEM: TIMESTEP
1085000
ITEM: NUMBER OF ATOMS
52
ITEM: BOX BOUNDS pp pp pp
-1.8629295447298958e+01 1.6810275668373521e+01
-2.4253647520268927e+01 1.4026239278181521e+01
-9.6528617946383761e+00 2.1025520617495367e+01
ITEM: ATOMS id type mol x y z
3753 21 87 -17.7941 -20.8526 -2.27312
3900 21 182 -18.0429 -20.2511 1.29176
3815 21 125 -11.9638 -20.7309 11.8911
3928 21 204 -16.111 -13.0772 -7.00552
3917 21 195 -12.9798 -15.5193 16.2946
3903 21 185 -16.3025 -5.48331 -2.86248
3854 21 154 -12.9681 5.51929 20.2887
3847 21 147 -9.8093 7.5473 2.16897
3764 21 94 -18.5074 7.05419 17.3634
3641 21 11 -15.4349 11.2701 17.9489
3848 21 148 -2.32509 -17.8141 -0.0265247
3803 21 117 -3.96349 -17.7646 -8.67007
3664 21 24 -7.34574 -18.3199 -2.0603
3748 21 82 -5.00109 -20.7159 -1.80303
3902 21 184 -8.70765 -13.4683 1.73366
3810 21 122 -9.28548 -14.852 15.7785
3890 21 176 -1.0063 -1.42444 -0.731999
3839 21 141 -4.5133 -8.00421 2.83385
3846 21 146 -8.90139 -8.90714 20.1472
3920 21 198 -8.0236 2.08246 -9.19886
3671 21 29 -6.07737 1.55285 5.35994
3818 21 128 -9.10322 1.86267 6.23704
3760 21 92 -5.08858 -1.26605 15.8737
3881 21 169 -9.59827 10.5969 0.319975
3889 21 175 -2.11912 8.31114 13.5141
3681 21 35 3.39737 -23.7673 6.66461
3933 21 207 5.24664 -23.5932 19.7189
3835 21 139 0.342615 -12.2886 0.682165
3887 21 173 7.08016 -3.13156 14.0725
3927 21 203 6.91576 -1.83128 10.8594
3904 21 186 1.64655 2.309 5.03195
3766 21 96 2.08503 0.282823 17.2137
3891 21 177 5.93152 7.02102 0.196065
3822 21 132 0.272209 11.0697 18.2348
3845 21 145 8.21146 -21.7283 13.2825
3747 21 81 16.1843 -19.8859 11.9635
3921 21 199 14.2023 -17.2618 14.6885
3905 21 187 13.2073 -12.665 -7.73387
3925 21 201 15.0986 -14.2745 2.4443
3913 21 193 10.053 -9.23363 9.42631
3750 21 84 11.1875 -8.00284 -9.41179
3853 21 153 14.0303 -1.46467 9.61249
3682 21 36 9.11495 -3.61085 0.618803
3752 21 86 10.6459 -2.47315 16.3917
3726 21 68 8.96119 -0.552219 -2.1084
3816 21 126 10.3195 5.71296 -9.41327
3702 21 50 10.1462 -1.11181 7.38913
3780 21 102 11.629 6.00393 13.6324
3654 21 16 15.1713 4.13642 15.5216
3886 21 172 8.17891 -0.225183 15.8981
3926 21 202 9.40866 7.4221 3.14385
3844 21 144 16.8081 12.1652 18.2478
ITEM: TIMESTEP
1090000
ITEM: NUMBER OF ATOMS
53
ITEM: BOX BOUNDS pp pp pp
-1.8842029459814789e+01 1.7023009680889352e+01
-2.4282174702029685e+01 1.4054766459942279e+01
-9.4500341609743117e+00 2.0822692983865199e+01
ITEM: ATOMS id type mol x y z
3753 21 87 -17.9968 -20.8761 -2.16787
3900 21 182 -18.2486 -20.2736 1.34987
3815 21 125 -12.0965 -20.7541 11.8091
3928 21 204 -16.2935 -13.0891 -6.83769
3917 21 195 -13.1247 -15.5349 16.1543
3903 21 185 -16.4873 -5.48386 -2.74944
3938 21 210 -15.5164 -7.58647 3.68654
3854 21 154 -13.1129 5.53514 20.0956
3847 21 147 -9.91614 7.56617 2.21548
3764 21 94 -18.7186 7.07232 17.209
3641 21 11 -15.6093 11.2945 17.7868
3848 21 148 -2.34209 -17.833 0.0490155
3803 21 117 -4.00015 -17.7835 -8.48024
3664 21 24 -7.42301 -18.3396 -1.95787
3748 21 82 -5.05021 -20.7392 -1.704
3902 21 184 -8.80127 -13.4807 1.78593
3810 21 122 -9.38604 -14.8666 15.645
3890 21 176 -1.00747 -1.41894 -0.64713
3839 21 141 -4.55657 -8.00852 2.87157
3846 21 146 -8.99733 -8.91279 19.956
3920 21 198 -8.109 2.09318 -9.00204
3671 21 29 -6.13941 1.56279 5.36425
3818 21 128 -9.20159 1.87307 6.22975
3760 21 92 -5.13875 -1.26032 15.739
3881 21 169 -9.70258 10.6203 0.390934
3889 21 175 -2.13364 8.33115 13.4106
3681 21 35 3.44908 -23.7951 6.65168
3933 21 207 5.32055 -23.6208 19.5334
3835 21 139 0.357647 -12.2993 0.748334
3887 21 173 7.17608 -3.1286 13.9616
3927 21 203 7.0097 -1.82638 10.791
3937 21 209 7.09953 1.76746 -2.88696
3904 21 186 1.67723 2.32006 5.04061
3766 21 96 2.12098 0.290867 17.0613
3891 21 177 6.01365 7.03911 0.268661
3822 21 132 0.286396 11.0938 18.0689
3845 21 145 8.32097 -21.7531 13.182
3747 21 81 16.3895 -19.9079 11.8805
3921 21 199 14.3837 -17.2799 14.5695
3905 21 187 13.3768 -12.6763 -7.55642
3925 21 201 15.2908 -14.2882 2.48716
3913 21 193 10.1846 -9.23977 9.37686
3750 21 84 11.3327 -8.00715 -9.21215
3853 21 153 14.2096 -1.45923 9.56058
3682 21 36 9.2353 -3.60861 0.68581
3752 21 86 10.7846 -2.46922 16.2501
3726 21 68 9.07969 -0.54542 -2.00534
3816 21 126 10.4543 5.7291 -9.21361
3702 21 50 10.2789 -1.10584 7.36661
3780 21 102 11.7795 6.0205 13.5274
3654 21 16 15.3644 4.15021 15.3916
3886 21 172 8.28802 -0.217897 15.7631
3844 21 144 17.0208 12.191 18.0817
ITEM: TIMESTEP
1095000
ITEM: NUMBER OF ATOMS
52
ITEM: BOX BOUNDS pp pp pp
-1.8885239097904684e+01 1.7066219318979247e+01
-2.4406595610116824e+01 1.4179187368029417e+01
-9.3374353621404254e+00 2.0710094185042450e+01
ITEM: ATOMS id type mol x y z
3753 21 87 -18.038 -20.9784 -2.10945
3900 21 182 -18.2904 -20.372 1.38213
3815 21 125 -12.1234 -20.8557 11.7635
3928 21 204 -16.3306 -13.1408 -6.74453
3917 21 195 -13.1542 -15.6025 16.0764
3903 21 185 -16.5248 -5.48627 -2.68669
3938 21 210 -15.5516 -7.60252 3.70142
3854 21 154 -13.1423 5.60426 19.9884
3847 21 147 -9.93784 7.64847 2.2413
3764 21 94 -18.7616 7.15142 17.1233
3641 21 11 -15.6447 11.401 17.6968
3848 21 148 -2.34554 -17.9156 0.0909512
3803 21 117 -4.0076 -17.8657 -8.37485
3664 21 24 -7.43871 -18.4254 -1.90101
3748 21 82 -5.06019 -20.8406 -1.64903
3902 21 184 -8.82028 -13.5351 1.81494
3810 21 122 -9.40647 -14.9299 15.5709
3839 21 141 -4.56535 -8.02731 2.89251
3846 21 146 -9.01682 -8.93745 19.8499
3920 21 198 -8.12635 2.13996 -8.89277
3671 21 29 -6.15201 1.60613 5.36665
3818 21 128 -9.22157 1.91842 6.22571
3760 21 92 -5.14894 -1.23531 15.6642
3881 21 169 -9.72377 10.7224 0.430326
3889 21 175 -2.13659 8.41842 13.3531
3681 21 35 3.45958 -23.9164 6.6445
3933 21 207 5.33556 -23.7409 19.4304
3835 21 139 0.360701 -12.3459 0.785068
3887 21 173 7.19556 -3.11572 13.9
3927 21 203 7.02879 -1.80505 10.753
3937 21 209 7.11883 1.81212 -2.82318
3904 21 186 1.68347 2.36831 5.04541
3766 21 96 2.12828 0.325947 16.9767
3891 21 177 6.03033 7.11799 0.308963
3822 21 132 0.289277 11.199 17.9768
3845 21 145 8.34321 -21.8611 13.1263
3747 21 81 16.4312 -20.0039 11.8344
3921 21 199 14.4206 -17.3589 14.5034
3905 21 187 13.4112 -12.7253 -7.45791
3925 21 201 15.3298 -14.3477 2.51096
3913 21 193 10.2113 -9.26656 9.34941
3750 21 84 11.3622 -8.02593 -9.10132
3853 21 153 14.2461 -1.43551 9.53176
3682 21 36 9.25974 -3.59884 0.723009
3752 21 86 10.8128 -2.45205 16.1715
3726 21 68 9.10376 -0.515768 -1.94812
3816 21 126 10.4817 5.79948 -9.10277
3702 21 50 10.3059 -1.07983 7.35411
3780 21 102 11.8101 6.09277 13.469
3654 21 16 15.4036 4.21034 15.3194
3886 21 172 8.31018 -0.186118 15.6881
3844 21 144 17.064 12.3033 17.9895
ITEM: TIMESTEP
1100000
ITEM: NUMBER OF ATOMS
52
ITEM: BOX BOUNDS pp pp pp
-1.8713953231085945e+01 1.6894933452160508e+01
-2.4274005822117587e+01 1.4046597580030181e+01
-9.5230965313552502e+00 2.0895755354191991e+01
ITEM: ATOMS id type mol x y z
3753 21 87 -17.8748 -20.8694 -2.20579
3900 21 182 -18.1247 -20.2672 1.32894
3815 21 125 -12.0166 -20.7475 11.8386
3928 21 204 -16.1836 -13.0857 -6.89815
3917 21 195 -13.0375 -15.5304 16.2048
3903 21 185 -16.376 -5.48371 -2.79016
3938 21 210 -15.4121 -7.58542 3.67689
3854 21 154 -13.0257 5.5306 20.1652
3847 21 147 -9.85182 7.56077 2.19873
3764 21 94 -18.5915 7.06713 17.2646
3641 21 11 -15.5043 11.2875 17.8452
3848 21 148 -2.33186 -17.8276 0.0218045
3803 21 117 -3.97808 -17.7781 -8.54862
3664 21 24 -7.37649 -18.3339 -1.99477
3748 21 82 -5.02064 -20.7325 -1.73968
3902 21 184 -8.7449 -13.4772 1.7671
3810 21 122 -9.3255 -14.8624 15.6931
3839 21 141 -4.53052 -8.00728 2.85798
3846 21 146 -8.93957 -8.91117 20.0249
3920 21 198 -8.05758 2.09011 -9.07294
3671 21 29 -6.10206 1.55994 5.3627
3818 21 128 -9.14237 1.87009 6.23238
3760 21 92 -5.10855 -1.26196 15.7875
3881 21 169 -9.63978 10.6136 0.365373
3889 21 175 -2.1249 8.32542 13.4478
3681 21 35 3.41795 -23.7871 6.65634
3933 21 207 5.27605 -23.6129 19.6002
3835 21 139 0.348597 -12.2962 0.724499
3887 21 173 7.11833 -3.12945 14.0015
3927 21 203 6.95314 -1.82778 10.8156
3937 21 209 7.04233 1.76453 -2.92834
3904 21 186 1.65876 2.31689 5.03749
3766 21 96 2.09933 0.288563 17.1162
3891 21 177 5.9642 7.03393 0.242511
3822 21 132 0.277854 11.0869 18.1287
3845 21 145 8.25504 -21.746 13.2182
3747 21 81 16.2659 -19.9016 11.9104
3921 21 199 14.2745 -17.2748 14.6124
3905 21 187 13.2747 -12.673 -7.62034
3925 21 201 15.1751 -14.2843 2.47172
3913 21 193 10.1054 -9.23802 9.39467
3750 21 84 11.2453 -8.00591 -9.28406
3853 21 153 14.1016 -1.46079 9.57928
3682 21 36 9.16284 -3.60926 0.661673
3752 21 86 10.7011 -2.47034 16.3011
3726 21 68 9.00835 -0.547367 -2.04246
3816 21 126 10.3731 5.72448 -9.28553
3702 21 50 10.199 -1.10755 7.37472
3780 21 102 11.6889 6.01575 13.5652
3654 21 16 15.2482 4.14626 15.4384
3886 21 172 8.22233 -0.219983 15.8117
3844 21 144 16.8927 12.1836 18.1415
ITEM: TIMESTEP
1105000
ITEM: NUMBER OF ATOMS
53
ITEM: BOX BOUNDS pp pp pp
-1.8688040041979768e+01 1.6869020263054331e+01
-2.4492008159624316e+01 1.4264599917536909e+01
-9.4448760404825052e+00 2.0817534863321686e+01
ITEM: ATOMS id type mol x y z
3753 21 87 -17.8501 -21.0486 -2.1652
3900 21 182 -18.0997 -20.4396 1.35134
3815 21 125 -12.0004 -20.9253 11.807
3928 21 204 -16.1614 -13.1764 -6.83343
3917 21 195 -13.0198 -15.6489 16.1507
3939 21 211 -16.3857 -13.6083 13.601
3903 21 185 -16.3535 -5.48792 -2.74657
3938 21 210 -15.391 -7.61354 3.68722
3854 21 154 -13.0081 5.65171 20.0907
3847 21 147 -9.8388 7.70498 2.21667
3764 21 94 -18.5657 7.20572 17.2051
3641 21 11 -15.483 11.4741 17.7826
3848 21 148 -2.32979 -17.9723 0.0509365
3803 21 117 -3.97361 -17.9222 -8.47541
3664 21 24 -7.36708 -18.4844 -1.95527
3748 21 82 -5.01466 -20.9102 -1.70148
3902 21 184 -8.7335 -13.5723 1.78726
3810 21 122 -9.31325 -14.9733 15.6416
3839 21 141 -4.52525 -8.04021 2.87253
3846 21 146 -8.92788 -8.95438 19.9512
3920 21 198 -8.04718 2.17207 -8.99703
3671 21 29 -6.0945 1.63588 5.36436
3818 21 128 -9.13039 1.94955 6.22957
3760 21 92 -5.10244 -1.21814 15.7355
3881 21 169 -9.62707 10.7925 0.392738
3889 21 175 -2.12313 8.47833 13.4079
3681 21 35 3.41165 -23.9996 6.65135
3933 21 207 5.26705 -23.8234 19.5286
3835 21 139 0.346766 -12.3779 0.750017
3887 21 173 7.10665 -3.10687 13.9588
3927 21 203 6.9417 -1.7904 10.7892
3937 21 209 7.03075 1.84278 -2.88404
3904 21 186 1.65502 2.40144 5.04083
3766 21 96 2.09495 0.350029 17.0574
3891 21 177 5.9542 7.17215 0.270508
3822 21 132 0.276126 11.2712 18.0647
3845 21 145 8.2417 -21.9353 13.1795
3747 21 81 16.2409 -20.0698 11.8784
3921 21 199 14.2524 -17.4131 14.5665
3905 21 187 13.2541 -12.759 -7.5519
3925 21 201 15.1517 -14.3886 2.48825
3913 21 193 10.0893 -9.28494 9.3756
3750 21 84 11.2276 -8.03882 -9.20707
3853 21 153 14.0798 -1.41923 9.55926
3682 21 36 9.14818 -3.59214 0.687514
3752 21 86 10.6842 -2.44027 16.2465
3726 21 68 8.99391 -0.495412 -2.00272
3816 21 126 10.3567 5.84779 -9.20853
3702 21 50 10.1829 -1.06197 7.36604
3780 21 102 11.6705 6.14238 13.5247
3654 21 16 15.2246 4.25162 15.3883
3886 21 172 8.20904 -0.164303 15.7597
3844 21 144 16.8668 12.3804 18.0774
ITEM: TIMESTEP
1110000
ITEM: NUMBER OF ATOMS
52
ITEM: BOX BOUNDS pp pp pp
-1.8631718724156489e+01 1.6812698945231052e+01
-2.4461697882285733e+01 1.4234289640198327e+01
-9.4911381404421107e+00 2.0863796963251495e+01
ITEM: ATOMS id type mol x y z
3753 21 87 -17.7964 -21.0237 -2.1892
3900 21 182 -18.0452 -20.4156 1.33809
3928 21 204 -16.1131 -13.1638 -6.8717
3939 21 211 -16.3366 -13.595 13.6252
3917 21 195 -12.9815 -15.6325 16.1827
3903 21 185 -16.3046 -5.48733 -2.77235
3938 21 210 -15.3451 -7.60963 3.68111
3854 21 154 -12.9698 5.63487 20.1348
3847 21 147 -9.81051 7.68492 2.20606
3764 21 94 -18.5098 7.18645 17.2403
3641 21 11 -15.4369 11.4482 17.8196
3848 21 148 -2.32529 -17.9522 0.0337069
3803 21 117 -3.96391 -17.9022 -8.51871
3664 21 24 -7.34662 -18.4634 -1.97863
3748 21 82 -5.00165 -20.8855 -1.72407
3902 21 184 -8.70871 -13.5591 1.77534
3810 21 122 -9.28663 -14.9579 15.6721
3839 21 141 -4.51379 -8.03563 2.86392
3846 21 146 -8.90248 -8.94837 19.9948
3920 21 198 -8.02457 2.16068 -9.04193
3671 21 29 -6.07808 1.62532 5.36338
3818 21 128 -9.10434 1.93851 6.23123
3760 21 92 -5.08915 -1.22423 15.7663
3881 21 169 -9.59945 10.7677 0.376554
3889 21 175 -2.11928 8.45707 13.4315
3681 21 35 3.39796 -23.9701 6.6543
3933 21 207 5.24748 -23.7941 19.571
3835 21 139 0.342786 -12.3666 0.734925
3887 21 173 7.08125 -3.11001 13.9841
3927 21 203 6.91683 -1.7956 10.8048
3937 21 209 7.0056 1.8319 -2.91024
3904 21 186 1.6469 2.38968 5.03885
3766 21 96 2.08544 0.341483 17.0922
3891 21 177 5.93246 7.15293 0.253949
3822 21 132 0.27237 11.2456 18.1025
3845 21 145 8.21271 -21.9089 13.2024
3747 21 81 16.1866 -20.0464 11.8973
3921 21 199 14.2044 -17.3939 14.5936
3905 21 187 13.2092 -12.7471 -7.59238
3925 21 201 15.1008 -14.3741 2.47848
3913 21 193 10.0545 -9.27842 9.38688
3750 21 84 11.1891 -8.03425 -9.25261
3853 21 153 14.0323 -1.42501 9.5711
3682 21 36 9.11632 -3.59452 0.672231
3752 21 86 10.6475 -2.44445 16.2788
3726 21 68 8.96254 -0.502635 -2.02622
3816 21 126 10.321 5.83065 -9.25407
3702 21 50 10.1477 -1.06831 7.37117
3780 21 102 11.6307 6.12478 13.5486
3654 21 16 15.1735 4.23697 15.4179
3886 21 172 8.18015 -0.172045 15.7905
3844 21 144 16.8105 12.353 18.1153
ITEM: TIMESTEP
1115000
ITEM: NUMBER OF ATOMS
51
ITEM: BOX BOUNDS pp pp pp
-1.8765977454269965e+01 1.6946957675344528e+01
-2.4214556626026933e+01 1.3987148383939527e+01
-9.6382327716912215e+00 2.1010891594444448e+01
ITEM: ATOMS id type mol x y z
3753 21 87 -17.9243 -20.8205 -2.26553
3900 21 182 -18.175 -20.2201 1.29595
3928 21 204 -16.2282 -13.0609 -6.99341
3939 21 211 -16.4535 -13.4867 13.7021
3917 21 195 -13.0729 -15.4981 16.2844
3903 21 185 -16.4212 -5.48256 -2.85433
3938 21 210 -15.4545 -7.57775 3.66167
3854 21 154 -13.0611 5.49757 20.2748
3847 21 147 -9.87794 7.52144 2.17233
3764 21 94 -18.6431 7.02933 17.3523
3641 21 11 -15.5469 11.2366 17.9372
3848 21 148 -2.33601 -17.7882 -0.0210763
3803 21 117 -3.98705 -17.7388 -8.65638
3664 21 24 -7.39539 -18.2929 -2.05292
3748 21 82 -5.03265 -20.6841 -1.79589
3902 21 184 -8.7678 -13.4512 1.73743
3810 21 122 -9.35009 -14.8322 15.7688
3839 21 141 -4.5411 -7.99831 2.83657
3846 21 146 -8.96303 -8.89939 20.1335
3920 21 198 -8.07847 2.06776 -9.18467
3671 21 29 -6.11723 1.53924 5.36025
3818 21 128 -9.16642 1.84843 6.23651
3760 21 92 -5.12082 -1.27391 15.864
3881 21 169 -9.66529 10.5648 0.325093
3889 21 175 -2.12845 8.28373 13.5066
3681 21 35 3.43059 -23.7292 6.66368
3933 21 207 5.29413 -23.5555 19.7055
3835 21 139 0.352273 -12.2739 0.686937
3887 21 173 7.14179 -3.1356 14.0645
3927 21 203 6.97612 -1.83798 10.8544
3937 21 209 7.06556 1.74318 -2.99356
3904 21 186 1.66626 2.29384 5.03258
3891 21 177 5.98429 6.99624 0.201301
3822 21 132 0.281324 11.0366 18.2229
3845 21 145 8.28182 -21.6944 13.2752
3747 21 81 16.3161 -19.8557 11.9575
3921 21 199 14.3189 -17.237 14.68
3905 21 187 13.3162 -12.6496 -7.72107
3925 21 201 15.2221 -14.2558 2.44739
3913 21 193 10.1375 -9.22522 9.42275
3750 21 84 11.2808 -7.99694 -9.39739
3853 21 153 14.1455 -1.47212 9.60875
3682 21 36 9.19227 -3.61392 0.623636
3752 21 86 10.735 -2.47855 16.3815
3726 21 68 9.03733 -0.561535 -2.10097
3816 21 126 10.4061 5.69085 -9.39887
3702 21 50 10.2315 -1.11998 7.3875
3780 21 102 11.7257 5.98122 13.6248
3654 21 16 15.2954 4.11753 15.5122
3886 21 172 8.24901 -0.235167 15.8884
3844 21 144 16.9447 12.1299 18.2358
ITEM: TIMESTEP
1120000
ITEM: NUMBER OF ATOMS
51
ITEM: BOX BOUNDS pp pp pp
-1.8761921618926920e+01 1.6942901840001483e+01
-2.4293597396918972e+01 1.4066189154831566e+01
-9.5532762809779896e+00 2.0925935103735554e+01
ITEM: ATOMS id type mol x y z
3753 21 87 -17.9205 -20.8855 -2.22145
3900 21 182 -18.1711 -20.2827 1.32029
3928 21 204 -16.2248 -13.0938 -6.92312
3939 21 211 -16.45 -13.5214 13.6577
3917 21 195 -13.0702 -15.5411 16.2257
3903 21 185 -16.4177 -5.48408 -2.80698
3938 21 210 -15.4512 -7.58794 3.6729
3854 21 154 -13.0584 5.54148 20.1939
3847 21 147 -9.87591 7.57373 2.19181
3764 21 94 -18.6391 7.07958 17.2876
3641 21 11 -15.5436 11.3043 17.8693
3848 21 148 -2.33569 -17.8406 0.0105645
3803 21 117 -3.98635 -17.7911 -8.57686
3664 21 24 -7.39392 -18.3475 -2.01001
3748 21 82 -5.03172 -20.7485 -1.75441
3902 21 184 -8.76601 -13.4857 1.75932
3810 21 122 -9.34817 -14.8724 15.713
3839 21 141 -4.54027 -8.01024 2.85237
3846 21 146 -8.9612 -8.91506 20.0534
3920 21 198 -8.07684 2.09748 -9.10223
3671 21 29 -6.11605 1.56677 5.36206
3818 21 128 -9.16455 1.87724 6.23346
3760 21 92 -5.11986 -1.25802 15.8075
3881 21 169 -9.6633 10.6297 0.354815
3889 21 175 -2.12817 8.33916 13.4632
3681 21 35 3.42961 -23.8062 6.65826
3933 21 207 5.29272 -23.6318 19.6278
3835 21 139 0.351987 -12.3035 0.714653
3887 21 173 7.13996 -3.12742 14.018
3927 21 203 6.97433 -1.82442 10.8258
3937 21 209 7.06375 1.77156 -2.94544
3904 21 186 1.66568 2.32449 5.0362
3891 21 177 5.98272 7.04635 0.231709
3822 21 132 0.281053 11.1035 18.1534
3845 21 145 8.27973 -21.763 13.2332
3747 21 81 16.3122 -19.9167 11.9227
3921 21 199 14.3154 -17.2872 14.6301
3905 21 187 13.3129 -12.6808 -7.64674
3925 21 201 15.2184 -14.2936 2.46534
3913 21 193 10.135 -9.24223 9.40203
3750 21 84 11.278 -8.00887 -9.31377
3853 21 153 14.1421 -1.45706 9.587
3682 21 36 9.18998 -3.60772 0.651703
3752 21 86 10.7324 -2.46764 16.3222
3726 21 68 9.03507 -0.542698 -2.0578
3816 21 126 10.4035 5.73556 -9.31524
3702 21 50 10.229 -1.10345 7.37807
3780 21 102 11.7228 6.02713 13.5808
3654 21 16 15.2917 4.15573 15.4578
3886 21 172 8.24693 -0.214979 15.8318
3844 21 144 16.9407 12.2013 18.1662
ITEM: TIMESTEP
1125000
ITEM: NUMBER OF ATOMS
52
ITEM: BOX BOUNDS pp pp pp
-1.8877398499140089e+01 1.7058378720214652e+01
-2.4310945836273760e+01 1.4083537594186353e+01
-9.4952702613181721e+00 2.0867929084073339e+01
ITEM: ATOMS id type mol x y z
3753 21 87 -18.0305 -20.8997 -2.19135
3900 21 182 -18.2828 -20.2964 1.33691
3928 21 204 -16.3238 -13.101 -6.87512
3939 21 211 -16.5505 -13.529 13.6274
3917 21 195 -13.1488 -15.5505 16.1856
3903 21 185 -16.518 -5.48442 -2.77465
3938 21 210 -15.5452 -7.59018 3.68056
3854 21 154 -13.137 5.55112 20.1387
3847 21 147 -9.93391 7.5852 2.20511
3764 21 94 -18.7538 7.09061 17.2434
3641 21 11 -15.6383 11.3191 17.8229
3848 21 148 -2.34491 -17.8521 0.0321679
3803 21 117 -4.00625 -17.8025 -8.52257
3664 21 24 -7.43586 -18.3594 -1.98072
3748 21 82 -5.05838 -20.7626 -1.72609
3902 21 184 -8.81683 -13.4933 1.77427
3810 21 122 -9.40276 -14.8812 15.6748
3946 21 214 -3.8328 -13.0928 10.7714
3839 21 141 -4.56376 -8.01286 2.86315
3846 21 146 -9.01329 -8.91849 19.9987
3920 21 198 -8.1232 2.104 -9.04594
3671 21 29 -6.14973 1.57281 5.36329
3818 21 128 -9.21795 1.88356 6.23138
3760 21 92 -5.1471 -1.25454 15.769
3881 21 169 -9.71992 10.6439 0.375108
3889 21 175 -2.13605 8.35133 13.4336
3681 21 35 3.45768 -23.8231 6.65456
3933 21 207 5.33284 -23.6486 19.5747
3835 21 139 0.360147 -12.31 0.733576
3887 21 173 7.19203 -3.12562 13.9863
3927 21 203 7.02532 -1.82145 10.8062
3937 21 209 7.11533 1.77779 -2.91258
3904 21 186 1.68233 2.33122 5.03868
3891 21 177 6.02731 7.05735 0.25247
3822 21 132 0.288754 11.1181 18.1059
3845 21 145 8.33917 -21.7781 13.2045
3747 21 81 16.4236 -19.9301 11.899
3921 21 199 14.4139 -17.2982 14.5961
3905 21 187 13.4049 -12.6876 -7.59599
3925 21 201 15.3228 -14.3019 2.4776
3913 21 193 10.2065 -9.24597 9.38789
3750 21 84 11.3569 -8.01149 -9.25668
3853 21 153 14.2394 -1.45375 9.57216
3682 21 36 9.25531 -3.60635 0.670866
3752 21 86 10.8077 -2.46525 16.2817
3726 21 68 9.09939 -0.538563 -2.02832
3816 21 126 10.4767 5.74537 -9.25814
3702 21 50 10.301 -1.09983 7.37163
3780 21 102 11.8045 6.03721 13.5508
3654 21 16 15.3965 4.16412 15.4206
3886 21 172 8.30616 -0.210548 15.7932
3844 21 144 17.0561 12.2169 18.1187
ITEM: TIMESTEP
1130000
ITEM: NUMBER OF ATOMS
53
ITEM: BOX BOUNDS pp pp pp
-1.8807146620408137e+01 1.6988126841482700e+01
-2.4276924495512013e+01 1.4049516253424606e+01
-9.5310167929523146e+00 2.0903675615680413e+01
ITEM: ATOMS id type mol x y z
3753 21 87 -17.9636 -20.8718 -2.2099
3947 21 215 -13.1886 -21.4934 10.3441
3900 21 182 -18.2148 -20.2695 1.32667
3928 21 204 -16.2636 -13.0869 -6.9047
3939 21 211 -16.4893 -13.514 13.6461
3917 21 195 -13.101 -15.532 16.2103
3903 21 185 -16.457 -5.48376 -2.79458
3938 21 210 -15.488 -7.58579 3.67584
3854 21 154 -13.0892 5.53222 20.1727
3847 21 147 -9.89862 7.5627 2.19691
3764 21 94 -18.684 7.06898 17.2706
3641 21 11 -15.5807 11.29 17.8515
3848 21 148 -2.3393 -17.8296 0.0188547
3803 21 117 -3.99414 -17.78 -8.55603
3664 21 24 -7.41034 -18.336 -1.99877
3748 21 82 -5.04216 -20.7349 -1.74354
3902 21 184 -8.78591 -13.4785 1.76506
3810 21 122 -9.36955 -14.8639 15.6983
3946 21 214 -3.82137 -13.0787 10.7834
3839 21 141 -4.54947 -8.00773 2.85651
3846 21 146 -8.9816 -8.91175 20.0324
3920 21 198 -8.095 2.09121 -9.08062
3671 21 29 -6.12924 1.56096 5.36253
3818 21 128 -9.18546 1.87116 6.23266
3760 21 92 -5.13053 -1.26138 15.7927
3881 21 169 -9.68547 10.616 0.362602
3889 21 175 -2.13126 8.32747 13.4519
3681 21 35 3.4406 -23.79 6.65684
3933 21 207 5.30843 -23.6157 19.6074
3835 21 139 0.355182 -12.2973 0.721915
3887 21 173 7.16035 -3.12915 14.0059
3927 21 203 6.9943 -1.82728 10.8183
3937 21 209 7.08395 1.76557 -2.93283
3904 21 186 1.6722 2.31802 5.03715
3891 21 177 6.00018 7.03578 0.239676
3822 21 132 0.284069 11.0894 18.1352
3845 21 145 8.30301 -21.7486 13.2222
3747 21 81 16.3558 -19.9038 11.9136
3921 21 199 14.354 -17.2766 14.617
3905 21 187 13.349 -12.6742 -7.62727
3925 21 201 15.2593 -14.2857 2.47005
3913 21 193 10.163 -9.23864 9.3966
3750 21 84 11.3089 -8.00636 -9.29186
3853 21 153 14.1802 -1.46023 9.58131
3682 21 36 9.21557 -3.60903 0.659056
3752 21 86 10.7619 -2.46994 16.3066
3726 21 68 9.06026 -0.546671 -2.04649
3816 21 126 10.4322 5.72613 -9.29332
3702 21 50 10.2572 -1.10694 7.3756
3780 21 102 11.7548 6.01745 13.5693
3654 21 16 15.3327 4.14767 15.4435
3886 21 172 8.27013 -0.219238 15.817
3844 21 144 16.9859 12.1862 18.148
ITEM: TIMESTEP
1135000
ITEM: NUMBER OF ATOMS
55
ITEM: BOX BOUNDS pp pp pp
-1.8650070342918845e+01 1.6831050563993408e+01
-2.4377484348304804e+01 1.4150076106217398e+01
-9.5104008457484142e+00 2.0883059668464433e+01
ITEM: ATOMS id type mol x y z
3753 21 87 -17.8139 -20.9545 -2.1992
3947 21 215 -13.0809 -21.5793 10.3378
3900 21 182 -18.063 -20.349 1.33257
3928 21 204 -16.1288 -13.1287 -6.88764
3939 21 211 -16.3526 -13.5581 13.6353
3917 21 195 -12.994 -15.5867 16.196
3903 21 185 -16.3205 -5.4857 -2.78309
3938 21 210 -15.3601 -7.59877 3.67856
3854 21 154 -12.9823 5.58809 20.1531
3847 21 147 -9.81973 7.62922 2.20164
3764 21 94 -18.528 7.13291 17.2549
3641 21 11 -15.4519 11.3761 17.835
3848 21 148 -2.32675 -17.8963 0.0265328
3803 21 117 -3.96707 -17.8465 -8.53673
3664 21 24 -7.35329 -18.4053 -1.98836
3748 21 82 -5.00589 -20.8169 -1.73348
3902 21 184 -8.71679 -13.5223 1.77037
3810 21 122 -9.2953 -14.915 15.6847
3946 21 214 -3.79581 -13.1205 10.7765
3839 21 141 -4.51753 -8.02291 2.86034
3846 21 146 -8.91076 -8.93168 20.0129
3920 21 198 -8.03194 2.12902 -9.06062
3671 21 29 -6.08343 1.59599 5.36297
3818 21 128 -9.11283 1.90781 6.23192
3760 21 92 -5.09348 -1.24116 15.7791
3881 21 169 -9.60845 10.6985 0.369815
3889 21 175 -2.12054 8.398 13.4414
3681 21 35 3.40242 -23.888 6.65553
3933 21 207 5.25386 -23.7128 19.5886
3835 21 139 0.344083 -12.335 0.72864
3887 21 173 7.08953 -3.11873 13.9946
3927 21 203 6.92493 -1.81004 10.8113
3949 21 217 4.34772 6.09732 -5.87532
3937 21 209 7.0138 1.80167 -2.92115
3904 21 186 1.64954 2.35702 5.03803
3891 21 177 5.93954 7.09954 0.247055
3822 21 132 0.273594 11.1744 18.1183
3845 21 145 8.22216 -21.8358 13.2119
3747 21 81 16.2043 -19.9814 11.9052
3921 21 199 14.22 -17.3404 14.6049
3905 21 187 13.2238 -12.7139 -7.60923
3925 21 201 15.1174 -14.3338 2.47441
3913 21 193 10.0658 -9.26029 9.39158
3750 21 84 11.2017 -8.02153 -9.27157
3853 21 153 14.0478 -1.44106 9.57603
3682 21 36 9.1267 -3.60113 0.665867
3752 21 86 10.6594 -2.45607 16.2922
3726 21 68 8.97276 -0.522705 -2.03601
3816 21 126 10.3327 5.78301 -9.27303
3702 21 50 10.1592 -1.08591 7.37331
3780 21 102 11.6437 6.07586 13.5586
3654 21 16 15.1902 4.19627 15.4303
3886 21 172 8.18957 -0.193554 15.8033
3948 21 216 8.40494 0.661223 12.2115
3844 21 144 16.8288 12.277 18.1311
ITEM: TIMESTEP
1140000
ITEM: NUMBER OF ATOMS
54
ITEM: BOX BOUNDS pp pp pp
-1.8611677594584407e+01 1.6792657815658970e+01
-2.4433562000031277e+01 1.4206153757943870e+01
-9.5502781256045779e+00 2.0922936948292069e+01
ITEM: ATOMS id type mol x y z
3753 21 87 -17.7773 -21.0006 -2.21989
3947 21 215 -13.0545 -21.6272 10.35
3900 21 182 -18.0258 -20.3934 1.32115
3928 21 204 -16.0959 -13.152 -6.92064
3939 21 211 -16.3192 -13.5827 13.6561
3917 21 195 -12.9678 -15.6172 16.2236
3903 21 185 -16.2871 -5.48679 -2.80531
3938 21 210 -15.3288 -7.606 3.67329
3854 21 154 -12.9561 5.61924 20.1911
3847 21 147 -9.80045 7.66631 2.1925
3764 21 94 -18.4899 7.16856 17.2853
3641 21 11 -15.4204 11.4241 17.8669
3848 21 148 -2.32369 -17.9335 0.0116811
3803 21 117 -3.96045 -17.8836 -8.57406
3664 21 24 -7.33935 -18.444 -2.0085
3748 21 82 -4.99702 -20.8626 -1.75295
3902 21 184 -8.69989 -13.5468 1.7601
3810 21 122 -9.27716 -14.9436 15.711
3946 21 214 -3.78956 -13.1438 10.7899
3839 21 141 -4.50972 -8.03138 2.85292
3846 21 146 -8.89344 -8.9428 20.0505
3920 21 198 -8.01652 2.1501 -9.09932
3671 21 29 -6.07223 1.61552 5.36212
3818 21 128 -9.09508 1.92825 6.23335
3760 21 92 -5.08443 -1.22989 15.8055
3881 21 169 -9.58963 10.7446 0.355864
3889 21 175 -2.11792 8.43734 13.4617
3681 21 35 3.39309 -23.9426 6.65807
3933 21 207 5.24052 -23.7669 19.6251
3835 21 139 0.34137 -12.356 0.715631
3887 21 173 7.07222 -3.11292 14.0164
3927 21 203 6.90798 -1.80042 10.8248
3949 21 217 4.33635 6.12995 -5.90566
3937 21 209 6.99665 1.8218 -2.94374
3904 21 186 1.644 2.37877 5.03633
3891 21 177 5.92472 7.13509 0.232782
3822 21 132 0.271034 11.2218 18.1509
3845 21 145 8.2024 -21.8845 13.2317
3747 21 81 16.1673 -20.0247 11.9215
3921 21 199 14.1873 -17.376 14.6283
3905 21 187 13.1932 -12.736 -7.64412
3925 21 201 15.0827 -14.3606 2.46598
3913 21 193 10.0421 -9.27236 9.4013
3750 21 84 11.1755 -8.03 -9.31082
3682 21 36 9.10498 -3.59673 0.652693
3752 21 86 10.6344 -2.44833 16.3201
3726 21 68 8.95138 -0.509341 -2.05628
3816 21 126 10.3083 5.81473 -9.31228
3702 21 50 10.1352 -1.07419 7.37774
3780 21 102 11.6165 6.10843 13.5793
3654 21 16 15.1553 4.22337 15.4558
3886 21 172 8.16987 -0.179231 15.8298
3948 21 216 8.38479 0.678034 12.2286
3844 21 144 16.7904 12.3276 18.1638
ITEM: TIMESTEP
1145000
ITEM: NUMBER OF ATOMS
54
ITEM: BOX BOUNDS pp pp pp
-1.8794397102801685e+01 1.6975377323876248e+01
-2.4497215980546088e+01 1.4269807738458681e+01
-9.2948246378629271e+00 2.0667483460600934e+01
ITEM: ATOMS id type mol x y z
3753 21 87 -17.9514 -21.0529 -2.08734
3947 21 215 -13.1799 -21.6817 10.2718
3900 21 182 -18.2025 -20.4437 1.39433
3951 21 219 -16.7042 -19.7158 18.966
3928 21 204 -16.2526 -13.1785 -6.70927
3939 21 211 -16.4782 -13.6106 13.5225
3917 21 195 -13.0923 -15.6518 16.0469
3903 21 185 -16.4459 -5.48802 -2.66294
3938 21 210 -15.4776 -7.61421 3.70704
3854 21 154 -13.0805 5.6546 19.9479
3847 21 147 -9.89222 7.70842 2.25107
3764 21 94 -18.6713 7.20903 17.0908
3641 21 11 -15.5702 11.4786 17.6627
3848 21 148 -2.33828 -17.9757 0.106821
3803 21 117 -3.99194 -17.9256 -8.33497
3664 21 24 -7.40571 -18.488 -1.87949
3748 21 82 -5.03921 -20.9145 -1.62822
3902 21 184 -8.7803 -13.5746 1.82592
3810 21 122 -9.36353 -14.976 15.5429
3946 21 214 -3.81929 -13.1703 10.7043
3839 21 141 -4.54688 -8.04099 2.90043
3846 21 146 -8.97585 -8.95541 19.8097
3920 21 198 -8.08988 2.17403 -8.85142
3671 21 29 -6.12552 1.63769 5.36756
3818 21 128 -9.17957 1.95145 6.22418
3760 21 92 -5.12752 -1.21709 15.6359
3881 21 169 -9.67922 10.7968 0.445233
3889 21 175 -2.13039 8.48198 13.3314
3681 21 35 3.4375 -24.0047 6.64178
3933 21 207 5.304 -23.8284 19.3914
3835 21 139 0.354281 -12.3799 0.798969
3887 21 173 7.1546 -3.10633 13.8767
3927 21 203 6.98867 -1.7895 10.7386
3949 21 217 4.39049 6.167 -5.71131
3937 21 209 7.07826 1.84465 -2.79905
3904 21 186 1.67036 2.40346 5.04723
3891 21 177 5.99526 7.17545 0.324215
3822 21 132 0.283219 11.2756 17.9419
3845 21 145 8.29645 -21.9398 13.1052
3747 21 81 16.3435 -20.0738 11.817
3921 21 199 14.3431 -17.4164 14.4784
3905 21 187 13.3388 -12.7611 -7.42063
3913 21 193 10.1551 -9.28606 9.33902
3750 21 84 11.3002 -8.03961 -9.05938
3682 21 36 9.20835 -3.59173 0.737086
3752 21 86 10.7535 -2.43955 16.1418
3726 21 68 9.05316 -0.494171 -1.92647
3816 21 126 10.4241 5.85074 -9.06082
3702 21 50 10.2492 -1.06088 7.34938
3780 21 102 11.7458 6.14541 13.447
3654 21 16 15.3212 4.25414 15.2921
3886 21 172 8.26359 -0.162973 15.6598
3948 21 216 8.48072 0.697116 12.1189
3844 21 144 16.9731 12.3851 17.9546
ITEM: TIMESTEP
1150000
ITEM: NUMBER OF ATOMS
54
ITEM: BOX BOUNDS pp pp pp
-1.8873811257973756e+01 1.7054791479048319e+01
-2.4184426456379573e+01 1.3957018214292166e+01
-9.5879098083263372e+00 2.0960568630967870e+01
ITEM: ATOMS id type mol x y z
3753 21 87 -18.0271 -20.7957 -2.23942
3947 21 215 -13.2344 -21.4143 10.3615
3900 21 182 -18.2793 -20.1963 1.31037
3951 21 219 -16.7743 -19.4801 19.2258
3928 21 204 -16.3208 -13.0484 -6.95177
3939 21 211 -16.5474 -13.4735 13.6758
3917 21 195 -13.1464 -15.4817 16.2496
3903 21 185 -16.5149 -5.48198 -2.82628
3938 21 210 -15.5423 -7.57386 3.66832
3854 21 154 -13.1345 5.48083 20.2269
3847 21 147 -9.9321 7.50151 2.18387
3764 21 94 -18.7502 7.01018 17.3139
3641 21 11 -15.6353 11.2108 17.897
3848 21 148 -2.34463 -17.7682 -0.00233428
3803 21 117 -4.00563 -17.7189 -8.60928
3664 21 24 -7.43456 -18.2721 -2.0275
3748 21 82 -5.05755 -20.6595 -1.77132
3902 21 184 -8.81525 -13.4381 1.7504
3810 21 122 -9.40106 -14.8168 15.7357
3946 21 214 -3.83221 -13.0403 10.8025
3839 21 141 -4.56303 -7.99376 2.84593
3846 21 146 -9.01167 -8.89342 20.086
3920 21 198 -8.12176 2.05643 -9.13583
3671 21 29 -6.14868 1.52874 5.36132
3818 21 128 -9.21629 1.83744 6.2347
3760 21 92 -5.14625 -1.27997 15.8305
3881 21 169 -9.71816 10.5401 0.342699
3889 21 175 -2.13581 8.26259 13.4809
3681 21 35 3.4568 -23.6998 6.66047
3933 21 207 5.33159 -23.5264 19.6595
3835 21 139 0.359893 -12.2626 0.703354
3887 21 173 7.19041 -3.13872 14.037
3927 21 203 7.02374 -1.84315 10.8375
3949 21 217 4.41403 5.98496 -5.93429
3937 21 209 7.11372 1.73237 -2.96505
3904 21 186 1.68182 2.28215 5.03473
3891 21 177 6.02592 6.97714 0.219312
3822 21 132 0.288515 11.0112 18.1817
3845 21 145 8.33732 -21.6683 13.2503
3747 21 81 16.4201 -19.8324 11.9369
3921 21 199 14.4108 -17.2179 14.6504
3905 21 187 13.4021 -12.6377 -7.67704
3913 21 193 10.2042 -9.21873 9.41048
3750 21 84 11.3544 -7.99239 -9.34786
3682 21 36 9.25328 -3.61629 0.640261
3752 21 86 10.8053 -2.4827 16.3463
3726 21 68 9.0974 -0.568716 -2.0754
3816 21 126 10.4744 5.6738 -9.34933
3702 21 50 10.2988 -1.12628 7.38192
3780 21 102 11.802 5.96372 13.5988
3654 21 16 15.3932 4.10297 15.48
3886 21 172 8.30432 -0.242862 15.8549
3948 21 216 8.52242 0.603348 12.2447
3844 21 144 17.0525 12.1027 18.1946
ITEM: TIMESTEP
1155000
ITEM: NUMBER OF ATOMS
53
ITEM: BOX BOUNDS pp pp pp
-1.8890748237558082e+01 1.7071728458632645e+01
-2.4206251959865028e+01 1.3978843717777622e+01
-9.5064799395183570e+00 2.0879138762164033e+01
ITEM: ATOMS id type mol x y z
3753 21 87 -18.0432 -20.8136 -2.19716
3947 21 215 -13.246 -21.433 10.3366
3900 21 182 -18.2957 -20.2136 1.3337
3951 21 219 -16.7893 -19.4966 19.1536
3928 21 204 -16.3353 -13.0575 -6.8844
3939 21 211 -16.5621 -13.4831 13.6332
3917 21 195 -13.1579 -15.4936 16.1933
3903 21 185 -16.5296 -5.4824 -2.7809
3938 21 210 -15.5561 -7.57668 3.67908
3854 21 154 -13.146 5.49296 20.1494
3847 21 147 -9.94061 7.51595 2.20254
3764 21 94 -18.767 7.02405 17.252
3641 21 11 -15.6492 11.2295 17.8319
3848 21 148 -2.34598 -17.7827 0.0279931
3803 21 117 -4.00855 -17.7333 -8.53307
3664 21 24 -7.44071 -18.2872 -1.98638
3748 21 82 -5.06146 -20.6773 -1.73156
3902 21 184 -8.82271 -13.4476 1.77138
3810 21 122 -9.40907 -14.8279 15.6822
3946 21 214 -3.83497 -13.0493 10.7752
3839 21 141 -4.56647 -7.99705 2.86107
3846 21 146 -9.01931 -8.89774 20.0092
3920 21 198 -8.12856 2.06464 -9.05681
3671 21 29 -6.15362 1.53634 5.36305
3818 21 128 -9.22412 1.8454 6.23178
3760 21 92 -5.15024 -1.27558 15.7764
3881 21 169 -9.72647 10.558 0.371187
3889 21 175 -2.13697 8.2779 13.4394
3681 21 35 3.46092 -23.7211 6.65528
3933 21 207 5.33747 -23.5475 19.585
3835 21 139 0.36109 -12.2708 0.72992
3887 21 173 7.19805 -3.13646 13.9925
3949 21 217 4.41905 5.99766 -5.87233
3937 21 209 7.12129 1.7402 -2.91893
3904 21 186 1.68426 2.29062 5.0382
3891 21 177 6.03246 6.99098 0.248458
3822 21 132 0.289645 11.0296 18.1151
3845 21 145 8.34604 -21.6872 13.21
3747 21 81 16.4365 -19.8493 11.9036
3921 21 199 14.4253 -17.2318 14.6026
3905 21 187 13.4156 -12.6463 -7.6058
3913 21 193 10.2147 -9.22343 9.39062
3750 21 84 11.366 -7.99569 -9.26771
3682 21 36 9.26286 -3.61458 0.667163
3752 21 86 10.8164 -2.47969 16.2895
3726 21 68 9.10683 -0.563514 -2.03402
3816 21 126 10.4852 5.68615 -9.26917
3702 21 50 10.3093 -1.12172 7.37288
3780 21 102 11.814 5.9764 13.5566
3654 21 16 15.4086 4.11352 15.4278
3886 21 172 8.31301 -0.237288 15.8007
3948 21 216 8.53131 0.60989 12.2098
3844 21 144 17.0695 12.1224 18.1279
ITEM: TIMESTEP
1160000
ITEM: NUMBER OF ATOMS
53
ITEM: BOX BOUNDS pp pp pp
-1.8760054536290202e+01 1.6941034757364765e+01
-2.4535754417502233e+01 1.4308346175414826e+01
-9.4453120434185500e+00 2.0817970866062723e+01
ITEM: ATOMS id type mol x y z
3753 21 87 -17.9187 -21.0846 -2.16542
3947 21 215 -13.1563 -21.7146 10.3179
3900 21 182 -18.1693 -20.4742 1.35122
3951 21 219 -16.6738 -19.7448 19.0994
3928 21 204 -16.2232 -13.1946 -6.83379
3939 21 211 -16.4484 -13.6275 13.6012
3917 21 195 -13.0689 -15.6727 16.151
3903 21 185 -16.416 -5.48876 -2.74681
3938 21 210 -15.4497 -7.61918 3.68716
3854 21 154 -13.0571 5.67601 20.0911
3847 21 147 -9.87497 7.73391 2.21657
3764 21 94 -18.6372 7.23353 17.2054
3641 21 11 -15.5421 11.5116 17.783
3848 21 148 -2.33554 -18.0013 0.0507741
3803 21 117 -3.98602 -17.9511 -8.47582
3664 21 24 -7.39324 -18.5145 -1.95549
3748 21 82 -5.03128 -20.9459 -1.7017
3902 21 184 -8.76519 -13.5914 1.78714
3810 21 122 -9.34729 -14.9956 15.6419
3946 21 214 -3.81371 -13.1863 10.7547
3839 21 141 -4.53989 -8.04681 2.87244
3846 21 146 -8.96036 -8.96305 19.9516
3920 21 198 -8.07609 2.18852 -8.99746
3671 21 29 -6.1155 1.65111 5.36435
3818 21 128 -9.16369 1.9655 6.22958
3760 21 92 -5.11942 -1.20934 15.7358
3881 21 169 -9.66238 10.8285 0.392586
3889 21 175 -2.12804 8.50901 13.4082
3681 21 35 3.42915 -24.0422 6.65138
3933 21 207 5.29207 -23.8656 19.529
3835 21 139 0.351855 -12.3943 0.749875
3887 21 173 7.13912 -3.10234 13.959
3949 21 217 4.38032 6.18943 -5.8258
3937 21 209 7.06292 1.85849 -2.88429
3904 21 186 1.66541 2.4184 5.04081
3891 21 177 5.982 7.19988 0.270352
3822 21 132 0.280929 11.3082 18.065
3845 21 145 8.27877 -21.9732 13.1797
3747 21 81 16.3104 -20.1036 11.8786
3921 21 199 14.3138 -17.4409 14.5667
3905 21 187 13.3115 -12.7763 -7.55229
3913 21 193 10.1339 -9.29436 9.37571
3750 21 84 11.2767 -8.04543 -9.2075
3682 21 36 9.18892 -3.5887 0.68737
3752 21 86 10.7311 -2.43423 16.2468
3726 21 68 9.03403 -0.484986 -2.00294
3816 21 126 10.4023 5.87254 -9.20896
3702 21 50 10.2278 -1.05282 7.36609
3780 21 102 11.7215 6.16779 13.5249
3654 21 16 15.29 4.27276 15.3885
3886 21 172 8.24598 -0.15313 15.76
3948 21 216 8.46269 0.708669 12.1835
3844 21 144 16.9388 12.4199 18.0778
ITEM: TIMESTEP
1165000
ITEM: NUMBER OF ATOMS
55
ITEM: BOX BOUNDS pp pp pp
-1.8571580346380291e+01 1.6752560567454854e+01
-2.4441323406031113e+01 1.4213915163943707e+01
-9.6569978774173890e+00 2.1029656699985917e+01
ITEM: ATOMS id type mol x y z
3753 21 87 -17.7391 -21.0069 -2.27527
3947 21 215 -13.027 -21.6339 10.3827
3900 21 182 -17.9871 -20.3995 1.29057
3951 21 219 -16.5074 -19.6737 19.2871
3928 21 204 -16.0615 -13.1553 -7.00894
3939 21 211 -16.2843 -13.5861 13.712
3917 21 195 -12.9405 -15.6214 16.2974
3903 21 185 -16.2523 -5.48694 -2.86479
3938 21 210 -15.2961 -7.607 3.6592
3958 21 222 -11.7795 -0.964437 7.82214
3854 21 154 -12.9288 5.62355 20.2926
3847 21 147 -9.78031 7.67145 2.16803
3764 21 94 -18.4501 7.1735 17.3665
3641 21 11 -15.3876 11.4307 17.9522
3848 21 148 -2.32048 -17.9386 -0.0280651
3803 21 117 -3.95354 -17.8887 -8.67394
3664 21 24 -7.32478 -18.4494 -2.06239
3748 21 82 -4.98776 -20.8689 -1.80505
3902 21 184 -8.68225 -13.5502 1.7326
3810 21 122 -9.2582 -14.9475 15.7812
3946 21 214 -3.78304 -13.147 10.8256
3839 21 141 -4.50156 -8.03255 2.83308
3846 21 146 -8.87536 -8.94433 20.1511
3920 21 198 -8.00043 2.15302 -9.20288
3671 21 29 -6.06054 1.61822 5.35985
3818 21 128 -9.07653 1.93108 6.23718
3760 21 92 -5.07497 -1.22833 15.8764
3881 21 169 -9.56997 10.7509 0.318528
3889 21 175 -2.11518 8.44278 13.5162
3681 21 35 3.38334 -23.9502 6.66488
3933 21 207 5.22659 -23.7744 19.7227
3835 21 139 0.338537 -12.3589 0.680815
3887 21 173 7.05414 -3.11212 14.0747
3949 21 217 4.32446 6.13447 -5.98685
3937 21 209 6.97874 1.82459 -3.00419
3904 21 186 1.63822 2.38178 5.03178
3891 21 177 5.90924 7.14001 0.194584
3822 21 132 0.26836 11.2284 18.2382
3960 21 224 12.5704 -18.6912 -6.24301
3845 21 145 8.18176 -21.8913 13.2845
3747 21 81 16.1286 -20.0307 11.9652
3921 21 199 14.1531 -17.381 14.691
3905 21 187 13.1613 -12.739 -7.73749
3913 21 193 10.0173 -9.27403 9.42732
3750 21 84 11.1481 -8.03117 -9.41586
3682 21 36 9.0823 -3.59612 0.617437
3752 21 86 10.6082 -2.44726 16.3946
3726 21 68 8.92904 -0.507491 -2.11051
3816 21 126 10.2829 5.81912 -9.41734
3702 21 50 10.1102 -1.07257 7.38959
3780 21 102 11.5881 6.11294 13.6346
3654 21 16 15.119 4.22713 15.5243
3886 21 172 8.14931 -0.177249 15.9009
3948 21 216 8.36373 0.680361 12.2744
3844 21 144 16.7504 12.3346 18.2512
ITEM: TIMESTEP
1170000
ITEM: NUMBER OF ATOMS
54
ITEM: BOX BOUNDS pp pp pp
-1.8709989824800502e+01 1.6890970045875065e+01
-2.4370963266913705e+01 1.4143555024826298e+01
-9.5731449039234882e+00 2.0945803726496997e+01
ITEM: ATOMS id type mol x y z
3753 21 87 -17.871 -20.9491 -2.23176
3947 21 215 -13.122 -21.5737 10.357
3900 21 182 -18.1209 -20.3438 1.3146
3951 21 219 -16.6296 -19.6207 19.2127
3928 21 204 -16.1802 -13.126 -6.93956
3939 21 211 -16.4048 -13.5553 13.6681
3917 21 195 -13.0348 -15.5831 16.2394
3903 21 185 -16.3726 -5.48558 -2.81806
3938 21 210 -15.4089 -7.59792 3.67027
3958 21 222 -11.8647 -0.979541 7.81047
3854 21 154 -13.023 5.58446 20.2128
3847 21 147 -9.84983 7.6249 2.18725
3764 21 94 -18.5875 7.12877 17.3027
3641 21 11 -15.501 11.3705 17.8852
3848 21 148 -2.33154 -17.892 0.00316469
3803 21 117 -3.9774 -17.8422 -8.59546
3664 21 24 -7.37505 -18.4008 -2.02005
3748 21 82 -5.01972 -20.8116 -1.76411
3902 21 184 -8.74316 -13.5195 1.7542
3810 21 122 -9.32363 -14.9117 15.726
3946 21 214 -3.80556 -13.1178 10.7975
3839 21 141 -4.52971 -8.02193 2.84867
3846 21 146 -8.93778 -8.93039 20.0721
3920 21 198 -8.05599 2.12656 -9.12151
3671 21 29 -6.1009 1.59371 5.36163
3818 21 128 -9.14054 1.90543 6.23417
3760 21 92 -5.10761 -1.24247 15.8207
3881 21 169 -9.63783 10.6932 0.347864
3889 21 175 -2.12463 8.39343 13.4734
3681 21 35 3.41699 -23.8816 6.65953
3933 21 207 5.27468 -23.7065 19.646
3835 21 139 0.348317 -12.3325 0.708171
3887 21 173 7.11654 -3.11941 14.0289
3949 21 217 4.36548 6.09352 -5.92305
3937 21 209 7.04056 1.79933 -2.95669
3904 21 186 1.65819 2.35449 5.03536
3891 21 177 5.96267 7.0954 0.224597
3822 21 132 0.27759 11.1689 18.1696
3960 21 224 12.676 -18.6418 -6.17782
3845 21 145 8.253 -21.8302 13.243
3747 21 81 16.2621 -19.9764 11.9309
3921 21 199 14.2711 -17.3363 14.6418
3905 21 187 13.2716 -12.7113 -7.66413
3913 21 193 10.1029 -9.25889 9.40688
3750 21 84 11.2426 -8.02055 -9.33333
3752 21 86 10.6985 -2.45697 16.336
3726 21 68 9.00614 -0.52426 -2.0679
3816 21 126 10.3706 5.77932 -9.33479
3702 21 50 10.1966 -1.08728 7.38028
3780 21 102 11.6861 6.07207 13.5911
3654 21 16 15.2446 4.19312 15.4705
3886 21 172 8.2203 -0.195219 15.8451
3948 21 216 8.4364 0.659268 12.2384
3844 21 144 16.8887 12.2711 18.1825
ITEM: TIMESTEP
1175000
ITEM: NUMBER OF ATOMS
56
ITEM: BOX BOUNDS pp pp pp
-1.8827135014657721e+01 1.7008115235732284e+01
-2.4354225032403612e+01 1.4126816790316205e+01
-9.5373209343547103e+00 2.0909979756920375e+01
ITEM: ATOMS id type mol x y z
3753 21 87 -17.9826 -20.9353 -2.21317
3947 21 215 -13.2023 -21.5594 10.346
3900 21 182 -18.2342 -20.3306 1.32486
3951 21 219 -16.7331 -19.608 19.181
3928 21 204 -16.2807 -13.119 -6.90992
3939 21 211 -16.5067 -13.5479 13.6494
3917 21 195 -13.1146 -15.574 16.2147
3903 21 185 -16.4743 -5.48525 -2.79809
3938 21 210 -15.5043 -7.59576 3.67501
3961 21 225 -14.7984 -5.00569 11.115
3958 21 222 -11.9368 -0.983135 7.80548
3854 21 154 -13.1028 5.57516 20.1787
3847 21 147 -9.90866 7.61383 2.19547
3764 21 94 -18.7039 7.11813 17.2754
3641 21 11 -15.5971 11.3562 17.8565
3848 21 148 -2.3409 -17.8809 0.0165068
3803 21 117 -3.99759 -17.8311 -8.56193
3664 21 24 -7.4176 -18.3893 -2.00195
3748 21 82 -5.04677 -20.7979 -1.74662
3902 21 184 -8.79471 -13.5122 1.76343
3810 21 122 -9.379 -14.9032 15.7025
3946 21 214 -3.82462 -13.1108 10.7855
3839 21 141 -4.55354 -8.0194 2.85533
3846 21 146 -8.99062 -8.92707 20.0383
3920 21 198 -8.10302 2.12027 -9.08674
3671 21 29 -6.13507 1.58788 5.3624
3818 21 128 -9.1947 1.89933 6.23289
3760 21 92 -5.13524 -1.24584 15.7969
3881 21 169 -9.69528 10.6794 0.360397
3889 21 175 -2.13262 8.38169 13.4551
3962 21 226 7.22373 -22.442 -4.09638
3681 21 35 3.44546 -23.8653 6.65724
3933 21 207 5.31537 -23.6903 19.6132
3835 21 139 0.356595 -12.3263 0.719858
3887 21 173 7.16936 -3.12114 14.0093
3949 21 217 4.40019 6.08378 -5.8958
3937 21 209 7.09288 1.79332 -2.9364
3904 21 186 1.67508 2.348 5.03688
3891 21 177 6.0079 7.08479 0.237419
3822 21 132 0.285402 11.1547 18.1403
3960 21 224 12.7654 -18.63 -6.14997
3845 21 145 8.3133 -21.8157 13.2253
3747 21 81 16.3751 -19.9635 11.9162
3921 21 199 14.371 -17.3257 14.6207
3905 21 187 13.3649 -12.7047 -7.63278
3913 21 193 10.1754 -9.25528 9.39814
3750 21 84 11.3225 -8.01802 -9.29807
3752 21 86 10.7749 -2.45928 16.311
3726 21 68 9.0714 -0.528249 -2.04969
3816 21 126 10.4449 5.76985 -9.29953
3702 21 50 10.2696 -1.09078 7.3763
3780 21 102 11.7689 6.06235 13.5726
3654 21 16 15.3509 4.18503 15.4475
3886 21 172 8.28038 -0.199494 15.8212
3948 21 216 8.49791 0.65425 12.223
3844 21 144 17.0059 12.256 18.1531
ITEM: TIMESTEP
1180000
ITEM: NUMBER OF ATOMS
55
ITEM: BOX BOUNDS pp pp pp
-1.8800636404798063e+01 1.6981616625872626e+01
-2.4259289772877370e+01 1.4031881530789963e+01
-9.6397660362977504e+00 2.1012424858817585e+01
ITEM: ATOMS id type mol x y z
3753 21 87 -17.9574 -20.8573 -2.26632
3947 21 215 -13.1842 -21.4783 10.3774
3900 21 182 -18.2085 -20.2555 1.29551
3951 21 219 -16.7097 -19.5365 19.2718
3928 21 204 -16.258 -13.0795 -6.99468
3939 21 211 -16.4837 -13.5063 13.7029
3917 21 195 -13.0965 -15.5224 16.2855
3903 21 185 -16.4513 -5.48342 -2.85518
3938 21 210 -15.4827 -7.58352 3.66147
3961 21 225 -14.7779 -5.00622 11.1515
3958 21 222 -11.9205 -1.00352 7.81974
3847 21 147 -9.89535 7.55103 2.17198
3764 21 94 -18.6775 7.05777 17.3534
3641 21 11 -15.5753 11.2749 17.9384
3848 21 148 -2.33878 -17.8179 -0.0216474
3803 21 117 -3.99302 -17.7684 -8.65781
3664 21 24 -7.40798 -18.3238 -2.05369
3748 21 82 -5.04065 -20.7205 -1.79664
3902 21 184 -8.78305 -13.4708 1.73704
3810 21 122 -9.36647 -14.8549 15.7699
3946 21 214 -3.82031 -13.0714 10.8198
3839 21 141 -4.54815 -8.00506 2.83628
3846 21 146 -8.97866 -8.90826 20.1349
3920 21 198 -8.09239 2.08458 -9.18616
3671 21 29 -6.12734 1.55482 5.36022
3818 21 128 -9.18245 1.86473 6.23657
3760 21 92 -5.12899 -1.26492 15.865
3881 21 169 -9.68228 10.6015 0.324557
3889 21 175 -2.13081 8.3151 13.5074
3962 21 226 7.2117 -22.3565 -4.16221
3681 21 35 3.43902 -23.7728 6.66378
3933 21 207 5.30617 -23.5987 19.7069
3835 21 139 0.354722 -12.2907 0.686437
3887 21 173 7.15742 -3.13097 14.0653
3949 21 217 4.39234 6.02853 -5.97374
3937 21 209 7.08104 1.75924 -2.99442
3904 21 186 1.67126 2.31118 5.03251
3891 21 177 5.99767 7.0246 0.200752
3822 21 132 0.283635 11.0745 18.2241
3960 21 224 12.7452 -18.5633 -6.22962
3845 21 145 8.29966 -21.7332 13.276
3747 21 81 16.3495 -19.8902 11.9581
3921 21 199 14.3484 -17.2654 14.6809
3905 21 187 13.3438 -12.6672 -7.72241
3913 21 193 10.159 -9.23485 9.42312
3750 21 84 11.3045 -8.00369 -9.3989
3752 21 86 10.7576 -2.47237 16.3825
3726 21 68 9.05663 -0.550874 -2.10175
3816 21 126 10.4281 5.71615 -9.40037
3702 21 50 10.2531 -1.11063 7.38767
3780 21 102 11.7502 6.00721 13.6256
3654 21 16 15.3268 4.13915 15.5132
3886 21 172 8.26679 -0.223742 15.8894
3948 21 216 8.484 0.62579 12.267
3844 21 144 16.9794 12.1703 18.237
ITEM: TIMESTEP
1185000
ITEM: NUMBER OF ATOMS
55
ITEM: BOX BOUNDS pp pp pp
-1.8622574145616664e+01 1.6803554366691227e+01
-2.4279269043172466e+01 1.4051860801085059e+01
-9.6748628462255830e+00 2.1047521668717554e+01
ITEM: ATOMS id type mol x y z
3753 21 87 -17.7877 -20.8737 -2.28454
3947 21 215 -13.062 -21.4954 10.3881
3900 21 182 -18.0364 -20.2713 1.28546
3951 21 219 -16.5524 -19.5516 19.3029
3928 21 204 -16.1052 -13.0879 -7.02372
3939 21 211 -16.3287 -13.5151 13.7213
3917 21 195 -12.9752 -15.5333 16.3098
3903 21 185 -16.2966 -5.48381 -2.87474
3938 21 210 -15.3377 -7.5861 3.65683
3961 21 225 -14.6398 -5.00611 11.164
3958 21 222 -11.8109 -0.999226 7.82463
3847 21 147 -9.80592 7.56425 2.16393
3764 21 94 -18.5007 7.07047 17.3801
3641 21 11 -15.4294 11.292 17.9665
3848 21 148 -2.32456 -17.8311 -0.0347187
3803 21 117 -3.96233 -17.7816 -8.69066
3664 21 24 -7.3433 -18.3376 -2.07142
3748 21 82 -4.99954 -20.7368 -1.81378
3902 21 184 -8.70469 -13.4795 1.72799
3810 21 122 -9.28231 -14.8651 15.7929
3946 21 214 -3.79134 -13.0797 10.8316
3839 21 141 -4.51193 -8.00808 2.82976
3846 21 146 -8.89836 -8.91222 20.168
3920 21 198 -8.0209 2.09209 -9.22021
3671 21 29 -6.07541 1.56178 5.35947
3818 21 128 -9.10011 1.87201 6.23783
3760 21 92 -5.087 -1.2609 15.8883
3881 21 169 -9.59497 10.6179 0.312278
3889 21 175 -2.11866 8.32911 13.5253
3962 21 226 7.13087 -22.3745 -4.18476
3681 21 35 3.39574 -23.7923 6.66602
3933 21 207 5.24431 -23.618 19.739
3835 21 139 0.34214 -12.2982 0.674987
3887 21 173 7.07713 -3.1289 14.0845
3949 21 217 4.33957 6.04016 -6.00044
3937 21 209 7.00152 1.76642 -3.0143
3904 21 186 1.64558 2.31893 5.03102
3891 21 177 5.92893 7.03727 0.18819
3822 21 132 0.27176 11.0914 18.2528
3960 21 224 12.6093 -18.5774 -6.2569
3845 21 145 8.208 -21.7506 13.2934
3747 21 81 16.1778 -19.9056 11.9725
3921 21 199 14.1966 -17.2781 14.7015
3905 21 187 13.2019 -12.6751 -7.75312
3913 21 193 10.0488 -9.23915 9.43168
3750 21 84 11.1829 -8.00671 -9.43345
3752 21 86 10.6415 -2.46962 16.407
3726 21 68 8.95745 -0.546112 -2.11958
3816 21 126 10.3152 5.72745 -9.43492
3702 21 50 10.142 -1.10645 7.39157
3780 21 102 11.6242 6.01881 13.6438
3654 21 16 15.1652 4.14881 15.5357
3886 21 172 8.17546 -0.218639 15.9128
3948 21 216 8.39051 0.63178 12.2821
3844 21 144 16.8013 12.1884 18.2658
ITEM: TIMESTEP
1190000
ITEM: NUMBER OF ATOMS
55
ITEM: BOX BOUNDS pp pp pp
-1.8781499608906348e+01 1.6962479829980911e+01
-2.4336031346429529e+01 1.4108623104342122e+01
-9.5718339377060992e+00 2.0944492760208853e+01
ITEM: ATOMS id type mol x y z
3753 21 87 -17.9391 -20.9204 -2.23108
3947 21 215 -13.171 -21.5439 10.3566
3900 21 182 -18.19 -20.3162 1.31497
3951 21 219 -16.6928 -19.5943 19.2116
3928 21 204 -16.2416 -13.1115 -6.93847
3939 21 211 -16.467 -13.54 13.6674
3917 21 195 -13.0835 -15.5641 16.2385
3903 21 185 -16.4347 -5.4849 -2.81732
3938 21 210 -15.4671 -7.59342 3.67045
3961 21 225 -14.763 -5.00579 11.1273
3958 21 222 -11.9087 -0.987041 7.81029
3847 21 147 -9.88574 7.6018 2.18755
3764 21 94 -18.6585 7.10656 17.3017
3641 21 11 -15.5597 11.3406 17.8841
3848 21 148 -2.33725 -17.8688 0.00365294
3803 21 117 -3.98972 -17.8191 -8.59423
3664 21 24 -7.40103 -18.3767 -2.01938
3748 21 82 -5.03624 -20.7831 -1.76347
3902 21 184 -8.77463 -13.5043 1.75454
3810 21 122 -9.35743 -14.894 15.7252
3946 21 214 -3.81719 -13.1033 10.7971
3839 21 141 -4.54425 -8.01665 2.84892
3846 21 146 -8.97003 -8.92347 20.0709
3920 21 198 -8.0847 2.11343 -9.12023
3671 21 29 -6.12176 1.58155 5.36166
3818 21 128 -9.1736 1.8927 6.23413
3760 21 92 -5.12448 -1.24949 15.8199
3881 21 169 -9.6729 10.6645 0.348323
3889 21 175 -2.12951 8.36893 13.4727
3962 21 226 7.20301 -22.4256 -4.11856
3681 21 35 3.43437 -23.8476 6.65944
3933 21 207 5.29952 -23.6728 19.6448
3835 21 139 0.35337 -12.3194 0.708599
3887 21 173 7.14879 -3.12302 14.0282
3949 21 217 4.38667 6.07319 -5.92206
3937 21 209 7.0725 1.78679 -2.95595
3904 21 186 1.6685 2.34095 5.03541
3891 21 177 5.99028 7.07326 0.225066
3822 21 132 0.282359 11.1393 18.1686
3960 21 224 12.7306 -18.6172 -6.1768
3845 21 145 8.28981 -21.7999 13.2424
3747 21 81 16.3311 -19.9494 11.9303
3921 21 199 14.3321 -17.3141 14.641
3905 21 187 13.3285 -12.6975 -7.66298
3913 21 193 10.1471 -9.25137 9.40656
3750 21 84 11.2914 -8.01528 -9.33204
3752 21 86 10.7451 -2.46179 16.3351
3726 21 68 9.04597 -0.532585 -2.06723
3816 21 126 10.4159 5.75956 -9.3335
3702 21 50 10.2412 -1.09458 7.38013
3780 21 102 11.7367 6.05178 13.5904
3654 21 16 15.3095 4.17624 15.4697
3886 21 172 8.25698 -0.204141 15.8442
3948 21 216 8.47395 0.648796 12.2378
3844 21 144 16.9602 12.2396 18.1814
ITEM: TIMESTEP
1195000
ITEM: NUMBER OF ATOMS
56
ITEM: BOX BOUNDS pp pp pp
-1.8732692405341464e+01 1.6913672626416027e+01
-2.4413007613353088e+01 1.4185599371265681e+01
-9.5050007165060322e+00 2.0877659539009592e+01
ITEM: ATOMS id type mol x y z
3753 21 87 -17.8926 -20.9837 -2.1964
3947 21 215 -13.1375 -21.6097 10.3361
3900 21 182 -18.1429 -20.3771 1.33412
3951 21 219 -16.6497 -19.6523 19.1523
3928 21 204 -16.1997 -13.1435 -6.88317
3939 21 211 -16.4245 -13.5737 13.6325
3917 21 195 -13.0503 -15.606 16.1923
3903 21 185 -16.3923 -5.48639 -2.78008
3938 21 210 -15.4274 -7.60335 3.67928
3961 21 225 -14.7252 -5.00536 11.1035
3958 21 222 -11.8787 -0.970515 7.80098
3847 21 147 -9.86123 7.65272 2.20288
3764 21 94 -18.6101 7.1555 17.2508
3641 21 11 -15.5196 11.4065 17.8307
3848 21 148 -2.33335 -17.9199 0.028544
3803 21 117 -3.98131 -17.87 -8.53168
3664 21 24 -7.3833 -18.4299 -1.98563
3748 21 82 -5.02497 -20.8458 -1.73084
3902 21 184 -8.75315 -13.5379 1.77176
3810 21 122 -9.33436 -14.9331 15.6812
3946 21 214 -3.80925 -13.1353 10.7747
3839 21 141 -4.53433 -8.02828 2.86134
3846 21 146 -8.94802 -8.93872 20.0078
3920 21 198 -8.06511 2.14237 -9.05538
3671 21 29 -6.10752 1.60836 5.36308
3818 21 128 -9.15103 1.92076 6.23173
3760 21 92 -5.11297 -1.23402 15.7755
3881 21 169 -9.64897 10.7277 0.371704
3889 21 175 -2.12618 8.42292 13.4386
3962 21 226 7.18086 -22.495 -4.07561
3681 21 35 3.4225 -23.9226 6.65518
3933 21 207 5.28256 -23.7471 19.5836
3835 21 139 0.349921 -12.3483 0.730402
3887 21 173 7.12678 -3.11505 13.9916
3949 21 217 4.37221 6.11799 -5.87121
3937 21 209 7.0507 1.81442 -2.91809
3904 21 186 1.66146 2.3708 5.03826
3891 21 177 5.97144 7.12206 0.248988
3822 21 132 0.279104 11.2044 18.1139
3960 21 224 12.6933 -18.6713 -6.12484
3845 21 145 8.26469 -21.8667 13.2093
3747 21 81 16.284 -20.0088 11.903
3921 21 199 14.2905 -17.363 14.6018
3905 21 187 13.2897 -12.7279 -7.60451
3913 21 193 10.1169 -9.26794 9.39026
3750 21 84 11.2581 -8.0269 -9.26625
3752 21 86 10.7133 -2.45117 16.2885
3726 21 68 9.01879 -0.514239 -2.03327
3816 21 126 10.385 5.8031 -9.26771
3702 21 50 10.2107 -1.07849 7.37271
3780 21 102 11.7021 6.09649 13.5558
3654 21 16 15.2652 4.21344 15.4268
3886 21 172 8.23194 -0.184481 15.7997
3948 21 216 8.44832 0.671872 12.2091
3844 21 144 16.9114 12.3091 18.1267
3963 21 227 16.9069 6.57195 14.4418
ITEM: TIMESTEP
1200000
ITEM: NUMBER OF ATOMS
56
ITEM: BOX BOUNDS pp pp pp
-1.8849925176255404e+01 1.7030905397329967e+01
-2.4332398334813046e+01 1.4104990092725640e+01
-9.4213863125716806e+00 2.0794045135081152e+01
ITEM: ATOMS id type mol x y z
3753 21 87 -18.0043 -20.9174 -2.15301
3947 21 215 -13.218 -21.5408 10.3105
3900 21 182 -18.2562 -20.3133 1.35807
3951 21 219 -16.7532 -19.5916 19.0782
3928 21 204 -16.3003 -13.11 -6.81399
3939 21 211 -16.5266 -13.5384 13.5887
3917 21 195 -13.1301 -15.5622 16.1345
3903 21 185 -16.4941 -5.48483 -2.73348
3938 21 210 -15.5229 -7.59295 3.69032
3961 21 225 -14.8161 -5.00581 11.0736
3958 21 222 -11.9509 -0.987821 7.78934
3847 21 147 -9.92011 7.59939 2.22205
3764 21 94 -18.7265 7.10425 17.1872
3641 21 11 -15.6157 11.3375 17.7639
3848 21 148 -2.34272 -17.8664 0.0596849
3803 21 117 -4.00151 -17.8167 -8.45342
3664 21 24 -7.42588 -18.3742 -1.9434
3748 21 82 -5.05204 -20.7801 -1.69002
3902 21 184 -8.80474 -13.5027 1.79331
3810 21 122 -9.38977 -14.8921 15.6262
3946 21 214 -3.82833 -13.1018 10.7467
3839 21 141 -4.55817 -8.0161 2.87689
3846 21 146 -9.00089 -8.92275 19.929
3920 21 198 -8.11217 2.11206 -8.97424
3671 21 29 -6.14171 1.58028 5.36486
3818 21 128 -9.20524 1.89138 6.22873
3760 21 92 -5.14062 -1.25022 15.7199
3881 21 169 -9.70645 10.6615 0.400956
3889 21 175 -2.13418 8.36638 13.3959
3962 21 226 7.23407 -22.4224 -4.02188
3681 21 35 3.451 -23.8441 6.64985
3933 21 207 5.32329 -23.6693 19.5072
3835 21 139 0.358205 -12.3181 0.75768
3887 21 173 7.17964 -3.1234 13.9459
3949 21 217 4.40695 6.07108 -5.80759
3937 21 209 7.10306 1.78549 -2.87073
3904 21 186 1.67837 2.33954 5.04183
3891 21 177 6.0167 7.07095 0.278915
3822 21 132 0.286922 11.1363 18.0455
3960 21 224 12.7828 -18.6147 -6.05983
3845 21 145 8.32503 -21.7967 13.1679
3747 21 81 16.3971 -19.9466 11.8688
3921 21 199 14.3905 -17.3118 14.5527
3905 21 187 13.3831 -12.6961 -7.53135
3913 21 193 10.1895 -9.25058 9.36987
3967 21 229 13.5152 -16.4 5.94485
3750 21 84 11.3381 -8.01473 -9.18395
3752 21 86 10.7897 -2.46229 16.2301
3726 21 68 9.08409 -0.53345 -1.99078
3816 21 126 10.4593 5.75751 -9.18541
3702 21 50 10.2839 -1.09534 7.36343
3780 21 102 11.7851 6.04967 13.5125
3654 21 16 15.3716 4.17448 15.3732
3886 21 172 8.29207 -0.205069 15.744
3948 21 216 8.50988 0.647707 12.1732
3844 21 144 17.0287 12.2363 18.0582
ITEM: TIMESTEP
1205000
ITEM: NUMBER OF ATOMS
58
ITEM: BOX BOUNDS pp pp pp
-1.8840910784139382e+01 1.7021891005213945e+01
-2.4400224916381219e+01 1.4172816674293813e+01
-9.5023219870249633e+00 2.0874980809494108e+01
ITEM: ATOMS id type mol x y z
3753 21 87 -17.9957 -20.9732 -2.19501
3947 21 215 -13.2118 -21.5988 10.3353
3900 21 182 -18.2475 -20.367 1.33489
3951 21 219 -16.7453 -19.6427 19.15
3928 21 204 -16.2925 -13.1382 -6.88096
3939 21 211 -16.5187 -13.5681 13.6311
3917 21 195 -13.124 -15.599 16.1904
3903 21 185 -16.4863 -5.48614 -2.77858
3938 21 210 -15.5155 -7.6017 3.67963
3961 21 225 -14.8091 -5.00543 11.1025
3958 21 222 -11.9453 -0.97326 7.80061
3847 21 147 -9.91558 7.64426 2.20349
3764 21 94 -18.7175 7.14737 17.2488
3641 21 11 -15.6084 11.3956 17.8286
3848 21 148 -2.342 -17.9114 0.0295416
3803 21 117 -3.99996 -17.8615 -8.52917
3664 21 24 -7.42261 -18.421 -1.98428
3748 21 82 -5.04995 -20.8354 -1.72953
3902 21 184 -8.80077 -13.5323 1.77245
3968 21 230 -4.47319 -9.29233 14.5769
3810 21 122 -9.38551 -14.9266 15.6794
3946 21 214 -3.82686 -13.13 10.7738
3839 21 141 -4.55634 -8.02635 2.86184
3846 21 146 -8.99683 -8.93619 20.0053
3920 21 198 -8.10856 2.13757 -9.05278
3671 21 29 -6.13909 1.60391 5.36314
3818 21 128 -9.20107 1.9161 6.23163
3760 21 92 -5.13849 -1.23659 15.7737
3881 21 169 -9.70203 10.7172 0.372641
3889 21 175 -2.13356 8.41395 13.4372
3962 21 226 7.22998 -22.4834 -4.07389
3681 21 35 3.44881 -23.9102 6.65501
3933 21 207 5.32016 -23.7348 19.5812
3835 21 139 0.357568 -12.3435 0.731276
3887 21 173 7.17557 -3.11638 13.9902
3949 21 217 4.40428 6.11055 -5.86917
3937 21 209 7.09903 1.80984 -2.91658
3904 21 186 1.67707 2.36584 5.03838
3969 21 231 5.40254 -0.268308 12.6758
3891 21 177 6.01322 7.11395 0.249946
3822 21 132 0.286321 11.1936 18.1117
3960 21 224 12.7759 -18.6623 -6.12276
3845 21 145 8.32039 -21.8556 13.2079
3747 21 81 16.3884 -19.999 11.9019
3921 21 199 14.3828 -17.3549 14.6002
3905 21 187 13.3759 -12.7228 -7.60216
3967 21 229 13.508 -16.4398 5.94624
3913 21 193 10.1839 -9.26518 9.38961
3750 21 84 11.3319 -8.02497 -9.26362
3752 21 86 10.7839 -2.45293 16.2866
3726 21 68 9.07907 -0.517286 -2.03191
3816 21 126 10.4536 5.79587 -9.26508
3702 21 50 10.2782 -1.08116 7.37242
3780 21 102 11.7787 6.08907 13.5544
3654 21 16 15.3634 4.20726 15.4251
3886 21 172 8.28745 -0.187745 15.7979
3948 21 216 8.50514 0.66804 12.208
3844 21 144 17.0197 12.2975 18.1245
ITEM: TIMESTEP
1210000
ITEM: NUMBER OF ATOMS
58
ITEM: BOX BOUNDS pp pp pp
-1.8913671850066883e+01 1.7094652071141446e+01
-2.4396533983276104e+01 1.4169125741188697e+01
-9.4983104426387364e+00 2.0870969265091261e+01
ITEM: ATOMS id type mol x y z
3753 21 87 -18.0651 -20.9701 -2.19292
3947 21 215 -13.2617 -21.5956 10.3341
3900 21 182 -18.3178 -20.3641 1.33604
3951 21 219 -16.8095 -19.6399 19.1464
3928 21 204 -16.3549 -13.1366 -6.87764
3939 21 211 -16.5821 -13.5665 13.629
3917 21 195 -13.1735 -15.597 16.1877
3903 21 185 -16.5495 -5.48607 -2.77635
3938 21 210 -15.5748 -7.60122 3.68016
3961 21 225 -14.8655 -5.00545 11.1011
3958 21 222 -11.9901 -0.974052 7.80005
3847 21 147 -9.95212 7.64182 2.20441
3764 21 94 -18.7898 7.14502 17.2457
3641 21 11 -15.668 11.3924 17.8254
3848 21 148 -2.34781 -17.9089 0.0310357
3803 21 117 -4.0125 -17.8591 -8.52542
3664 21 24 -7.44904 -18.4185 -1.98225
3748 21 82 -5.06676 -20.8324 -1.72757
3902 21 184 -8.83279 -13.5307 1.77349
3968 21 230 -4.48765 -9.29153 14.5746
3810 21 122 -9.41991 -14.9247 15.6768
3946 21 214 -3.8387 -13.1284 10.7724
3839 21 141 -4.57114 -8.02579 2.86259
3846 21 146 -9.02965 -8.93546 20.0015
3920 21 198 -8.13777 2.13618 -9.04889
3671 21 29 -6.16031 1.60262 5.36323
3818 21 128 -9.23472 1.91475 6.23149
3760 21 92 -5.15565 -1.23733 15.771
3881 21 169 -9.73771 10.7142 0.374045
3889 21 175 -2.13853 8.41137 13.4352
3962 21 226 7.26301 -22.4801 -4.07131
3681 21 35 3.46649 -23.9066 6.65476
3933 21 207 5.34544 -23.7312 19.5775
3835 21 139 0.36271 -12.3421 0.732585
3887 21 173 7.20838 -3.11676 13.988
3949 21 217 4.42584 6.1084 -5.86612
3937 21 209 7.13153 1.80851 -2.9143
3904 21 186 1.68757 2.36441 5.03855
3969 21 231 5.42816 -0.269236 12.674
3891 21 177 6.04131 7.11161 0.251382
3822 21 132 0.291173 11.1905 18.1084
3960 21 224 12.8315 -18.6597 -6.11964
3845 21 145 8.35784 -21.8524 13.206
3747 21 81 16.4586 -19.9961 11.9003
3921 21 199 14.4448 -17.3525 14.5978
3905 21 187 13.4338 -12.7214 -7.59865
3967 21 229 13.5665 -16.4376 5.94617
3913 21 193 10.2289 -9.26439 9.38863
3750 21 84 11.3816 -8.02441 -9.25967
3752 21 86 10.8313 -2.45344 16.2838
3726 21 68 9.1196 -0.518165 -2.02987
3816 21 126 10.4997 5.79378 -9.26113
3702 21 50 10.3236 -1.08193 7.37197
3780 21 102 11.8302 6.08693 13.5524
3654 21 16 15.4294 4.20548 15.4225
3886 21 172 8.32477 -0.188688 15.7952
3948 21 216 8.54334 0.666933 12.2063
3844 21 144 17.0924 12.2942 18.1212
ITEM: TIMESTEP
1215000
ITEM: NUMBER OF ATOMS
60
ITEM: BOX BOUNDS pp pp pp
-1.8835703016422578e+01 1.7016683237497141e+01
-2.4131694884053285e+01 1.3904286641965879e+01
-9.7220196812542206e+00 2.1094678503625499e+01
ITEM: ATOMS id type mol x y z
3753 21 87 -17.9908 -20.7523 -2.30901
3947 21 215 -13.2082 -21.3692 10.4026
3900 21 182 -18.2425 -20.1546 1.27195
3951 21 219 -16.7407 -19.4404 19.3447
3928 21 204 -16.2881 -13.0265 -7.06274
3939 21 211 -16.5142 -13.4504 13.746
3971 21 233 -14.0441 -14.8332 12.3394
3917 21 195 -13.1204 -15.453 16.3424
3903 21 185 -16.4818 -5.48096 -2.90103
3938 21 210 -15.5113 -7.56706 3.6506
3961 21 225 -14.8051 -5.00693 11.1809
3958 21 222 -11.9421 -1.03091 7.83119
3847 21 147 -9.91296 7.46663 2.15312
3764 21 94 -18.7124 6.97666 17.416
3641 21 11 -15.6041 11.1657 18.0042
3848 21 148 -2.34158 -17.7332 -0.0522815
3803 21 117 -3.99906 -17.684 -8.7348
3664 21 24 -7.42072 -18.2358 -2.09523
3748 21 82 -5.04875 -20.6165 -1.8368
3902 21 184 -8.79848 -13.4151 1.71584
3968 21 230 -4.47215 -9.23415 14.7055
3810 21 122 -9.38305 -14.79 15.824
3946 21 214 -3.82601 -13.0183 10.8474
3839 21 141 -4.55528 -7.98579 2.82099
3846 21 146 -8.99448 -8.88297 20.2124
3920 21 198 -8.10646 2.03661 -9.26597
3671 21 29 -6.13757 1.51038 5.35847
3818 21 128 -9.19867 1.81822 6.23952
3760 21 92 -5.13726 -1.29057 15.9196
3881 21 169 -9.69948 10.4968 0.295781
3889 21 175 -2.13321 8.22561 13.5494
3970 21 232 -8.01428 10.174 11.792
3962 21 226 7.22762 -22.2416 -4.21507
3681 21 35 3.44754 -23.6485 6.66902
3933 21 207 5.31835 -23.4755 19.7822
3835 21 139 0.3572 -12.2428 0.659603
3887 21 173 7.17323 -3.14419 14.1103
3949 21 217 4.40273 5.95427 -6.03632
3937 21 209 7.0967 1.71344 -3.04101
3904 21 186 1.67632 2.2617 5.029
3969 21 231 5.40071 -0.335772 12.7769
3891 21 177 6.01121 6.94371 0.171311
3822 21 132 0.285974 10.9666 18.2914
3960 21 224 12.772 -18.4737 -6.29357
3845 21 145 8.31771 -21.6225 13.3167
3747 21 81 16.3834 -19.7917 11.9918
3921 21 199 14.3783 -17.1844 14.7291
3905 21 187 13.3717 -12.6169 -7.79438
3967 21 229 13.5038 -16.2821 5.95
3913 21 193 10.1807 -9.20738 9.44317
3750 21 84 11.3284 -7.98443 -9.47986
3752 21 86 10.7805 -2.48998 16.4399
3726 21 68 9.07617 -0.581283 -2.14355
3816 21 126 10.4503 5.64398 -9.48134
3702 21 50 10.275 -1.13731 7.3968
3780 21 102 11.775 5.93309 13.6682
3654 21 16 15.3586 4.07748 15.566
3886 21 172 8.28478 -0.256331 15.9442
3948 21 216 8.50241 0.58754 12.3023
3844 21 144 17.0144 12.0551 18.3044
ITEM: TIMESTEP
1220000
ITEM: NUMBER OF ATOMS
60
ITEM: BOX BOUNDS pp pp pp
-1.8861804663415956e+01 1.7042784884490519e+01
-2.4353169481385283e+01 1.4125761239297876e+01
-9.5163496691595597e+00 2.0889008491571982e+01
ITEM: ATOMS id type mol x y z
3753 21 87 -18.0156 -20.9345 -2.20228
3947 21 215 -13.2261 -21.5585 10.3396
3900 21 182 -18.2677 -20.3298 1.33087
3951 21 219 -16.7637 -19.6073 19.1624
3928 21 204 -16.3105 -13.1186 -6.89256
3939 21 211 -16.5369 -13.5475 13.6384
3971 21 233 -14.0632 -14.9464 12.2506
3917 21 195 -13.1382 -15.5734 16.2001
3903 21 185 -16.5044 -5.48523 -2.7864
3938 21 210 -15.5325 -7.59563 3.67778
3961 21 225 -14.8253 -5.00569 11.1075
3958 21 222 -11.9582 -0.983361 7.80256
3847 21 147 -9.92607 7.61313 2.20028
3764 21 94 -18.7383 7.11746 17.2595
3641 21 11 -15.6255 11.3553 17.8398
3848 21 148 -2.34367 -17.8802 0.0243172
3803 21 117 -4.00356 -17.8304 -8.5423
3664 21 24 -7.4302 -18.3886 -1.99136
3748 21 82 -5.05478 -20.7971 -1.73638
3902 21 184 -8.80997 -13.5117 1.76884
3968 21 230 -4.47734 -9.28214 14.5852
3810 21 122 -9.39539 -14.9027 15.6887
3946 21 214 -3.83026 -13.1104 10.7785
3839 21 141 -4.56059 -8.01924 2.85923
3846 21 146 -9.00625 -8.92686 20.0185
3920 21 198 -8.11694 2.11987 -9.06639
3671 21 29 -6.14518 1.58752 5.36284
3818 21 128 -9.21074 1.89895 6.23213
3760 21 92 -5.14342 -1.24605 15.783
3881 21 169 -9.71228 10.6786 0.367734
3889 21 175 -2.13499 8.38095 13.4444
3970 21 232 -8.02463 10.352 11.7105
3962 21 226 7.23947 -22.4411 -4.0829
3681 21 35 3.45389 -23.8643 6.65591
3933 21 207 5.32742 -23.6893 19.594
3835 21 139 0.359045 -12.3259 0.7267
3887 21 173 7.185 -3.12125 13.9978
3949 21 217 4.41047 6.08317 -5.87984
3937 21 209 7.10836 1.79294 -2.92452
3904 21 186 1.68009 2.34759 5.03778
3969 21 231 5.4099 -0.28013 12.6823
3891 21 177 6.02129 7.08412 0.244926
3822 21 132 0.287714 11.1538 18.1232
3960 21 224 12.7919 -18.6293 -6.13366
3845 21 145 8.33114 -21.8147 13.2149
3747 21 81 16.4086 -19.9627 11.9076
3921 21 199 14.4006 -17.325 14.6084
3905 21 187 13.3925 -12.7043 -7.61444
3967 21 229 13.5248 -16.4122 5.94648
3913 21 193 10.1968 -9.25506 9.39303
3750 21 84 11.3462 -8.01786 -9.27742
3752 21 86 10.7975 -2.45942 16.2964
3726 21 68 9.09071 -0.5285 -2.03903
3816 21 126 10.4668 5.76926 -9.27889
3702 21 50 10.2913 -1.091 7.37397
3780 21 102 11.7935 6.06174 13.5617
3654 21 16 15.3823 4.18452 15.4341
3886 21 172 8.29816 -0.199764 15.8072
3948 21 216 8.51611 0.653934 12.214
3844 21 144 17.0405 12.2551 18.136
ITEM: TIMESTEP
1225000
ITEM: NUMBER OF ATOMS
59
ITEM: BOX BOUNDS pp pp pp
-1.9060453424919217e+01 1.7241433645993780e+01
-2.4284456107934258e+01 1.4057047865846851e+01
-9.4378154960386382e+00 2.0810474318455988e+01
ITEM: ATOMS id type mol x y z
3947 21 215 -13.3624 -21.4998 10.3156
3900 21 182 -18.4598 -20.2754 1.35337
3951 21 219 -16.9391 -19.5555 19.0928
3928 21 204 -16.4809 -13.09 -6.82758
3939 21 211 -16.7098 -13.5173 13.5973
3971 21 233 -14.2087 -14.9113 12.2167
3917 21 195 -13.2735 -15.5361 16.1458
3903 21 185 -16.677 -5.48391 -2.74263
3938 21 210 -15.6943 -7.58676 3.68815
3961 21 225 -14.9793 -5.00608 11.0795
3958 21 222 -12.0804 -0.998113 7.79163
3847 21 147 -10.0258 7.56768 2.21829
3764 21 94 -18.9356 7.07377 17.1997
3641 21 11 -15.7883 11.2965 17.777
3848 21 148 -2.35954 -17.8346 0.0535661
3803 21 117 -4.0378 -17.785 -8.4688
3664 21 24 -7.50235 -18.3412 -1.9517
3748 21 82 -5.10065 -20.741 -1.69804
3902 21 184 -8.89739 -13.4817 1.78908
3968 21 230 -4.51682 -9.26725 14.5392
3810 21 122 -9.48929 -14.8677 15.637
3946 21 214 -3.86258 -13.0818 10.7522
3839 21 141 -4.60099 -8.00886 2.87384
3846 21 146 -9.09585 -8.91324 19.9445
3920 21 198 -8.1967 2.09404 -8.99018
3671 21 29 -6.20311 1.56358 5.36451
3818 21 128 -9.30259 1.8739 6.22932
3760 21 92 -5.19027 -1.25986 15.7308
3881 21 169 -9.80968 10.6222 0.395208
3889 21 175 -2.14855 8.33275 13.4043
3970 21 232 -8.10336 10.2968 11.6794
3962 21 226 7.32964 -22.3792 -4.03244
3681 21 35 3.50217 -23.7973 6.6509
3933 21 207 5.39643 -23.623 19.5222
3835 21 139 0.373082 -12.3001 0.75232
3887 21 173 7.27456 -3.12837 13.9549
3949 21 217 4.46934 6.04318 -5.82009
3937 21 209 7.19708 1.76828 -2.88004
3904 21 186 1.70874 2.32094 5.04113
3969 21 231 5.47982 -0.297393 12.6461
3891 21 177 6.09798 7.04056 0.273035
3822 21 132 0.300962 11.0957 18.0589
3960 21 224 12.9435 -18.581 -6.0726
3845 21 145 8.4334 -21.7551 13.176
3747 21 81 16.6002 -19.9096 11.8755
3921 21 199 14.57 -17.2814 14.5623
3905 21 187 13.5508 -12.6772 -7.54573
3967 21 229 13.6845 -16.3718 5.94513
3913 21 193 10.3197 -9.24026 9.37388
3750 21 84 11.4818 -8.00749 -9.20012
3752 21 86 10.927 -2.4689 16.2416
3726 21 68 9.20136 -0.544876 -1.99913
3816 21 126 10.5927 5.73039 -9.20158
3702 21 50 10.4152 -1.10537 7.36525
3780 21 102 11.934 6.02182 13.521
3654 21 16 15.5626 4.15131 15.3837
3886 21 172 8.40005 -0.217314 15.755
3948 21 216 8.62041 0.633335 12.1803
3844 21 144 17.2392 12.193 18.0717
ITEM: TIMESTEP
1230000
ITEM: NUMBER OF ATOMS
60
ITEM: BOX BOUNDS pp pp pp
-1.8958921586600304e+01 1.7139901807674867e+01
-2.4253405884164494e+01 1.4025997642077087e+01
-9.5191146111856746e+00 2.0891773433561955e+01
ITEM: ATOMS id type mol x y z
3947 21 215 -13.2928 -21.4733 10.3404
3900 21 182 -18.3616 -20.2509 1.33008
3951 21 219 -16.8495 -19.5321 19.1648
3928 21 204 -16.3938 -13.0771 -6.89485
3939 21 211 -16.6215 -13.5037 13.6398
3971 21 233 -14.1343 -14.8954 12.2518
3917 21 195 -13.2044 -15.5192 16.2021
3903 21 185 -16.5888 -5.48331 -2.78794
3938 21 210 -15.6116 -7.58276 3.67741
3961 21 225 -14.9006 -5.00625 11.1085
3958 21 222 -12.0179 -1.00478 7.80295
3847 21 147 -9.97485 7.54714 2.19964
3764 21 94 -18.8347 7.05403 17.2616
3641 21 11 -15.7051 11.2699 17.842
3848 21 148 -2.35143 -17.814 0.0232875
3803 21 117 -4.0203 -17.7645 -8.54489
3664 21 24 -7.46547 -18.3197 -1.99276
3748 21 82 -5.0772 -20.7157 -1.73773
3902 21 184 -8.85271 -13.4682 1.76813
3968 21 230 -4.49664 -9.26052 14.5868
3810 21 122 -9.44129 -14.8519 15.6905
3946 21 214 -3.84606 -13.0689 10.7794
3839 21 141 -4.58034 -8.00417 2.85872
3846 21 146 -9.05005 -8.90709 20.0212
3920 21 198 -8.15593 2.08237 -9.06907
3671 21 29 -6.1735 1.55277 5.36278
3818 21 128 -9.25564 1.86259 6.23223
3760 21 92 -5.16632 -1.2661 15.7848
3881 21 169 -9.7599 10.5967 0.366766
3889 21 175 -2.14162 8.31097 13.4458
3972 21 234 -2.23381 11.3036 12.3696
3970 21 232 -8.06312 10.2718 11.7116
3962 21 226 7.28355 -22.3512 -4.08468
3681 21 35 3.47749 -23.7671 6.65608
3933 21 207 5.36116 -23.593 19.5966
3835 21 139 0.365907 -12.2885 0.725798
3887 21 173 7.22878 -3.13158 13.9994
3949 21 217 4.43925 6.02511 -5.88195
3937 21 209 7.15174 1.75713 -2.92609
3904 21 186 1.69409 2.3089 5.03766
3969 21 231 5.44408 -0.305194 12.6836
3891 21 177 6.05878 7.02087 0.243936
3822 21 132 0.294191 11.0695 18.1254
3960 21 224 12.866 -18.5592 -6.13581
3845 21 145 8.38113 -21.7281 13.2163
3747 21 81 16.5022 -19.8857 11.9088
3921 21 199 14.4834 -17.2617 14.6101
3905 21 187 13.4699 -12.6649 -7.61686
3967 21 229 13.6028 -16.3536 5.94653
3913 21 193 10.2569 -9.23358 9.3937
3750 21 84 11.4125 -8.00281 -9.28014
3752 21 86 10.8608 -2.47319 16.2983
3726 21 68 9.14481 -0.552276 -2.04044
3816 21 126 10.5284 5.71282 -9.28161
3702 21 50 10.3519 -1.11186 7.37428
3780 21 102 11.8622 6.00379 13.5631
3654 21 16 15.4705 4.13631 15.4359
3886 21 172 8.34797 -0.225244 15.8091
3948 21 216 8.5671 0.624026 12.2152
3844 21 144 17.1376 12.165 18.1382
ITEM: TIMESTEP
1235000
ITEM: NUMBER OF ATOMS
60
ITEM: BOX BOUNDS pp pp pp
-1.8683109928026610e+01 1.6864090149101173e+01
-2.4324492869174978e+01 1.4097084627087572e+01
-9.6912832715758270e+00 2.1063942093884691e+01
ITEM: ATOMS id type mol x y z
3947 21 215 -13.1035 -21.534 10.3931
3900 21 182 -18.0949 -20.3071 1.28075
3951 21 219 -16.6059 -19.5856 19.3175
3928 21 204 -16.1572 -13.1067 -7.03731
3939 21 211 -16.3814 -13.5349 13.7299
3971 21 233 -13.9323 -14.9318 12.3261
3917 21 195 -13.0165 -15.5579 16.3211
3903 21 185 -16.3492 -5.48468 -2.8839
3938 21 210 -15.387 -7.59193 3.65467
3961 21 225 -14.6868 -5.00585 11.1699
3958 21 222 -11.8482 -0.989518 7.82691
3847 21 147 -9.83632 7.59416 2.16016
3764 21 94 -18.5608 7.09922 17.3926
3641 21 11 -15.479 11.3307 17.9796
3848 21 148 -2.32939 -17.8611 -0.0408342
3803 21 117 -3.97276 -17.8115 -8.70603
3664 21 24 -7.36529 -18.3688 -2.07971
3748 21 82 -5.01352 -20.7737 -1.82179
3902 21 184 -8.73133 -13.4992 1.72376
3968 21 230 -4.44183 -9.27593 14.6876
3810 21 122 -9.31092 -14.8881 15.8038
3946 21 214 -3.80119 -13.0985 10.8371
3839 21 141 -4.52424 -8.01491 2.8267
3846 21 146 -8.92566 -8.92118 20.1835
3920 21 198 -8.0452 2.10909 -9.23615
3671 21 29 -6.09306 1.57753 5.35912
3818 21 128 -9.12811 1.8885 6.23842
3760 21 92 -5.10127 -1.25181 15.8992
3881 21 169 -9.62465 10.655 0.306534
3889 21 175 -2.12279 8.36084 13.5337
3972 21 234 -2.21357 11.3646 12.4453
3970 21 232 -7.9538 10.329 11.7799
3962 21 226 7.15835 -22.4152 -4.19532
3681 21 35 3.41045 -23.8363 6.66706
3933 21 207 5.26534 -23.6616 19.7541
3835 21 139 0.346418 -12.3151 0.66963
3887 21 173 7.10442 -3.12422 14.0935
3949 21 217 4.35751 6.06648 -6.01293
3937 21 209 7.02855 1.78265 -3.0236
3904 21 186 1.65431 2.33647 5.03032
3969 21 231 5.347 -0.287335 12.7628
3891 21 177 5.9523 7.06594 0.182313
3822 21 132 0.275797 11.1296 18.2663
3960 21 224 12.6555 -18.6091 -6.26967
3845 21 145 8.23916 -21.7898 13.3015
3747 21 81 16.2362 -19.9405 11.9792
3921 21 199 14.2482 -17.3068 14.7111
3905 21 187 13.2502 -12.6929 -7.76749
3967 21 229 13.3811 -16.3953 5.94947
3913 21 193 10.0863 -9.24888 9.43568
3750 21 84 11.2242 -8.01354 -9.44961
3752 21 86 10.681 -2.46338 16.4185
3726 21 68 8.99117 -0.535335 -2.12793
3816 21 126 10.3536 5.75303 -9.45109
3702 21 50 10.1798 -1.09699 7.39339
3780 21 102 11.667 6.04508 13.6523
3654 21 16 15.2202 4.17066 15.5463
3886 21 172 8.20651 -0.207088 15.9237
3948 21 216 8.42229 0.645337 12.2891
3844 21 144 16.8619 12.2292 18.2792
ITEM: TIMESTEP
1240000
ITEM: NUMBER OF ATOMS
59
ITEM: BOX BOUNDS pp pp pp
-1.8838714986334487e+01 1.7019695207409050e+01
-2.4415869826725761e+01 1.4188461584638354e+01
-9.6287278539517338e+00 2.1001386676261117e+01
ITEM: ATOMS id type mol x y z
3947 21 215 -13.2103 -21.6121 10.374
3900 21 182 -18.2454 -20.3794 1.29867
3951 21 219 -16.7433 -19.6545 19.262
3928 21 204 -16.2906 -13.1447 -6.98555
3939 21 211 -16.5168 -13.575 13.6972
3971 21 233 -14.0463 -14.9785 12.2991
3917 21 195 -13.1225 -15.6075 16.2779
3903 21 185 -16.4844 -5.48645 -2.84903
3938 21 210 -15.5137 -7.60372 3.66293
3961 21 225 -14.8074 -5.00534 11.1476
3958 21 222 -11.944 -0.969901 7.81821
3847 21 147 -9.91448 7.65461 2.17451
3764 21 94 -18.7154 7.15732 17.345
3641 21 11 -15.6066 11.409 17.9296
3848 21 148 -2.34182 -17.9218 -0.0175364
3803 21 117 -3.99958 -17.8719 -8.64748
3664 21 24 -7.42181 -18.4318 -2.04812
3748 21 82 -5.04945 -20.8482 -1.79125
3902 21 184 -8.79981 -13.5391 1.73988
3968 21 230 -4.47275 -9.29572 14.6509
3810 21 122 -9.38447 -14.9346 15.7626
3946 21 214 -3.8265 -13.1365 10.8161
3839 21 141 -4.55589 -8.02871 2.83834
3846 21 146 -8.99584 -8.93929 20.1245
3920 21 198 -8.10767 2.14345 -9.17544
3671 21 29 -6.13845 1.60936 5.36045
3818 21 128 -9.20006 1.9218 6.23617
3760 21 92 -5.13797 -1.23344 15.8576
3881 21 169 -9.70095 10.73 0.328419
3889 21 175 -2.13341 8.42493 13.5018
3972 21 234 -2.22499 11.443 12.4178
3970 21 232 -8.01547 10.4024 11.7551
3962 21 226 7.22899 -22.4975 -4.15512
3681 21 35 3.44827 -23.9254 6.66307
3933 21 207 5.3194 -23.7499 19.6968
3835 21 139 0.357413 -12.3494 0.690038
3887 21 173 7.17458 -3.11476 14.0593
3949 21 217 4.40363 6.11966 -5.96534
3904 21 186 1.67675 2.37191 5.03298
3969 21 231 5.40177 -0.264378 12.734
3891 21 177 6.01237 7.12387 0.204703
3822 21 132 0.286175 11.2069 18.2151
3960 21 224 12.7743 -18.6733 -6.22103
3845 21 145 8.31926 -21.8692 13.2705
3747 21 81 16.3863 -20.0111 11.9536
3921 21 199 14.3809 -17.3648 14.6744
3905 21 187 13.3741 -12.729 -7.71276
3967 21 229 13.5062 -16.449 5.9484
3913 21 193 10.1825 -9.26855 9.42043
3750 21 84 11.3304 -8.02733 -9.38804
3752 21 86 10.7824 -2.45077 16.3748
3726 21 68 9.07785 -0.513557 -2.09614
3816 21 126 10.4522 5.80472 -9.38951
3702 21 50 10.2769 -1.07789 7.38645
3780 21 102 11.7771 6.09816 13.6199
3654 21 16 15.3614 4.21482 15.5061
3886 21 172 8.28632 -0.18375 15.8821
3948 21 216 8.50399 0.67273 12.2623
3844 21 144 17.0175 12.3117 18.228
ITEM: TIMESTEP
1245000
ITEM: NUMBER OF ATOMS
59
ITEM: BOX BOUNDS pp pp pp
-1.8961817861191804e+01 1.7142798082266367e+01
-2.4376927107280693e+01 1.4149518865193286e+01
-9.4533030495535151e+00 2.0825961871895913e+01
ITEM: ATOMS id type mol x y z
3947 21 215 -13.2947 -21.5788 10.3203
3900 21 182 -18.3644 -20.3486 1.34893
3951 21 219 -16.852 -19.6251 19.1065
3928 21 204 -16.3963 -13.1285 -6.8404
3939 21 211 -16.624 -13.5579 13.6054
3971 21 233 -14.1365 -14.9586 12.2234
3917 21 195 -13.2063 -15.5864 16.1565
3903 21 185 -16.5913 -5.48569 -2.75127
3938 21 210 -15.614 -7.59869 3.68611
3958 21 222 -12.0197 -0.978261 7.79379
3847 21 147 -9.97631 7.62885 2.21473
3764 21 94 -18.8376 7.13256 17.2115
3641 21 11 -15.7075 11.3756 17.7894
3848 21 148 -2.35166 -17.8959 0.047798
3803 21 117 -4.0208 -17.8461 -8.4833
3664 21 24 -7.46652 -18.405 -1.95952
3748 21 82 -5.07787 -20.8164 -1.7056
3902 21 184 -8.85398 -13.5221 1.78509
3968 21 230 -4.49722 -9.28729 14.5483
3810 21 122 -9.44266 -14.9148 15.6472
3946 21 214 -3.84653 -13.1203 10.7574
3839 21 141 -4.58093 -8.02283 2.87096
3846 21 146 -9.05136 -8.93157 19.9591
3920 21 198 -8.1571 2.12881 -9.00521
3671 21 29 -6.17435 1.59579 5.36418
3818 21 128 -9.25698 1.90761 6.22987
3760 21 92 -5.167 -1.24127 15.7411
3881 21 169 -9.76132 10.6981 0.38979
3889 21 175 -2.14182 8.39761 13.4122
3972 21 234 -2.23402 11.4096 12.3407
3970 21 232 -8.06426 10.3711 11.6856
3962 21 226 7.28486 -22.4625 -4.04239
3681 21 35 3.47819 -23.8875 6.65188
3933 21 207 5.36217 -23.7123 19.5364
3835 21 139 0.366112 -12.3348 0.747268
3887 21 173 7.23009 -3.11879 13.9634
3949 21 217 4.44011 6.09699 -5.83188
3904 21 186 1.69451 2.35681 5.04047
3969 21 231 5.4451 -0.274162 12.6533
3891 21 177 6.0599 7.09918 0.267491
3822 21 132 0.294384 11.1739 18.0716
3960 21 224 12.8682 -18.646 -6.08464
3973 21 235 17.0977 -24.2118 -8.76705
3845 21 145 8.38262 -21.8354 13.1837
3747 21 81 16.505 -19.981 11.8818
3921 21 199 14.4859 -17.3401 14.5714
3905 21 187 13.4722 -12.7136 -7.55928
3967 21 229 13.6052 -16.4261 5.9454
3913 21 193 10.2587 -9.26017 9.37766
3750 21 84 11.4145 -8.02145 -9.21537
3752 21 86 10.8627 -2.45615 16.2524
3726 21 68 9.14642 -0.522838 -2.007
3816 21 126 10.5302 5.78269 -9.21682
3702 21 50 10.3537 -1.08603 7.36697
3780 21 102 11.8642 6.07554 13.529
3654 21 16 15.4731 4.196 15.3937
3886 21 172 8.34946 -0.193696 15.7653
3948 21 216 8.56862 0.661056 12.1869
3844 21 144 17.1405 12.2765 18.0843
ITEM: TIMESTEP
1250000
ITEM: NUMBER OF ATOMS
59
ITEM: BOX BOUNDS pp pp pp
-1.8877453031789646e+01 1.7058433252864209e+01
-2.4149589914858275e+01 1.3922181672770868e+01
-9.6910926522261960e+00 2.1063751474481212e+01
ITEM: ATOMS id type mol x y z
3947 21 215 -13.2369 -21.3845 10.3931
3900 21 182 -18.2828 -20.1688 1.28081
3951 21 219 -16.7775 -19.4539 19.3173
3928 21 204 -16.3239 -13.0339 -7.03715
3939 21 211 -16.5505 -13.4582 13.7298
3971 21 233 -14.0746 -14.8424 12.3261
3917 21 195 -13.1489 -15.4628 16.321
3903 21 185 -16.518 -5.4813 -2.88379
3938 21 210 -15.5453 -7.56937 3.65469
3958 21 222 -11.9678 -1.02707 7.82689
3847 21 147 -9.93393 7.47847 2.16021
3764 21 94 -18.7538 6.98803 17.3925
3641 21 11 -15.6383 11.181 17.9795
3848 21 148 -2.34492 -17.7451 -0.0407632
3803 21 117 -4.00626 -17.6959 -8.70585
3664 21 24 -7.43588 -18.2481 -2.07961
3748 21 82 -5.05839 -20.6311 -1.8217
3902 21 184 -8.81686 -13.4229 1.72381
3968 21 230 -4.48045 -9.23803 14.6874
3810 21 122 -9.40279 -14.7991 15.8036
3946 21 214 -3.83281 -13.0258 10.837
3839 21 141 -4.56377 -7.9885 2.82674
3846 21 146 -9.01331 -8.88651 20.1833
3920 21 198 -8.12323 2.04333 -9.23596
3671 21 29 -6.14974 1.51661 5.35912
3818 21 128 -9.21797 1.82475 6.23841
3760 21 92 -5.14711 -1.28697 15.8991
3881 21 169 -9.71995 10.5115 0.306601
3889 21 175 -2.13606 8.23816 13.5336
3972 21 234 -2.22783 11.2146 12.4452
3970 21 232 -8.03083 10.1884 11.7798
3962 21 226 7.24657 -22.2577 -4.19519
3681 21 35 3.45769 -23.6659 6.66705
3933 21 207 5.33286 -23.4928 19.7539
3835 21 139 0.36015 -12.2496 0.669693
3887 21 173 7.19205 -3.14233 14.0934
3949 21 217 4.41511 5.96469 -6.01279
3904 21 186 1.68234 2.26864 5.03032
3969 21 231 5.41541 -0.331276 12.7627
3891 21 177 6.02733 6.95505 0.182381
3822 21 132 0.288758 10.9817 18.2661
3960 21 224 12.8038 -18.4863 -6.26952
3973 21 235 17.0135 -23.9864 -8.99406
3845 21 145 8.3392 -21.638 13.3014
3747 21 81 16.4236 -19.8055 11.9791
3921 21 199 14.4139 -17.1958 14.711
3905 21 187 13.405 -12.6239 -7.76732
3967 21 229 13.5373 -16.2926 5.94947
3913 21 193 10.2065 -9.21123 9.43563
3750 21 84 11.3569 -7.98713 -9.44942
3752 21 86 10.8077 -2.48751 16.4183
3726 21 68 9.09942 -0.577018 -2.12783
3816 21 126 10.4767 5.6541 -9.4509
3702 21 50 10.301 -1.13356 7.39337
3780 21 102 11.8046 5.94349 13.6522
3654 21 16 15.3965 4.08613 15.5461
3886 21 172 8.30619 -0.25176 15.9236
3948 21 216 8.52433 0.592904 12.289
3844 21 144 17.0562 12.0713 18.2791
ITEM: TIMESTEP
1255000
ITEM: NUMBER OF ATOMS
58
ITEM: BOX BOUNDS pp pp pp
-1.8998455135704390e+01 1.7179435356778953e+01
-2.4277291612791370e+01 1.4049883370703963e+01
-9.4039607606275446e+00 2.0776619582949007e+01
ITEM: ATOMS id type mol x y z
3947 21 215 -13.3199 -21.4937 10.3052
3900 21 182 -18.3998 -20.2698 1.36307
3951 21 219 -16.8844 -19.5501 19.0628
3928 21 204 -16.4277 -13.087 -6.79957
3939 21 211 -16.6559 -13.5142 13.5796
3971 21 233 -14.1633 -14.9077 12.2021
3917 21 195 -13.2313 -15.5322 16.1224
3903 21 185 -16.6231 -5.48377 -2.72377
3938 21 210 -15.6438 -7.58584 3.69263
3958 21 222 -12.0423 -0.999651 7.78692
3847 21 147 -9.99471 7.56294 2.22605
3764 21 94 -18.874 7.06922 17.1739
3641 21 11 -15.7375 11.2903 17.7499
3848 21 148 -2.35458 -17.8298 0.0661748
3803 21 117 -4.02711 -17.7803 -8.43711
3664 21 24 -7.47983 -18.3362 -1.9346
3748 21 82 -5.08633 -20.7352 -1.68151
3902 21 184 -8.87011 -13.4786 1.7978
3968 21 230 -4.5045 -9.2657 14.5194
3810 21 122 -9.45998 -14.8641 15.6147
3946 21 214 -3.85249 -13.0789 10.7408
3839 21 141 -4.58838 -8.00778 2.88013
3846 21 146 -9.06788 -8.91182 19.9126
3920 21 198 -8.17181 2.09135 -8.95733
3671 21 29 -6.18503 1.56109 5.36523
3818 21 128 -9.27392 1.87129 6.2281
3760 21 92 -5.17565 -1.2613 15.7084
3881 21 169 -9.77928 10.6163 0.407052
3889 21 175 -2.14432 8.32773 13.3871
3972 21 234 -2.23671 11.3241 12.319
3970 21 232 -8.07879 10.291 11.666
3962 21 226 7.3015 -22.3727 -4.01068
3681 21 35 3.4871 -23.7903 6.64874
3933 21 207 5.37489 -23.6161 19.4912
3835 21 139 0.368701 -12.2974 0.763365
3887 21 173 7.24661 -3.12911 13.9364
3949 21 217 4.45096 6.03901 -5.79434
3904 21 186 1.6998 2.31817 5.04257
3822 21 132 0.296828 11.0897 18.0312
3960 21 224 12.8962 -18.576 -6.04628
3973 21 235 17.1342 -24.113 -8.71995
3845 21 145 8.40148 -21.7489 13.1592
3747 21 81 16.5404 -19.9041 11.8616
3921 21 199 14.5171 -17.2768 14.5425
3974 21 236 13.7208 -15.413 -6.54468
3905 21 187 13.5014 -12.6743 -7.51611
3967 21 229 13.6346 -16.3676 5.94455
3913 21 193 10.2814 -9.23872 9.36563
3750 21 84 11.4395 -8.00641 -9.1668
3752 21 86 10.8866 -2.46989 16.218
3726 21 68 9.16683 -0.546584 -1.98192
3816 21 126 10.5534 5.72633 -9.16825
3702 21 50 10.3765 -1.10686 7.3615
3780 21 102 11.8902 6.01766 13.5035
3654 21 16 15.5063 4.14785 15.362
3886 21 172 8.36825 -0.219144 15.7324
3948 21 216 8.58786 0.631187 12.1658
3844 21 144 17.1772 12.1866 18.0439
ITEM: TIMESTEP
1260000
ITEM: NUMBER OF ATOMS
57
ITEM: BOX BOUNDS pp pp pp
-1.8832678762469687e+01 1.7013658983544250e+01
-2.4230038933786801e+01 1.4002630691699395e+01
-9.5780841944826065e+00 2.0950743016734723e+01
ITEM: ATOMS id type mol x y z
3947 21 215 -13.2061 -21.4533 10.3585
3900 21 182 -18.2395 -20.2324 1.31318
3951 21 219 -16.738 -19.5145 19.2171
3928 21 204 -16.2855 -13.0674 -6.94364
3939 21 211 -16.5116 -13.4935 13.6707
3971 21 233 -14.0418 -14.8835 12.2773
3917 21 195 -13.1184 -15.5065 16.2428
3903 21 185 -16.4791 -5.48286 -2.82081
3938 21 210 -15.5088 -7.57974 3.66962
3958 21 222 -11.9402 -1.0098 7.81116
3847 21 147 -9.91145 7.53168 2.18612
3764 21 94 -18.7094 7.03918 17.3065
3641 21 11 -15.6016 11.2499 17.8891
3848 21 148 -2.34134 -17.7984 0.00132512
3803 21 117 -3.99854 -17.749 -8.60008
3664 21 24 -7.41962 -18.3036 -2.02254
3748 21 82 -5.04805 -20.6967 -1.76652
3902 21 184 -8.79715 -13.458 1.75293
3968 21 230 -4.47155 -9.25546 14.6213
3810 21 122 -9.38162 -14.84 15.7293
3946 21 214 -3.82552 -13.0592 10.7992
3839 21 141 -4.55466 -8.00064 2.84775
3846 21 146 -8.99312 -8.90246 20.0767
3920 21 198 -8.10525 2.07358 -9.1263
3671 21 29 -6.13668 1.54463 5.36153
3818 21 128 -9.19727 1.85407 6.23435
3760 21 92 -5.13655 -1.2708 15.824
3881 21 169 -9.69799 10.5775 0.346136
3972 21 234 -2.22455 11.2836 12.3955
3970 21 232 -8.01308 10.2531 11.735
3962 21 226 7.22625 -22.3302 -4.12257
3681 21 35 3.44681 -23.7443 6.65984
3933 21 207 5.3173 -23.5704 19.6505
3835 21 139 0.356987 -12.2797 0.70656
3887 21 173 7.17186 -3.134 14.0316
3949 21 217 4.40184 6.01151 -5.92681
3904 21 186 1.67588 2.29984 5.03514
3822 21 132 0.285772 11.0497 18.1737
3960 21 224 12.7697 -18.5428 -6.18166
3973 21 235 16.9689 -24.0662 -8.88618
3845 21 145 8.31615 -21.7079 13.2455
3747 21 81 16.3805 -19.8676 11.9329
3921 21 199 14.3757 -17.2469 14.6447
3974 21 236 13.5867 -15.3877 -6.68581
3905 21 187 13.3693 -12.6557 -7.66845
3967 21 229 13.5013 -16.3399 5.94753
3913 21 193 10.1788 -9.22855 9.40808
3750 21 84 11.3263 -7.99928 -9.33819
3752 21 86 10.7785 -2.47641 16.3395
3726 21 68 9.07448 -0.557845 -2.07041
3816 21 126 10.4484 5.69961 -9.33966
3702 21 50 10.2731 -1.11674 7.38083
3780 21 102 11.7729 5.99021 13.5937
3654 21 16 15.3559 4.12501 15.4737
3886 21 172 8.28322 -0.231213 15.8483
3948 21 216 8.50082 0.617021 12.2405
3844 21 144 17.0114 12.1439 18.1865
ITEM: TIMESTEP
1265000
ITEM: NUMBER OF ATOMS
56
ITEM: BOX BOUNDS pp pp pp
-1.8818148107251346e+01 1.6999128328325909e+01
-2.4313114689546953e+01 1.4085706447459547e+01
-9.4644919738324731e+00 2.0837150796100314e+01
ITEM: ATOMS id type mol x y z
3947 21 215 -13.1962 -21.5243 10.3237
3900 21 182 -18.2255 -20.2981 1.34573
3951 21 219 -16.7252 -19.5771 19.1164
3928 21 204 -16.273 -13.1019 -6.84966
3939 21 211 -16.4989 -13.5299 13.6113
3971 21 233 -14.0312 -14.926 12.2282
3917 21 195 -13.1085 -15.5517 16.1643
3903 21 185 -16.4665 -5.48446 -2.7575
3938 21 210 -15.497 -7.59046 3.68463
3958 21 222 -11.9313 -0.99196 7.79534
3847 21 147 -9.90415 7.58664 2.21217
3764 21 94 -18.6949 7.09199 17.22
3641 21 11 -15.5897 11.321 17.7983
3848 21 148 -2.34018 -17.8536 0.0436309
3803 21 117 -3.99604 -17.804 -8.49377
3664 21 24 -7.41434 -18.3609 -1.96517
3748 21 82 -5.0447 -20.7644 -1.71106
3902 21 184 -8.79076 -13.4942 1.7822
3968 21 230 -4.46867 -9.27346 14.5548
3810 21 122 -9.37475 -14.8823 15.6545
3946 21 214 -3.82316 -13.0938 10.7611
3839 21 141 -4.55171 -8.01319 2.86888
3846 21 146 -8.98656 -8.91892 19.9697
3920 21 198 -8.09942 2.10481 -9.01607
3671 21 29 -6.13245 1.57357 5.36395
3818 21 128 -9.19055 1.88435 6.23027
3760 21 92 -5.13312 -1.2541 15.7486
3881 21 169 -9.69087 10.6457 0.385876
3972 21 234 -2.22348 11.3549 12.3456
3970 21 232 -8.00732 10.3198 11.69
3962 21 226 7.21965 -22.405 -4.04958
3681 21 35 3.44327 -23.8253 6.6526
3933 21 207 5.31225 -23.6507 19.5466
3835 21 139 0.35596 -12.3109 0.743617
3887 21 173 7.16531 -3.1254 13.9695
3949 21 217 4.39753 6.05986 -5.84039
3904 21 186 1.67379 2.33206 5.03999
3822 21 132 0.284803 11.12 18.0807
3960 21 224 12.7586 -18.6011 -6.09334
3973 21 235 16.9544 -24.1486 -8.77774
3845 21 145 8.30867 -21.78 13.1892
3747 21 81 16.3664 -19.9317 11.8864
3921 21 199 14.3634 -17.2996 14.578
3905 21 187 13.3577 -12.6885 -7.56907
3967 21 229 13.4897 -16.3886 5.94559
3913 21 193 10.1698 -9.24643 9.38038
3750 21 84 11.3164 -8.01182 -9.22638
3752 21 86 10.769 -2.46495 16.2602
3726 21 68 9.06639 -0.538046 -2.01268
3816 21 126 10.4392 5.7466 -9.22784
3702 21 50 10.264 -1.09937 7.36822
3780 21 102 11.7626 6.03847 13.5348
3654 21 16 15.3427 4.16516 15.4008
3886 21 172 8.27577 -0.209994 15.7727
3948 21 216 8.49319 0.641926 12.1917
3844 21 144 16.9969 12.2189 18.0935
ITEM: TIMESTEP
1270000
ITEM: NUMBER OF ATOMS
55
ITEM: BOX BOUNDS pp pp pp
-1.9052106393674958e+01 1.7233086614749521e+01
-2.4224322375760739e+01 1.3996914133673332e+01
-9.4498945964609078e+00 2.0822553418715437e+01
ITEM: ATOMS id type mol x y z
3947 21 215 -13.3567 -21.4484 10.3193
3900 21 182 -18.4517 -20.2279 1.34991
3951 21 219 -16.9318 -19.5102 19.1035
3928 21 204 -16.4737 -13.065 -6.83758
3939 21 211 -16.7026 -13.491 13.6036
3917 21 195 -13.2678 -15.5034 16.1542
3903 21 185 -16.6697 -5.48275 -2.74937
3938 21 210 -15.6875 -7.57901 3.68656
3958 21 222 -12.0753 -1.01102 7.79331
3847 21 147 -10.0217 7.5279 2.21552
3764 21 94 -18.9273 7.03554 17.2089
3641 21 11 -15.7815 11.245 17.7867
3848 21 148 -2.35887 -17.7947 0.0490674
3803 21 117 -4.03636 -17.7453 -8.48011
3664 21 24 -7.49932 -18.2997 -1.9578
3748 21 82 -5.09872 -20.692 -1.70393
3902 21 184 -8.89372 -13.4555 1.78596
3968 21 230 -4.51516 -9.25422 14.5463
3810 21 122 -9.48534 -14.8371 15.6449
3946 21 214 -3.86122 -13.0568 10.7562
3839 21 141 -4.59929 -7.99978 2.87159
3846 21 146 -9.09208 -8.90133 19.9559
3920 21 198 -8.19335 2.07143 -9.0019
3671 21 29 -6.20068 1.54264 5.36426
3818 21 128 -9.29873 1.85198 6.22975
3760 21 92 -5.1883 -1.27195 15.7389
3881 21 169 -9.80559 10.5728 0.390983
3972 21 234 -2.24065 11.2787 12.3392
3970 21 232 -8.10005 10.2485 11.6842
3962 21 226 7.32585 -22.325 -4.0402
3681 21 35 3.50014 -23.7387 6.65167
3933 21 207 5.39353 -23.5649 19.5332
3835 21 139 0.372492 -12.2776 0.74838
3887 21 173 7.2708 -3.13459 13.9615
3949 21 217 4.46686 6.00818 -5.82928
3904 21 186 1.70754 2.29762 5.04061
3822 21 132 0.300406 11.0449 18.0688
3960 21 224 12.9371 -18.5388 -6.08199
3973 21 235 17.1878 -24.0605 -8.7638
3845 21 145 8.4291 -21.7029 13.182
3747 21 81 16.5921 -19.8632 11.8804
3921 21 199 14.5629 -17.2432 14.5694
3905 21 187 13.5441 -12.6534 -7.5563
3967 21 229 13.6778 -16.3365 5.94534
3913 21 193 10.3146 -9.22732 9.37683
3750 21 84 11.4761 -7.99842 -9.21201
3752 21 86 10.9216 -2.4772 16.25
3726 21 68 9.19671 -0.559207 -2.00527
3816 21 126 10.5874 5.69637 -9.21347
3702 21 50 10.41 -1.11794 7.3666
3780 21 102 11.9281 5.98689 13.5273
3654 21 16 15.555 4.12225 15.3915
3886 21 172 8.39577 -0.232673 15.763
3948 21 216 8.61603 0.615308 12.1855
3844 21 144 17.2308 12.1387 18.0816
ITEM: TIMESTEP
1275000
ITEM: NUMBER OF ATOMS
56
ITEM: BOX BOUNDS pp pp pp
-1.9052468267559544e+01 1.7233448488634107e+01
-2.4164322263952503e+01 1.3936914021865096e+01
-9.3798190110312696e+00 2.0752477833288975e+01
ITEM: ATOMS id type mol x y z
3974 21 236 -10.2503 -23.3377 9.58407
3947 21 215 -13.3569 -21.3971 10.2978
3951 21 219 -16.9321 -19.465 19.0414
3928 21 204 -16.474 -13.04 -6.7796
3939 21 211 -16.7029 -13.4647 13.567
3917 21 195 -13.2681 -15.4708 16.1057
3903 21 185 -16.6701 -5.48159 -2.71031
3938 21 210 -15.6878 -7.57127 3.69582
3958 21 222 -12.0755 -1.0239 7.78356
3847 21 147 -10.0218 7.48821 2.23158
3764 21 94 -18.9276 6.9974 17.1555
3641 21 11 -15.7818 11.1936 17.7306
3848 21 148 -2.3589 -17.7548 0.075166
3803 21 117 -4.03642 -17.7056 -8.41452
3664 21 24 -7.49945 -18.2583 -1.92241
3748 21 82 -5.0988 -20.6431 -1.66972
3902 21 184 -8.89388 -13.4293 1.80402
3968 21 230 -4.51523 -9.24122 14.5052
3810 21 122 -9.48551 -14.8066 15.5988
3946 21 214 -3.86128 -13.0319 10.7328
3839 21 141 -4.59936 -7.99072 2.88462
3846 21 146 -9.09224 -8.88943 19.8898
3975 21 237 -1.88693 5.43371 -5.91271
3920 21 198 -8.19349 2.04887 -8.9339
3671 21 29 -6.20079 1.52174 5.36575
3818 21 128 -9.2989 1.83012 6.22723
3760 21 92 -5.18838 -1.28401 15.6923
3881 21 169 -9.80577 10.5236 0.415498
3972 21 234 -2.24067 11.2272 12.3084
3970 21 232 -8.10019 10.2002 11.6564
3962 21 226 7.32601 -22.271 -3.99517
3681 21 35 3.50023 -23.6802 6.6472
3933 21 207 5.39366 -23.507 19.4691
3835 21 139 0.372517 -12.2551 0.771241
3887 21 173 7.27096 -3.14081 13.9232
3949 21 217 4.46697 5.97326 -5.77597
3904 21 186 1.70759 2.27436 5.0436
3822 21 132 0.30043 10.9942 18.0115
3960 21 224 12.9374 -18.4966 -6.02751
3973 21 235 17.1881 -24.001 -8.6969
3845 21 145 8.42929 -21.6508 13.1473
3747 21 81 16.5925 -19.8169 11.8518
3921 21 199 14.5632 -17.2051 14.5283
3905 21 187 13.5444 -12.6298 -7.49499
3967 21 229 13.6781 -16.3013 5.94414
3913 21 193 10.3148 -9.21441 9.35974
3750 21 84 11.4764 -7.98936 -9.14304
3752 21 86 10.9218 -2.48548 16.2011
3726 21 68 9.19692 -0.573507 -1.96966
3816 21 126 10.5877 5.66243 -9.14449
3702 21 50 10.4102 -1.13048 7.35882
3780 21 102 11.9284 5.95204 13.491
3654 21 16 15.5554 4.09325 15.3465
3886 21 172 8.39595 -0.247997 15.7164
3948 21 216 8.61622 0.597321 12.1554
3844 21 144 17.2312 12.0846 18.0242
ITEM: TIMESTEP
1280000
ITEM: NUMBER OF ATOMS
56
ITEM: BOX BOUNDS pp pp pp
-1.8853819068867260e+01 1.7034799289941823e+01
-2.4252189240077271e+01 1.4024780997989865e+01
-9.6073235236830463e+00 2.0979982345854950e+01
ITEM: ATOMS id type mol x y z
3974 21 236 -10.148 -23.4218 9.64293
3947 21 215 -13.2206 -21.4722 10.3674
3951 21 219 -16.7567 -19.5312 19.243
3928 21 204 -16.3036 -13.0766 -6.96784
3939 21 211 -16.53 -13.5032 13.686
3917 21 195 -13.1328 -15.5185 16.2631
3903 21 185 -16.4975 -5.48328 -2.8371
3938 21 210 -15.526 -7.5826 3.66576
3958 21 222 -11.9532 -1.00504 7.81523
3847 21 147 -9.92206 7.54634 2.17942
3764 21 94 -18.7304 7.05326 17.3287
3641 21 11 -15.6189 11.2688 17.9125
3848 21 148 -2.34303 -17.8131 -0.00956463
3803 21 117 -4.00218 -17.7637 -8.62745
3664 21 24 -7.4273 -18.3189 -2.03731
3748 21 82 -5.05294 -20.7147 -1.7808
3902 21 184 -8.80645 -13.4677 1.7454
3968 21 230 -4.47575 -9.26026 14.6384
3810 21 122 -9.39161 -14.8513 15.7485
3946 21 214 -3.82896 -13.0684 10.809
3839 21 141 -4.55896 -8.00399 2.84232
3846 21 146 -9.00265 -8.90685 20.1043
3975 21 237 -1.87623 5.48236 -6.08786
3920 21 198 -8.11374 2.08191 -9.15467
3671 21 29 -6.14285 1.55234 5.36091
3818 21 128 -9.20704 1.86214 6.2354
3760 21 92 -5.14153 -1.26635 15.8434
3881 21 169 -9.70836 10.5957 0.335907
3972 21 234 -2.2261 11.3026 12.4084
3970 21 232 -8.02146 10.2709 11.7466
3962 21 226 7.23584 -22.3501 -4.14136
3681 21 35 3.45194 -23.7659 6.66171
3933 21 207 5.32464 -23.5918 19.6773
3835 21 139 0.35848 -12.288 0.697021
3887 21 173 7.18139 -3.13171 14.0476
3949 21 217 4.4081 6.0244 -5.94906
3904 21 186 1.67893 2.30843 5.0339
3822 21 132 0.287182 11.0685 18.1976
3960 21 224 12.7858 -18.5583 -6.20439
3973 21 235 16.99 -24.0882 -8.91409
3845 21 145 8.32703 -21.7271 13.2599
3747 21 81 16.4008 -19.8847 11.9449
3921 21 199 14.3938 -17.2609 14.6618
3905 21 187 13.3862 -12.6644 -7.69403
3967 21 229 13.5183 -16.3529 5.94803
3913 21 193 10.1919 -9.23332 9.41521
3750 21 84 11.3408 -8.00262 -9.36697
3752 21 86 10.7923 -2.47335 16.3599
3726 21 68 9.08626 -0.552566 -2.08526
3816 21 126 10.4618 5.71213 -9.36844
3702 21 50 10.2863 -1.11211 7.38407
3780 21 102 11.7878 6.00308 13.6088
3654 21 16 15.3751 4.13572 15.4924
3886 21 172 8.29407 -0.225555 15.8678
3948 21 216 8.51192 0.623662 12.2531
3844 21 144 17.0326 12.1639 18.2105
ITEM: TIMESTEP
1285000
ITEM: NUMBER OF ATOMS
57
ITEM: BOX BOUNDS pp pp pp
-1.8998528890199402e+01 1.7179509111273966e+01
-2.4186933829676139e+01 1.3959525587588733e+01
-9.5716225525251843e+00 2.0944281374689947e+01
ITEM: ATOMS id type mol x y z
3974 21 236 -10.2225 -23.3593 9.63369
3947 21 215 -13.3199 -21.4164 10.3565
3951 21 219 -16.8845 -19.482 19.2114
3928 21 204 -16.4277 -13.0494 -6.9383
3939 21 211 -16.6559 -13.4746 13.6673
3917 21 195 -13.2313 -15.4831 16.2384
3903 21 185 -16.6232 -5.48202 -2.81721
3938 21 210 -15.6439 -7.57418 3.67047
3958 21 222 -12.0423 -1.01905 7.81026
3847 21 147 -9.99474 7.50317 2.1876
3764 21 94 -18.8741 7.01177 17.3015
3641 21 11 -15.7376 11.213 17.884
3848 21 148 -2.35459 -17.7698 0.00373166
3803 21 117 -4.02712 -17.7206 -8.59403
3664 21 24 -7.47986 -18.2739 -2.01928
3748 21 82 -5.08635 -20.6615 -1.76337
3902 21 184 -8.87014 -13.4392 1.7546
3968 21 230 -4.50451 -9.24612 14.6175
3810 21 122 -9.46002 -14.8181 15.725
3946 21 214 -3.8525 -13.0413 10.797
3839 21 141 -4.58839 -7.99414 2.84896
3846 21 146 -9.06792 -8.89392 20.0707
3975 21 237 -1.88402 5.44623 -6.06038
3920 21 198 -8.17184 2.05737 -9.12003
3671 21 29 -6.18505 1.52962 5.36167
3818 21 128 -9.27396 1.83836 6.23412
3760 21 92 -5.17566 -1.27947 15.8197
3881 21 169 -9.77932 10.5421 0.348397
3972 21 234 -2.23671 11.2466 12.3927
3970 21 232 -8.07881 10.2184 11.7324
3962 21 226 7.30153 -22.2913 -4.11842
3681 21 35 3.48712 -23.7023 6.65943
3933 21 207 5.37492 -23.5288 19.6446
3976 21 238 0.992951 -12.2134 3.97329
3835 21 139 0.368706 -12.2636 0.708668
3887 21 173 7.24664 -3.13846 14.0281
3949 21 217 4.45099 5.98642 -5.92189
3904 21 186 1.69981 2.28312 5.03542
3822 21 132 0.296832 11.0133 18.1684
3960 21 224 12.8962 -18.5125 -6.17664
3973 21 235 17.1343 -24.0235 -8.88001
3845 21 145 8.40152 -21.6704 13.2423
3747 21 81 16.5404 -19.8344 11.9303
3921 21 199 14.5172 -17.2195 14.6409
3905 21 187 13.5014 -12.6387 -7.66279
3967 21 229 13.6347 -16.3145 5.94742
3913 21 193 10.2814 -9.21927 9.4065
3750 21 84 11.4396 -7.99277 -9.33183
3752 21 86 10.8867 -2.48236 16.335
3726 21 68 9.16687 -0.568118 -2.06712
3816 21 126 10.5535 5.67522 -9.3333
3702 21 50 10.3766 -1.12576 7.38011
3780 21 102 11.8902 5.96518 13.5903
3654 21 16 15.5064 4.10418 15.4695
3886 21 172 8.36829 -0.242222 15.844
3948 21 216 8.5879 0.604099 12.2377
3844 21 144 17.1773 12.105 18.1812
ITEM: TIMESTEP
1290000
ITEM: NUMBER OF ATOMS
58
ITEM: BOX BOUNDS pp pp pp
-1.8728746144015695e+01 1.6909726365090258e+01
-2.4398838112325272e+01 1.4171429870237866e+01
-9.6134922514304826e+00 2.0986151073564741e+01
ITEM: ATOMS id type mol x y z
3974 21 236 -10.0836 -23.5621 9.64452
3947 21 215 -13.1348 -21.5976 10.3693
3951 21 219 -16.6462 -19.6417 19.2485
3928 21 204 -16.1963 -13.1376 -6.97294
3939 21 211 -16.4211 -13.5675 13.6892
3917 21 195 -13.0476 -15.5983 16.2673
3903 21 185 -16.3888 -5.48612 -2.84054
3938 21 210 -15.4242 -7.60152 3.66494
3958 21 222 -11.8763 -0.973557 7.81608
3847 21 147 -9.85925 7.64334 2.178
3764 21 94 -18.6061 7.14649 17.3334
3641 21 11 -15.5164 11.3944 17.9174
3848 21 148 -2.33304 -17.9105 -0.0118621
3803 21 117 -3.98063 -17.8606 -8.63322
3664 21 24 -7.38187 -18.4201 -2.04042
3748 21 82 -5.02406 -20.8343 -1.78381
3902 21 184 -8.75141 -13.5317 1.74381
3968 21 230 -4.4509 -9.29203 14.642
3810 21 122 -9.33249 -14.9259 15.7526
3946 21 214 -3.80861 -13.1294 10.811
3839 21 141 -4.53353 -8.02614 2.84117
3846 21 146 -8.94624 -8.93591 20.1101
3975 21 237 -1.86949 5.56355 -6.09261
3920 21 198 -8.06352 2.13704 -9.16066
3671 21 29 -6.10637 1.60342 5.36077
3818 21 128 -9.14921 1.91559 6.23562
3760 21 92 -5.11204 -1.23687 15.8475
3881 21 169 -9.64703 10.7161 0.333749
3972 21 234 -2.21692 11.4284 12.4111
3970 21 232 -7.97189 10.3888 11.749
3962 21 226 7.17907 -22.4822 -4.14533
3681 21 35 3.42154 -23.9088 6.6621
3933 21 207 5.28119 -23.7334 19.6829
3976 21 238 0.964577 -12.2923 3.96859
3835 21 139 0.349642 -12.343 0.695008
3887 21 173 7.125 -3.11652 14.051
3949 21 217 4.37104 6.10974 -5.95375
3977 21 239 1.19853 0.521446 -9.07497
3904 21 186 1.66089 2.3653 5.03363
3822 21 132 0.278841 11.1924 18.2026
3960 21 224 12.6903 -18.6614 -6.20919
3973 21 235 16.8652 -24.2336 -8.91998
3845 21 145 8.26265 -21.8544 13.263
3747 21 81 16.2802 -19.9979 11.9474
3921 21 199 14.2871 -17.354 14.6654
3905 21 187 13.2865 -12.7223 -7.69943
3967 21 229 13.4178 -16.439 5.94814
3913 21 193 10.1145 -9.26489 9.41671
3750 21 84 11.2554 -8.02476 -9.37304
3752 21 86 10.7107 -2.45312 16.3642
3726 21 68 9.01659 -0.517616 -2.0884
3816 21 126 10.3825 5.79509 -9.37451
3702 21 50 10.2083 -1.08145 7.38476
3780 21 102 11.6993 6.08826 13.612
3654 21 16 15.2616 4.20659 15.4964
3886 21 172 8.22992 -0.1881 15.8719
3948 21 216 8.44625 0.667624 12.2557
3844 21 144 16.9075 12.2963 18.2155
ITEM: TIMESTEP
1295000
ITEM: NUMBER OF ATOMS
59
ITEM: BOX BOUNDS pp pp pp
-1.8815922152640578e+01 1.6996902373715141e+01
-2.4393322753973163e+01 1.4165914511885756e+01
-9.4734877040001528e+00 2.0846146526158890e+01
ITEM: ATOMS id type mol x y z
3974 21 236 -10.1285 -23.5568 9.6083
3947 21 215 -13.1946 -21.5929 10.3265
3951 21 219 -16.7232 -19.6375 19.1244
3928 21 204 -16.2711 -13.1353 -6.8571
3939 21 211 -16.497 -13.5651 13.616
3917 21 195 -13.1069 -15.5953 16.1705
3903 21 185 -16.4646 -5.48601 -2.76251
3938 21 210 -15.4952 -7.60081 3.68344
3958 21 222 -11.9299 -0.974741 7.7966
3847 21 147 -9.90303 7.6397 2.21011
3764 21 94 -18.6927 7.14298 17.2268
3641 21 11 -15.5879 11.3897 17.8055
3979 21 241 -14.5972 8.35211 18.144
3848 21 148 -2.34 -17.9068 0.0402805
3803 21 117 -3.99565 -17.857 -8.50219
3664 21 24 -7.41353 -18.4163 -1.96972
3748 21 82 -5.04418 -20.8298 -1.71545
3902 21 184 -8.78978 -13.5293 1.77988
3968 21 230 -4.46822 -9.29084 14.5601
3810 21 122 -9.3737 -14.9231 15.6605
3946 21 214 -3.82279 -13.1271 10.7641
3839 21 141 -4.55126 -8.0253 2.8672
3846 21 146 -8.98556 -8.93482 19.9781
3975 21 237 -1.87419 5.5605 -5.98483
3920 21 198 -8.09852 2.13497 -9.0248
3671 21 29 -6.1318 1.6015 5.36375
3818 21 128 -9.18952 1.91358 6.2306
3760 21 92 -5.1326 -1.23798 15.7545
3881 21 169 -9.68978 10.7115 0.382729
3972 21 234 -2.22332 11.4237 12.3496
3970 21 232 -8.00644 10.3843 11.6936
3962 21 226 7.21864 -22.4772 -4.05536
3681 21 35 3.44273 -23.9034 6.65317
3933 21 207 5.31148 -23.7281 19.5548
3976 21 238 0.973745 -12.2902 3.9843
3835 21 139 0.355802 -12.3409 0.740683
3978 21 240 2.62523 -10.5628 2.53419
3887 21 173 7.16431 -3.11709 13.9744
3977 21 239 1.20884 0.519835 -8.9399
3949 21 217 4.39687 6.10654 -5.84723
3904 21 186 1.67347 2.36316 5.03961
3822 21 132 0.284655 11.1878 18.0881
3960 21 224 12.7569 -18.6575 -6.10034
3973 21 235 16.9522 -24.2281 -8.78632
3845 21 145 8.30753 -21.8496 13.1937
3747 21 81 16.3643 -19.9937 11.8901
3921 21 199 14.3615 -17.3505 14.5833
3905 21 187 13.356 -12.7201 -7.57694
3967 21 229 13.4879 -16.4357 5.94574
3750 21 84 11.3149 -8.02393 -9.23524
3752 21 86 10.7676 -2.45388 16.2665
3726 21 68 9.06515 -0.518931 -2.01725
3816 21 126 10.4378 5.79197 -9.23669
3702 21 50 10.2626 -1.0826 7.36921
3780 21 102 11.761 6.08506 13.5395
3654 21 16 15.3407 4.20393 15.4066
3886 21 172 8.27463 -0.189508 15.7787
3948 21 216 8.49202 0.665971 12.1956
3844 21 144 16.9947 12.2913 18.1009
ITEM: TIMESTEP
1300000
ITEM: NUMBER OF ATOMS
58
ITEM: BOX BOUNDS pp pp pp
-1.8923525277215099e+01 1.7104505498289662e+01
-2.4413321845999459e+01 1.4185913603912052e+01
-9.4216791184978312e+00 2.0794337940654302e+01
ITEM: ATOMS id type mol x y z
3974 21 236 -10.1839 -23.5759 9.5949
3947 21 215 -13.2685 -21.6099 10.3106
3951 21 219 -16.8182 -19.6526 19.0785
3928 21 204 -16.3634 -13.1436 -6.81423
3939 21 211 -16.5907 -13.5738 13.5889
3917 21 195 -13.1802 -15.6062 16.1347
3903 21 185 -16.558 -5.4864 -2.73364
3938 21 210 -15.5828 -7.60339 3.69029
3958 21 222 -11.9961 -0.970448 7.78938
3847 21 147 -9.95707 7.65292 2.22199
3764 21 94 -18.7996 7.1557 17.1874
3641 21 11 -15.6761 11.4068 17.7641
3979 21 241 -14.6795 8.36608 18.1014
3848 21 148 -2.3486 -17.9201 0.0595759
3803 21 117 -4.0142 -17.8702 -8.4537
3664 21 24 -7.45262 -18.4301 -1.94355
3748 21 82 -5.06903 -20.8461 -1.69016
3902 21 184 -8.83713 -13.538 1.79323
3968 21 230 -4.48961 -9.29517 14.5297
3810 21 122 -9.42456 -14.9333 15.6264
3946 21 214 -3.8403 -13.1354 10.7468
3839 21 141 -4.57314 -8.02832 2.87684
3846 21 146 -9.03409 -8.93878 19.9293
3975 21 237 -1.87998 5.57157 -5.94494
3920 21 198 -8.14172 2.14249 -8.97452
3671 21 29 -6.16318 1.60847 5.36486
3818 21 128 -9.23927 1.92087 6.22874
3760 21 92 -5.15797 -1.23396 15.7201
3881 21 169 -9.74254 10.728 0.400854
3972 21 234 -2.23121 11.4408 12.3268
3970 21 232 -8.04909 10.4004 11.673
3962 21 226 7.26748 -22.4952 -4.02207
3681 21 35 3.46889 -23.9229 6.64987
3933 21 207 5.34886 -23.7474 19.5074
3976 21 238 0.985062 -12.2976 3.99012
3835 21 139 0.363406 -12.3484 0.757584
3978 21 240 2.64647 -10.5684 2.54497
3887 21 173 7.21282 -3.11502 13.9461
3977 21 239 1.22157 0.525678 -8.88991
3949 21 217 4.42876 6.11817 -5.80782
3904 21 186 1.68899 2.37092 5.04182
3822 21 132 0.291831 11.2047 18.0457
3960 21 224 12.839 -18.6715 -6.06006
3973 21 235 17.0595 -24.2479 -8.73686
3845 21 145 8.36291 -21.867 13.168
3747 21 81 16.4681 -20.0091 11.8689
3921 21 199 14.4532 -17.3632 14.5529
3905 21 187 13.4417 -12.728 -7.53161
3967 21 229 13.5744 -16.4475 5.94486
3752 21 86 10.8377 -2.45112 16.2303
3726 21 68 9.12509 -0.514165 -1.99093
3816 21 126 10.5059 5.80328 -9.18569
3702 21 50 10.3298 -1.07842 7.36346
3780 21 102 11.8372 6.09668 13.5127
3654 21 16 15.4383 4.21359 15.3734
3886 21 172 8.32982 -0.1844 15.7442
3948 21 216 8.54852 0.671966 12.1734
3844 21 144 17.1023 12.3094 18.0584
ITEM: TIMESTEP
1305000
ITEM: NUMBER OF ATOMS
56
ITEM: BOX BOUNDS pp pp pp
-1.8837656575634238e+01 1.7018636796708801e+01
-2.4455781118053672e+01 1.4228372875966265e+01
-9.5570820385838609e+00 2.0929740860681328e+01
ITEM: ATOMS id type mol x y z
3974 21 236 -10.1397 -23.6165 9.62993
3947 21 215 -13.2096 -21.6462 10.3521
3951 21 219 -16.7424 -19.6846 19.1985
3939 21 211 -16.5159 -13.5925 13.6597
3917 21 195 -13.1218 -15.6292 16.2283
3903 21 185 -16.4835 -5.48722 -2.8091
3938 21 210 -15.5129 -7.60887 3.6724
3958 21 222 -11.9433 -0.961333 7.80823
3847 21 147 -9.91395 7.68101 2.19094
3764 21 94 -18.7143 7.18269 17.2905
3641 21 11 -15.6057 11.4431 17.8723
3979 21 241 -14.6138 8.39574 18.2127
3848 21 148 -2.34174 -17.9482 0.00914706
3803 21 117 -3.9994 -17.8983 -8.58043
3664 21 24 -7.42143 -18.4594 -2.01193
3748 21 82 -5.0492 -20.8807 -1.75627
3902 21 184 -8.79934 -13.5565 1.75834
3968 21 230 -4.47254 -9.30437 14.609
3810 21 122 -9.38397 -14.9549 15.7155
3946 21 214 -3.82633 -13.153 10.7921
3839 21 141 -4.55568 -8.03474 2.85166
3846 21 146 -8.99536 -8.9472 20.0569
3975 21 237 -1.87536 5.59508 -6.04918
3920 21 198 -8.10725 2.15845 -9.10592
3671 21 29 -6.13814 1.62326 5.36198
3818 21 128 -9.19957 1.93635 6.2336
3760 21 92 -5.13772 -1.22542 15.8101
3881 21 169 -9.70043 10.7628 0.353484
3972 21 234 -2.22491 11.4772 12.3863
3970 21 232 -8.01506 10.4345 11.7267
3962 21 226 7.2285 -22.5335 -4.10908
3681 21 35 3.44802 -23.9643 6.6585
3933 21 207 5.31903 -23.7884 19.6313
3835 21 139 0.357338 -12.3643 0.713411
3978 21 240 2.62952 -10.5804 2.51681
3887 21 173 7.17411 -3.11062 14.0201
3977 21 239 1.21142 0.538085 -9.02055
3949 21 217 4.40331 6.14288 -5.91083
3904 21 186 1.6766 2.38739 5.03604
3822 21 132 0.286104 11.2406 18.1565
3960 21 224 12.7735 -18.7014 -6.16533
3973 21 235 16.9738 -24.29 -8.86613
3845 21 145 8.31871 -21.9038 13.2351
3747 21 81 16.3853 -20.0419 11.9243
3921 21 199 14.38 -17.3901 14.6323
3905 21 187 13.3733 -12.7447 -7.65007
3967 21 229 13.5053 -16.4724 5.94717
3752 21 86 10.7817 -2.44527 16.3248
3726 21 68 9.07726 -0.504046 -2.05973
3816 21 126 10.4515 5.8273 -9.31898
3702 21 50 10.2762 -1.06954 7.37849
3780 21 102 11.7764 6.12134 13.5828
3654 21 16 15.3604 4.23411 15.4602
3886 21 172 8.28578 -0.173556 15.8344
3948 21 216 8.50343 0.684695 12.2315
3844 21 144 17.0164 12.3477 18.1693
ITEM: TIMESTEP
1310000
ITEM: NUMBER OF ATOMS
56
ITEM: BOX BOUNDS pp pp pp
-1.8914628510947072e+01 1.7095608732021635e+01
-2.4343979551457814e+01 1.4116571309370407e+01
-9.5919941733522904e+00 2.0964652995421147e+01
ITEM: ATOMS id type mol x y z
3974 21 236 -10.1793 -23.5096 9.63896
3947 21 215 -13.2624 -21.5507 10.3628
3951 21 219 -16.8104 -19.6003 19.2294
3939 21 211 -16.5829 -13.5434 13.678
3917 21 195 -13.1742 -15.5685 16.2525
3903 21 185 -16.5503 -5.48506 -2.82856
3938 21 210 -15.5756 -7.59444 3.66778
3958 21 222 -11.9907 -0.985334 7.81309
3847 21 147 -9.95261 7.60705 2.18293
3764 21 94 -18.7907 7.11161 17.3171
3641 21 11 -15.6688 11.3474 17.9003
3979 21 241 -14.6727 8.31765 18.2414
3848 21 148 -2.34789 -17.8741 -0.00385544
3803 21 117 -4.01266 -17.8244 -8.6131
3664 21 24 -7.44938 -18.3822 -2.02956
3748 21 82 -5.06698 -20.7896 -1.77331
3902 21 184 -8.83322 -13.5077 1.74935
3968 21 230 -4.48784 -9.28015 14.6294
3810 21 122 -9.42036 -14.898 15.7384
3946 21 214 -3.83885 -13.1066 10.8038
3839 21 141 -4.57133 -8.01785 2.84517
3846 21 146 -9.03008 -8.92504 20.0899
3975 21 237 -1.8795 5.53318 -6.07606
3920 21 198 -8.13815 2.11642 -9.1398
3671 21 29 -6.16059 1.58432 5.36123
3760 21 92 -5.15588 -1.2479 15.8332
3881 21 169 -9.73818 10.671 0.34127
3972 21 234 -2.23056 11.3813 12.4016
3970 21 232 -8.04556 10.3447 11.7405
3962 21 226 7.26344 -22.4328 -4.13151
3681 21 35 3.46672 -23.8553 6.66073
3933 21 207 5.34577 -23.6805 19.6632
3835 21 139 0.362777 -12.3224 0.702022
3978 21 240 2.64472 -10.5488 2.50955
3887 21 173 7.20881 -3.1222 14.0392
3977 21 239 1.22052 0.505416 -9.05423
3949 21 217 4.42612 6.07782 -5.93739
3904 21 186 1.6877 2.34403 5.03455
3822 21 132 0.291237 11.1461 18.185
3960 21 224 12.8322 -18.6228 -6.19247
3973 21 235 17.0506 -24.1792 -8.89946
3986 21 244 13.8629 -16.9405 -1.81727
3845 21 145 8.35833 -21.8068 13.2524
3747 21 81 16.4595 -19.9556 11.9386
3921 21 199 14.4456 -17.3192 14.6528
3905 21 187 13.4346 -12.7006 -7.68062
3967 21 229 13.5672 -16.4068 5.94777
3752 21 86 10.8319 -2.46069 16.3492
3726 21 68 9.12013 -0.53069 -2.07747
3816 21 126 10.5003 5.76406 -9.35335
3702 21 50 10.3242 -1.09292 7.38237
3780 21 102 11.8309 6.0564 13.6009
3654 21 16 15.4303 4.18008 15.4826
3886 21 172 8.32526 -0.202111 15.8576
3948 21 216 8.54385 0.651179 12.2465
3844 21 144 17.0934 12.2468 18.1979
ITEM: TIMESTEP
1315000
ITEM: NUMBER OF ATOMS
57
ITEM: BOX BOUNDS pp pp pp
-1.8763694252126001e+01 1.6944674473200564e+01
-2.4402012929556207e+01 1.4174604687468801e+01
-9.5641688387710388e+00 2.0936827660830428e+01
ITEM: ATOMS id type mol x y z
3974 21 236 -10.1016 -23.5651 9.63176
3947 21 215 -13.1588 -21.6003 10.3542
3951 21 219 -16.6771 -19.644 19.2048
3939 21 211 -16.4515 -13.5689 13.6634
3987 21 245 -11.2695 -11.5831 19.2321
3917 21 195 -13.0714 -15.6 16.2332
3903 21 185 -16.4192 -5.48618 -2.81305
3938 21 210 -15.4526 -7.60193 3.67146
3958 21 222 -11.8978 -0.972876 7.80922
3847 21 147 -9.8768 7.64544 2.18931
3764 21 94 -18.6409 7.14851 17.2959
3979 21 241 -14.5573 8.35818 18.2185
3641 21 11 -15.5451 11.3971 17.878
3848 21 148 -2.33583 -17.9126 0.00650769
3803 21 117 -3.98665 -17.8627 -8.58706
3664 21 24 -7.39456 -18.4223 -2.01551
3748 21 82 -5.03212 -20.8369 -1.75973
3902 21 184 -8.76679 -13.5331 1.75652
3968 21 230 -4.45784 -9.29272 14.6132
3810 21 122 -9.34901 -14.9275 15.7201
3946 21 214 -3.8143 -13.1307 10.7945
3839 21 141 -4.54063 -8.02662 2.85034
3846 21 146 -8.962 -8.93654 20.0636
3975 21 237 -1.87137 5.56531 -6.05464
3920 21 198 -8.07755 2.13824 -9.1128
3671 21 29 -6.11657 1.60453 5.36182
3760 21 92 -5.12028 -1.23623 15.8148
3881 21 169 -9.66417 10.7187 0.351004
3970 21 232 -7.98574 10.3913 11.7295
3972 21 234 -2.21948 11.4311 12.3894
3962 21 226 7.19493 -22.4851 -4.11363
3681 21 35 3.43004 -23.9119 6.65896
3933 21 207 5.29333 -23.7365 19.6378
3835 21 139 0.352112 -12.3442 0.711099
3978 21 240 2.61492 -10.5652 2.51534
3887 21 173 7.14076 -3.11619 14.024
3977 21 239 1.20267 0.522374 -9.02739
3949 21 217 4.38139 6.11159 -5.91622
3904 21 186 1.66593 2.36653 5.03574
3822 21 132 0.281172 11.1951 18.1623
3960 21 224 12.717 -18.6636 -6.17084
3973 21 235 16.9001 -24.2367 -8.87289
3986 21 244 13.739 -16.9762 -1.80361
3845 21 145 8.28064 -21.8571 13.2386
3747 21 81 16.3139 -20.0004 11.9272
3921 21 199 14.3169 -17.356 14.6365
3905 21 187 13.3144 -12.7235 -7.65627
3967 21 229 13.4459 -16.4408 5.9473
3752 21 86 10.7335 -2.45268 16.3298
3726 21 68 9.03606 -0.51686 -2.06333
3816 21 126 10.4047 5.79688 -9.32596
3702 21 50 10.2301 -1.08079 7.37928
3780 21 102 11.7241 6.09011 13.5865
3654 21 16 15.2933 4.20813 15.4648
3886 21 172 8.24784 -0.187289 15.8391
3948 21 216 8.4646 0.668576 12.2345
3844 21 144 16.9424 12.2992 18.1751
ITEM: TIMESTEP
1320000
ITEM: NUMBER OF ATOMS
58
ITEM: BOX BOUNDS pp pp pp
-1.8679503911695377e+01 1.6860484132769940e+01
-2.4403981935131160e+01 1.4176573693043753e+01
-9.6501396730710987e+00 2.1022798495086104e+01
ITEM: ATOMS id type mol x y z
3974 21 236 -10.0583 -23.567 9.654
3947 21 215 -13.1011 -21.602 10.3806
3988 21 246 -11.4725 -16.6971 1.45914
3989 21 247 -13.8641 -15.5265 -0.028749
3939 21 211 -16.3782 -13.5697 13.7084
3987 21 245 -11.2206 -11.5837 19.3084
3917 21 195 -13.014 -15.6011 16.2927
3903 21 185 -16.3461 -5.48622 -2.86097
3938 21 210 -15.384 -7.60218 3.6601
3958 21 222 -11.846 -0.972453 7.82119
3847 21 147 -9.83451 7.64675 2.1696
3764 21 94 -18.5572 7.14976 17.3613
3979 21 241 -14.4929 8.35956 18.2892
3641 21 11 -15.476 11.3988 17.9467
3848 21 148 -2.3291 -17.9139 -0.0255109
3803 21 117 -3.97214 -17.864 -8.66752
3664 21 24 -7.36398 -18.4236 -2.05893
3748 21 82 -5.01268 -20.8385 -1.8017
3902 21 184 -8.72974 -13.5339 1.73436
3968 21 230 -4.44111 -9.29315 14.6635
3810 21 122 -9.30922 -14.9285 15.7767
3946 21 214 -3.8006 -13.1315 10.8233
3839 21 141 -4.52351 -8.02691 2.83435
3846 21 146 -8.92403 -8.93693 20.1447
3975 21 237 -1.86684 5.5664 -6.12082
3920 21 198 -8.04375 2.13898 -9.19622
3671 21 29 -6.09201 1.60522 5.35999
3760 21 92 -5.10042 -1.23583 15.8719
3881 21 169 -9.62289 10.7203 0.320928
3970 21 232 -7.95237 10.3929 11.7636
3972 21 234 -2.21331 11.4328 12.4272
3962 21 226 7.15672 -22.4868 -4.16888
3681 21 35 3.40958 -23.9138 6.66444
3933 21 207 5.26408 -23.7384 19.7164
3835 21 139 0.346163 -12.3449 0.683053
3978 21 240 2.5983 -10.5658 2.49746
3887 21 173 7.1028 -3.11599 14.071
3977 21 239 1.19271 0.522949 -9.11033
3949 21 217 4.35645 6.11274 -5.98163
3904 21 186 1.65379 2.3673 5.03207
3822 21 132 0.275557 11.1968 18.2326
3960 21 224 12.6528 -18.665 -6.23768
3973 21 235 16.8161 -24.2387 -8.95497
3986 21 244 13.67 -16.9774 -1.84583
3845 21 145 8.23731 -21.8588 13.2811
3747 21 81 16.2327 -20.0019 11.9624
3921 21 199 14.2451 -17.3573 14.6869
3905 21 187 13.2473 -12.7243 -7.73149
3967 21 229 13.3782 -16.442 5.94877
3752 21 86 10.6786 -2.45241 16.3898
3726 21 68 8.98916 -0.51639 -2.10702
3816 21 126 10.3513 5.798 -9.41059
3702 21 50 10.1775 -1.08037 7.38882
3780 21 102 11.6645 6.09125 13.631
3654 21 16 15.2169 4.20908 15.5199
3886 21 172 8.20466 -0.186786 15.8963
3948 21 216 8.4204 0.669166 12.2715
3844 21 144 16.8583 12.3009 18.2455
ITEM: TIMESTEP
1325000
ITEM: NUMBER OF ATOMS
57
ITEM: BOX BOUNDS pp pp pp
-1.8923100779009165e+01 1.7104081000083728e+01
-2.4228063211518293e+01 1.4000654969430887e+01
-9.5689106656703018e+00 2.0941569487692398e+01
ITEM: ATOMS id type mol x y z
3947 21 215 -13.2682 -21.4516 10.3557
3988 21 246 -11.6173 -16.5915 1.48153
3989 21 247 -14.0417 -15.4316 0.00152073
3939 21 211 -16.5903 -13.4926 13.6659
3987 21 245 -11.362 -11.5247 19.2363
3917 21 195 -13.18 -15.5054 16.2365
3903 21 185 -16.5577 -5.48282 -2.8157
3938 21 210 -15.5825 -7.57949 3.67083
3958 21 222 -11.9959 -1.01022 7.80988
3847 21 147 -9.95686 7.53038 2.18822
3764 21 94 -18.7992 7.03792 17.2995
3979 21 241 -14.6791 8.23669 18.2224
3641 21 11 -15.6757 11.2482 17.8818
3848 21 148 -2.34856 -17.7971 0.00474167
3803 21 117 -4.01412 -17.7477 -8.5915
3664 21 24 -7.45246 -18.3022 -2.01791
3748 21 82 -5.06893 -20.6951 -1.76204
3902 21 184 -8.83694 -13.4571 1.75529
3968 21 230 -4.48952 -9.25503 14.6159
3810 21 122 -9.42436 -14.839 15.7232
3946 21 214 -3.84023 -13.0584 10.7961
3839 21 141 -4.57305 -8.00035 2.84946
3846 21 146 -9.0339 -8.90207 20.0681
3975 21 237 -1.87996 5.469 -6.05829
3920 21 198 -8.14155 2.07284 -9.1174
3671 21 29 -6.16306 1.54394 5.36172
3760 21 92 -5.15787 -1.2712 15.8179
3881 21 169 -9.74233 10.5759 0.349345
3970 21 232 -8.04892 10.2515 11.7314
3972 21 234 -2.23118 11.2819 12.3915
3962 21 226 7.26729 -22.3284 -4.11668
3681 21 35 3.46878 -23.7424 6.65926
3933 21 207 5.34871 -23.5685 19.6421
3835 21 139 0.363376 -12.279 0.709552
3978 21 240 2.64639 -10.516 2.51435
3887 21 173 7.21263 -3.13421 14.0266
3977 21 239 1.22152 0.471545 -9.03196
3949 21 217 4.42863 6.01036 -5.91983
3904 21 186 1.68893 2.29907 5.03554
3822 21 132 0.291802 11.0481 18.1662
3960 21 224 12.8387 -18.5414 -6.17453
3973 21 235 17.0591 -24.0642 -8.87742
3986 21 244 13.8698 -16.8692 -1.80594
3845 21 145 8.3627 -21.7061 13.2409
3747 21 81 16.4677 -19.8661 11.9291
3921 21 199 14.4529 -17.2456 14.6393
3905 21 187 13.4413 -12.6549 -7.66042
3967 21 229 13.574 -16.3387 5.94738
3752 21 86 10.8375 -2.47668 16.3331
3726 21 68 9.12485 -0.558316 -2.06574
3816 21 126 10.5057 5.69849 -9.33063
3702 21 50 10.3295 -1.11716 7.37981
3780 21 102 11.8369 5.98907 13.5889
3654 21 16 15.438 4.12406 15.4678
3886 21 172 8.3296 -0.231717 15.8422
3948 21 216 8.54829 0.616429 12.2366
3844 21 144 17.1018 12.1421 18.179
ITEM: TIMESTEP
1330000
ITEM: NUMBER OF ATOMS
57
ITEM: BOX BOUNDS pp pp pp
-1.8728504806215604e+01 1.6909485027290167e+01
-2.4479380837920647e+01 1.4251972595833241e+01
-9.5328623240116919e+00 2.0905521146027215e+01
ITEM: ATOMS id type mol x y z
3947 21 215 -13.1347 -21.6664 10.3447
3988 21 246 -11.5017 -16.7424 1.49147
3989 21 247 -13.8998 -15.5672 0.014954
3939 21 211 -16.4209 -13.6028 13.647
3987 21 245 -11.2491 -11.609 19.2043
3917 21 195 -13.0474 -15.6421 16.2116
3903 21 185 -16.3886 -5.48767 -2.79561
3938 21 210 -15.424 -7.61191 3.6756
3958 21 222 -11.8761 -0.956266 7.80486
3847 21 147 -9.85912 7.69662 2.19649
3764 21 94 -18.6059 7.19769 17.272
3979 21 241 -14.5304 8.41222 18.1928
3641 21 11 -15.5162 11.4633 17.853
3848 21 148 -2.33302 -17.9639 0.0181673
3803 21 117 -3.98059 -17.9139 -8.55776
3664 21 24 -7.38178 -18.4756 -1.9997
3748 21 82 -5.024 -20.8999 -1.74444
3902 21 184 -8.75131 -13.5668 1.76458
3968 21 230 -4.45085 -9.30948 14.5948
3810 21 122 -9.33238 -14.9669 15.6995
3946 21 214 -3.80857 -13.1629 10.784
3839 21 141 -4.53348 -8.0383 2.85616
3846 21 146 -8.94613 -8.95188 20.0341
3975 21 237 -1.86948 5.60814 -6.03054
3920 21 198 -8.06343 2.16733 -9.08242
3671 21 29 -6.1063 1.63148 5.36249
3760 21 92 -5.11198 -1.22068 15.794
3881 21 169 -9.64691 10.7822 0.361957
3970 21 232 -7.97179 10.4535 11.7171
3972 21 234 -2.2169 11.4975 12.3757
3962 21 226 7.17896 -22.5547 -4.09351
3681 21 35 3.42149 -23.9873 6.65696
3933 21 207 5.28111 -23.8112 19.6091
3835 21 139 0.349625 -12.3732 0.721313
3978 21 240 2.60798 -10.5871 2.52185
3887 21 173 7.12489 -3.10818 14.0069
3977 21 239 1.1985 0.544981 -8.99718
3949 21 217 4.37097 6.15662 -5.89241
3904 21 186 1.66086 2.39654 5.03707
3822 21 132 0.278825 11.2606 18.1367
3960 21 224 12.6902 -18.7179 -6.1465
3973 21 235 16.865 -24.3134 -8.84301
3986 21 244 13.7102 -17.0238 -1.78823
3845 21 145 8.26253 -21.9243 13.2231
3747 21 81 16.28 -20.0601 11.9144
3921 21 199 14.2869 -17.4051 14.6181
3905 21 187 13.2863 -12.7541 -7.62888
3967 21 229 13.4176 -16.4863 5.94676
3752 21 86 10.7106 -2.44201 16.3079
3726 21 68 9.01645 -0.498421 -2.04743
3816 21 126 10.3824 5.84065 -9.29514
3702 21 50 10.2081 -1.06461 7.37581
3780 21 102 11.6992 6.13505 13.5703
3654 21 16 15.2614 4.24552 15.4447
3886 21 172 8.22979 -0.167528 15.8182
3948 21 216 8.44612 0.691769 12.2211
3844 21 144 16.9073 12.369 18.1495
ITEM: TIMESTEP
1335000
ITEM: NUMBER OF ATOMS
57
ITEM: BOX BOUNDS pp pp pp
-1.8635104634498237e+01 1.6816084855572800e+01
-2.4342098830872963e+01 1.4114690588785557e+01
-9.6588854122690577e+00 2.1031544234227617e+01
ITEM: ATOMS id type mol x y z
3947 21 215 -13.0706 -21.5491 10.3832
3988 21 246 -11.4462 -16.66 1.45673
3989 21 247 -13.8317 -15.4931 -0.032008
3939 21 211 -16.3396 -13.5426 13.7129
3987 21 245 -11.1949 -11.563 19.3162
3917 21 195 -12.9838 -15.5674 16.2987
3903 21 185 -16.3075 -5.48502 -2.86584
3938 21 210 -15.3479 -7.5942 3.65895
3958 21 222 -11.8186 -0.985738 7.8224
3847 21 147 -9.81221 7.60581 2.16759
3764 21 94 -18.5131 7.11042 17.368
3979 21 241 -14.459 8.31634 18.2963
3641 21 11 -15.4397 11.3458 17.9537
3848 21 148 -2.32556 -17.8728 -0.0287681
3803 21 117 -3.96449 -17.8231 -8.67571
3664 21 24 -7.34785 -18.3809 -2.06335
3748 21 82 -5.00243 -20.788 -1.80597
3902 21 184 -8.7102 -13.5069 1.73211
3968 21 230 -4.43229 -9.27974 14.6686
3810 21 122 -9.28823 -14.897 15.7824
3946 21 214 -3.79338 -13.1058 10.8262
3839 21 141 -4.51448 -8.01757 2.83273
3846 21 146 -8.90401 -8.92467 20.1529
3975 21 237 -1.86444 5.53214 -6.12756
3920 21 198 -8.02593 2.11571 -9.20471
3671 21 29 -6.07906 1.58366 5.35981
3760 21 92 -5.08995 -1.24827 15.8777
3881 21 169 -9.60111 10.6695 0.317868
3970 21 232 -7.93478 10.3431 11.767
3972 21 234 -2.21005 11.3797 12.431
3962 21 226 7.13656 -22.4311 -4.1745
3681 21 35 3.39878 -23.8535 6.665
3933 21 207 5.24866 -23.6786 19.7244
3835 21 139 0.343025 -12.3217 0.6802
3978 21 240 2.58954 -10.5483 2.49565
3887 21 173 7.08278 -3.1224 14.0758
3977 21 239 1.18745 0.504867 -9.11877
3949 21 217 4.34329 6.07672 -5.98828
3904 21 186 1.64738 2.3433 5.0317
3822 21 132 0.272596 11.1445 18.2398
3960 21 224 12.6189 -18.6215 -6.24448
3973 21 235 16.7718 -24.1773 -8.96332
3986 21 244 13.6335 -16.9394 -1.85013
3845 21 145 8.21445 -21.8051 13.2855
3747 21 81 16.1899 -19.9541 11.966
3921 21 199 14.2073 -17.318 14.6921
3905 21 187 13.2119 -12.6999 -7.73914
3967 21 229 13.3425 -16.4057 5.94892
3752 21 86 10.6497 -2.46095 16.3959
3726 21 68 8.96443 -0.531139 -2.11147
3816 21 126 10.3232 5.76299 -9.4192
3702 21 50 10.1498 -1.09331 7.3898
3780 21 102 11.6331 6.05531 13.6355
3654 21 16 15.1766 4.17917 15.5255
3886 21 172 8.18189 -0.202591 15.9021
3948 21 216 8.39709 0.650615 12.2752
3844 21 144 16.8139 12.2451 18.2527
ITEM: TIMESTEP
1340000
ITEM: NUMBER OF ATOMS
56
ITEM: BOX BOUNDS pp pp pp
-1.8914067084239328e+01 1.7095047305313891e+01
-2.4506027335183379e+01 1.4278619093095973e+01
-9.4479786203105363e+00 2.0820637442317658e+01
ITEM: ATOMS id type mol x y z
3947 21 215 -13.262 -21.6892 10.3187
3988 21 246 -11.612 -16.7584 1.51486
3989 21 247 -14.0351 -15.5816 0.0465856
3939 21 211 -16.5824 -13.6145 13.6026
3917 21 195 -13.1738 -15.6566 16.1529
3903 21 185 -16.5498 -5.48819 -2.7483
3938 21 210 -15.5751 -7.61535 3.68681
3958 21 222 -11.9903 -0.950546 7.79304
3847 21 147 -9.95232 7.71425 2.21595
3764 21 94 -18.7902 7.21463 17.2074
3979 21 241 -14.6722 8.43083 18.123
3641 21 11 -15.6683 11.4861 17.7851
3848 21 148 -2.34784 -17.9816 0.049781
3803 21 117 -4.01257 -17.9315 -8.47831
3664 21 24 -7.44918 -18.494 -1.95683
3748 21 82 -5.06685 -20.9217 -1.703
3902 21 184 -8.83297 -13.5785 1.78646
3968 21 230 -4.48773 -9.31526 14.5451
3810 21 122 -9.42009 -14.9804 15.6437
3946 21 214 -3.83876 -13.1739 10.7556
3839 21 141 -4.57122 -8.04232 2.87195
3846 21 146 -9.02982 -8.95716 19.9541
3975 21 237 -1.87947 5.6229 -5.96519
3920 21 198 -8.13793 2.17735 -9.00004
3671 21 29 -6.16042 1.64076 5.3643
3760 21 92 -5.15574 -1.21532 15.7376
3881 21 169 -9.7379 10.8041 0.391653
3970 21 232 -8.04534 10.4749 11.6834
3972 21 234 -2.23052 11.5203 12.3383
3962 21 226 7.26319 -22.5787 -4.03897
3681 21 35 3.46659 -24.0133 6.65155
3933 21 207 5.34558 -23.8369 19.5315
3835 21 139 0.362738 -12.3832 0.749005
3978 21 240 2.64461 -10.5946 2.5395
3887 21 173 7.20856 -3.10542 13.9605
3977 21 239 1.22046 0.552767 -8.91529
3949 21 217 4.42596 6.17213 -5.82783
3904 21 186 1.68762 2.40687 5.0407
3822 21 132 0.2912 11.2831 18.0672
3960 21 224 12.8318 -18.7366 -6.0805
3973 21 235 17.0501 -24.3398 -8.76197
3986 21 244 13.8624 -17.0402 -1.74654
3845 21 145 8.35805 -21.9474 13.181
3747 21 81 16.459 -20.0806 11.8797
3921 21 199 14.4452 -17.422 14.5683
3905 21 187 13.4342 -12.7646 -7.55462
3967 21 229 13.5668 -16.5019 5.94531
3752 21 86 10.8316 -2.43833 16.2487
3726 21 68 9.11982 -0.492071 -2.00429
3816 21 126 10.4999 5.85572 -9.21158
3702 21 50 10.3239 -1.05904 7.36638
3780 21 102 11.8305 6.15053 13.5263
3654 21 16 15.4298 4.2584 15.3903
3886 21 172 8.32497 -0.160723 15.7617
3948 21 216 8.54355 0.699758 12.1847
3844 21 144 17.0928 12.3931 18.08
ITEM: TIMESTEP
1345000
ITEM: NUMBER OF ATOMS
56
ITEM: BOX BOUNDS pp pp pp
-1.8726737105177452e+01 1.6907717326252016e+01
-2.4484248827809722e+01 1.4256840585722315e+01
-9.6720786886864012e+00 2.1044737510605565e+01
ITEM: ATOMS id type mol x y z
3947 21 215 -13.1335 -21.6706 10.3873
3988 21 246 -11.5006 -16.7453 1.4531
3989 21 247 -13.8985 -15.5699 -0.0369245
3939 21 211 -16.4193 -13.6049 13.7198
3917 21 195 -13.0462 -15.6447 16.3078
3903 21 185 -16.3871 -5.48777 -2.87319
3938 21 210 -15.4225 -7.61254 3.6572
3958 21 222 -11.875 -0.955221 7.82424
3847 21 147 -9.85824 7.69984 2.16457
3764 21 94 -18.6042 7.20079 17.378
3979 21 241 -14.529 8.41562 18.3072
3641 21 11 -15.5148 11.4675 17.9643
3848 21 148 -2.33288 -17.9671 -0.0336817
3803 21 117 -3.98028 -17.9171 -8.68805
3664 21 24 -7.38114 -18.479 -2.07001
3748 21 82 -5.02359 -20.9039 -1.81242
3902 21 184 -8.75053 -13.5689 1.72871
3968 21 230 -4.4505 -9.31054 14.6763
3810 21 122 -9.33154 -14.9694 15.7911
3946 21 214 -3.80828 -13.1649 10.8307
3839 21 141 -4.53312 -8.03904 2.83027
3846 21 146 -8.94534 -8.95284 20.1654
3975 21 237 -1.86938 5.61084 -6.13772
3920 21 198 -8.06272 2.16916 -9.21751
3671 21 29 -6.10579 1.63317 5.35953
3760 21 92 -5.11156 -1.2197 15.8864
3881 21 169 -9.64605 10.7862 0.313252
3970 21 232 -7.97109 10.4574 11.7722
3972 21 234 -2.21677 11.5017 12.4368
3962 21 226 7.17816 -22.5591 -4.18297
3681 21 35 3.42106 -23.992 6.66584
3933 21 207 5.28049 -23.8159 19.7365
3835 21 139 0.3495 -12.375 0.675896
3978 21 240 2.60763 -10.5885 2.4929
3887 21 173 7.12409 -3.10767 14.083
3977 21 239 1.19829 0.546403 -9.1315
3949 21 217 4.37044 6.15945 -5.99832
3904 21 186 1.6606 2.39843 5.03114
3822 21 132 0.278707 11.2647 18.2506
3960 21 224 12.6888 -18.7214 -6.25474
3973 21 235 16.8632 -24.3182 -8.97591
3986 21 244 13.7087 -17.0268 -1.85661
3845 21 145 8.26162 -21.9285 13.292
3747 21 81 16.2783 -20.0638 11.9714
3921 21 199 14.2854 -17.4082 14.6998
3905 21 187 13.2849 -12.756 -7.75068
3967 21 229 13.4162 -16.4891 5.94914
3752 21 86 10.7094 -2.44134 16.4051
3726 21 68 9.01547 -0.497261 -2.11817
3816 21 126 10.3812 5.8434 -9.43218
3702 21 50 10.207 -1.06359 7.39126
3780 21 102 11.6979 6.13788 13.6424
3654 21 16 15.2598 4.24787 15.5339
3886 21 172 8.22889 -0.166285 15.9109
3948 21 216 8.4452 0.693229 12.2809
3844 21 144 16.9055 12.3734 18.2635
ITEM: TIMESTEP
1350000
ITEM: NUMBER OF ATOMS
56
ITEM: BOX BOUNDS pp pp pp
-1.8880792608966622e+01 1.7061772830041186e+01
-2.4282822482946408e+01 1.4055414240859001e+01
-9.6582026159923231e+00 2.1030861437897848e+01
ITEM: ATOMS id type mol x y z
3947 21 215 -13.2391 -21.4984 10.383
3988 21 246 -11.5922 -16.6244 1.45692
3989 21 247 -14.0108 -15.4611 -0.0317536
3939 21 211 -16.5535 -13.5166 13.7126
3917 21 195 -13.1511 -15.5352 16.2982
3903 21 185 -16.5209 -5.48388 -2.86546
3938 21 210 -15.548 -7.58655 3.65904
3958 21 222 -11.9698 -0.998464 7.82231
3847 21 147 -9.93561 7.5666 2.16775
3764 21 94 -18.7571 7.07273 17.3675
3979 21 241 -14.6468 8.27494 18.2958
3641 21 11 -15.641 11.2951 17.9532
3848 21 148 -2.34518 -17.8335 -0.0285138
3803 21 117 -4.00683 -17.7839 -8.67507
3664 21 24 -7.43709 -18.34 -2.063
3748 21 82 -5.05916 -20.7397 -1.80564
3902 21 184 -8.81832 -13.481 1.73229
3968 21 230 -4.48112 -9.2669 14.6682
3810 21 122 -9.40436 -14.8669 15.782
3946 21 214 -3.83335 -13.0812 10.826
3839 21 141 -4.56445 -8.00862 2.83286
3846 21 146 -9.01482 -8.91292 20.1523
3975 21 237 -1.87768 5.49932 -6.12703
3920 21 198 -8.12457 2.09343 -9.20405
3671 21 29 -6.15072 1.56301 5.35982
3760 21 92 -5.1479 -1.26019 15.8772
3881 21 169 -9.72159 10.6208 0.318107
3970 21 232 -8.03215 10.2955 11.7667
3972 21 234 -2.22808 11.3289 12.4307
3962 21 226 7.24809 -22.3777 -4.17406
3681 21 35 3.4585 -23.7957 6.66495
3933 21 207 5.33402 -23.6214 19.7238
3835 21 139 0.360386 -12.2995 0.680422
3978 21 240 2.63804 -10.5315 2.49579
3887 21 173 7.19356 -3.12853 14.0754
3977 21 239 1.21652 0.487546 -9.11811
3949 21 217 4.4161 6.04223 -5.98776
3904 21 186 1.68282 2.32031 5.03173
3822 21 132 0.288981 11.0944 18.2392
3960 21 224 12.8064 -18.5799 -6.24395
3973 21 235 17.0169 -24.1185 -8.96267
3986 21 244 13.8351 -16.9029 -1.84979
3845 21 145 8.34092 -21.7537 13.2851
3747 21 81 16.4269 -19.9084 11.9657
3921 21 199 14.4168 -17.2804 14.6917
3905 21 187 13.4076 -12.6765 -7.73854
3967 21 229 13.54 -16.3709 5.94891
3752 21 86 10.8099 -2.46913 16.3954
3726 21 68 9.10129 -0.545266 -2.11112
3816 21 126 10.4789 5.72946 -9.41852
3702 21 50 10.3031 -1.10571 7.38972
3780 21 102 11.8069 6.02087 13.6352
3654 21 16 15.3996 4.15052 15.525
3886 21 172 8.3079 -0.217731 15.9017
3948 21 216 8.52608 0.632845 12.2749
3844 21 144 17.0595 12.1916 18.2521
ITEM: TIMESTEP
1355000
ITEM: NUMBER OF ATOMS
56
ITEM: BOX BOUNDS pp pp pp
-1.9002957994692007e+01 1.7183938215766570e+01
-2.4317101948606616e+01 1.4089693706519210e+01
-9.5000351922324953e+00 2.0872694014170353e+01
ITEM: ATOMS id type mol x y z
3947 21 215 -13.323 -21.5277 10.3346
3988 21 246 -11.6648 -16.645 1.50052
3989 21 247 -14.0999 -15.4796 0.0271869
3939 21 211 -16.6598 -13.5317 13.6299
3917 21 195 -13.2344 -15.5538 16.1889
3903 21 185 -16.627 -5.48454 -2.77731
3938 21 210 -15.6475 -7.59098 3.67993
3958 21 222 -12.045 -0.991104 7.80029
3847 21 147 -9.99697 7.58928 2.20402
3764 21 94 -18.8785 7.09453 17.2471
3979 21 241 -14.7402 8.29888 18.1658
3641 21 11 -15.7412 11.3244 17.8267
3848 21 148 -2.35494 -17.8562 0.0303933
3803 21 117 -4.02789 -17.8066 -8.52703
3664 21 24 -7.48147 -18.3637 -1.98312
3748 21 82 -5.08737 -20.7677 -1.72842
3902 21 184 -8.87209 -13.496 1.77304
3968 21 230 -4.50539 -9.27432 14.5756
3810 21 122 -9.46211 -14.8843 15.6779
3946 21 214 -3.85322 -13.0954 10.773
3839 21 141 -4.58929 -8.01379 2.86227
3846 21 146 -9.06991 -8.91971 20.0032
3975 21 237 -1.88426 5.5183 -6.00526
3920 21 198 -8.17361 2.10631 -9.05056
3671 21 29 -6.18635 1.57495 5.36319
3760 21 92 -5.17671 -1.2533 15.7722
3881 21 169 -9.78149 10.649 0.373441
3970 21 232 -8.08057 10.323 11.7041
3972 21 234 -2.23704 11.3583 12.3612
3962 21 226 7.30354 -22.4086 -4.07242
3681 21 35 3.48819 -23.8291 6.65487
3933 21 207 5.37646 -23.6545 19.5791
3835 21 139 0.369019 -12.3124 0.732022
3978 21 240 2.66215 -10.5412 2.52867
3887 21 173 7.24864 -3.12498 13.9889
3977 21 239 1.23097 0.497563 -8.96551
3949 21 217 4.4523 6.06218 -5.86743
3904 21 186 1.70045 2.33361 5.03847
3822 21 132 0.297128 11.1233 18.1098
3960 21 224 12.8996 -18.6039 -6.12098
3973 21 235 17.1387 -24.1525 -8.81167
3986 21 244 13.9353 -16.924 -1.77211
3845 21 145 8.4038 -21.7834 13.2068
3747 21 81 16.5447 -19.9348 11.901
3921 21 199 14.521 -17.3021 14.5989
3905 21 187 13.505 -12.69 -7.60016
3967 21 229 13.6383 -16.391 5.9462
3752 21 86 10.8895 -2.4644 16.285
3726 21 68 9.16934 -0.537096 -2.03074
3816 21 126 10.5563 5.74885 -9.26283
3702 21 50 10.3793 -1.09854 7.37216
3780 21 102 11.8934 6.04079 13.5533
3654 21 16 15.5104 4.16709 15.4236
3886 21 172 8.37056 -0.208976 15.7964
3948 21 216 8.59022 0.643121 12.207
3844 21 144 17.1817 12.2225 18.1226
ITEM: TIMESTEP
1360000
ITEM: NUMBER OF ATOMS
56
ITEM: BOX BOUNDS pp pp pp
-1.8878310851008003e+01 1.7059291072082566e+01
-2.4311229709222960e+01 1.4083821467135554e+01
-9.4810136161403129e+00 2.0853672438066678e+01
ITEM: ATOMS id type mol x y z
3947 21 215 -13.2374 -21.5227 10.3288
3988 21 246 -11.5907 -16.6414 1.50576
3989 21 247 -14.009 -15.4765 0.0342752
3939 21 211 -16.5513 -13.5291 13.6199
3917 21 195 -13.1494 -15.5506 16.1757
3903 21 185 -16.5188 -5.48442 -2.76671
3938 21 210 -15.546 -7.59022 3.68245
3958 21 222 -11.9683 -0.992365 7.79764
3847 21 147 -9.93436 7.58539 2.20838
3764 21 94 -18.7547 7.09079 17.2326
3979 21 241 -14.6449 8.29478 18.1502
3641 21 11 -15.639 11.3194 17.8115
3848 21 148 -2.34499 -17.8523 0.0374776
3803 21 117 -4.00641 -17.8027 -8.50923
3664 21 24 -7.43619 -18.3596 -1.97352
3748 21 82 -5.05859 -20.7629 -1.71913
3902 21 184 -8.81723 -13.4934 1.77794
3968 21 230 -4.48062 -9.27305 14.5645
3810 21 122 -9.40319 -14.8813 15.6654
3946 21 214 -3.83294 -13.093 10.7667
3839 21 141 -4.56394 -8.01291 2.86581
3846 21 146 -9.0137 -8.91855 19.9852
3975 21 237 -1.87755 5.51505 -5.99062
3920 21 198 -8.12357 2.10411 -9.0321
3671 21 29 -6.14999 1.57291 5.36359
3760 21 92 -5.14731 -1.25448 15.7595
3881 21 169 -9.72037 10.6442 0.380096
3970 21 232 -8.03117 10.3183 11.6965
3972 21 234 -2.22789 11.3532 12.3529
3962 21 226 7.24696 -22.4033 -4.0602
3681 21 35 3.4579 -23.8234 6.65365
3933 21 207 5.33315 -23.6488 19.5617
3835 21 139 0.360211 -12.3102 0.738227
3978 21 240 2.63755 -10.5396 2.53263
3887 21 173 7.19244 -3.12559 13.9785
3977 21 239 1.21623 0.495847 -8.94716
3949 21 217 4.41536 6.05876 -5.85296
3904 21 186 1.68247 2.33133 5.03929
3822 21 132 0.288815 11.1184 18.0943
3960 21 224 12.8045 -18.5998 -6.10619
3973 21 235 17.0144 -24.1467 -8.79351
3986 21 244 13.8331 -16.9204 -1.76277
3845 21 145 8.33964 -21.7783 13.1974
3747 21 81 16.4245 -19.9303 11.8932
3921 21 199 14.4147 -17.2984 14.5877
3905 21 187 13.4057 -12.6877 -7.58352
3967 21 229 13.538 -16.3875 5.94587
3752 21 86 10.8083 -2.46521 16.2717
3726 21 68 9.0999 -0.538495 -2.02108
3816 21 126 10.4773 5.74553 -9.2441
3702 21 50 10.3016 -1.09977 7.37005
3780 21 102 11.8052 6.03738 13.5434
3654 21 16 15.3973 4.16425 15.4114
3886 21 172 8.30663 -0.210476 15.7837
3948 21 216 8.52478 0.641361 12.1988
3844 21 144 17.057 12.2172 18.107
ITEM: TIMESTEP
1365000
ITEM: NUMBER OF ATOMS
57
ITEM: BOX BOUNDS pp pp pp
-1.9005717269753138e+01 1.7186697490827701e+01
-2.4352240317998781e+01 1.4124832075911375e+01
-9.5507953572082585e+00 2.0923454179094776e+01
ITEM: ATOMS id type mol x y z
3947 21 215 -13.3249 -21.5577 10.3501
3988 21 246 -11.6665 -16.6661 1.48652
3989 21 247 -14.1019 -15.4986 0.00827133
3939 21 211 -16.6622 -13.5471 13.6564
3917 21 195 -13.2362 -15.5729 16.224
3903 21 185 -16.6294 -5.48522 -2.8056
3938 21 210 -15.6498 -7.59551 3.67323
3958 21 222 -12.0467 -0.983561 7.80736
3847 21 147 -9.99835 7.61252 2.19238
3764 21 94 -18.8812 7.11686 17.2857
3979 21 241 -14.7423 8.32342 18.2075
3641 21 11 -15.7435 11.3545 17.8673
3848 21 148 -2.35516 -17.8795 0.0114884
3803 21 117 -4.02836 -17.8298 -8.57454
3664 21 24 -7.48247 -18.3879 -2.00876
3748 21 82 -5.08801 -20.7963 -1.7532
3902 21 184 -8.8733 -13.5113 1.75996
3968 21 230 -4.50594 -9.28194 14.6053
3810 21 122 -9.46341 -14.9022 15.7113
3946 21 214 -3.85367 -13.11 10.79
3839 21 141 -4.58986 -8.0191 2.85283
3846 21 146 -9.07116 -8.92668 20.051
3975 21 237 -1.88441 5.53775 -6.04434
3920 21 198 -8.17472 2.11952 -9.09982
3671 21 29 -6.18715 1.58719 5.36211
3760 21 92 -5.17736 -1.24624 15.8059
3881 21 169 -9.78284 10.6778 0.355683
3970 21 232 -8.08166 10.3513 11.7242
3972 21 234 -2.23724 11.3884 12.3835
3962 21 226 7.30479 -22.4402 -4.10504
3681 21 35 3.48886 -23.8634 6.6581
3933 21 207 5.37742 -23.6884 19.6255
3835 21 139 0.369214 -12.3255 0.715462
3978 21 240 2.6627 -10.5511 2.51812
3887 21 173 7.24988 -3.12135 14.0167
3977 21 239 1.2313 0.50783 -9.01448
3949 21 217 4.45312 6.08263 -5.90605
3904 21 186 1.70084 2.34723 5.03631
3999 21 251 -0.0670561 3.27098 20.1746
3822 21 132 0.297312 11.1531 18.1513
3960 21 224 12.9017 -18.6286 -6.16044
3973 21 235 17.1415 -24.1874 -8.86013
3986 21 244 13.9376 -16.9456 -1.79704
3845 21 145 8.40522 -21.8139 13.2319
3747 21 81 16.5474 -19.9619 11.9217
3921 21 199 14.5233 -17.3244 14.6286
3905 21 187 13.5072 -12.7039 -7.64457
3967 21 229 13.6405 -16.4116 5.94707
3752 21 86 10.8913 -2.45955 16.3204
3726 21 68 9.17087 -0.528722 -2.05654
3816 21 126 10.558 5.76873 -9.31279
3702 21 50 10.3811 -1.09119 7.3778
3780 21 102 11.8953 6.0612 13.5795
3654 21 16 15.5129 4.18407 15.4562
3886 21 172 8.37198 -0.200001 15.8302
3948 21 216 8.59167 0.653655 12.2288
3844 21 144 17.1844 12.2542 18.1642
ITEM: TIMESTEP
1370000
ITEM: NUMBER OF ATOMS
58
ITEM: BOX BOUNDS pp pp pp
-1.8755346098795052e+01 1.6936326319869615e+01
-2.4465605475886999e+01 1.4238197233799593e+01
-9.6725573045093718e+00 2.1045216126339003e+01
ITEM: ATOMS id type mol x y z
3947 21 215 -13.1531 -21.6546 10.3874
3988 21 246 -11.5176 -16.7341 1.45296
3989 21 247 -13.9194 -15.5598 -0.0371028
3939 21 211 -16.4443 -13.5968 13.7201
3917 21 195 -13.0657 -15.6346 16.3082
3903 21 185 -16.412 -5.48741 -2.87346
3938 21 210 -15.4458 -7.61013 3.65714
3958 21 222 -11.8926 -0.959224 7.82431
3847 21 147 -9.87261 7.68751 2.16446
3764 21 94 -18.6326 7.18893 17.3784
3979 21 241 -14.5509 8.4026 18.3076
3641 21 11 -15.5382 11.4515 17.9647
3848 21 148 -2.33516 -17.9548 -0.03386
3803 21 117 -3.98521 -17.9047 -8.6885
3664 21 24 -7.39153 -18.4661 -2.07025
3748 21 82 -5.0302 -20.8887 -1.81265
3902 21 184 -8.76312 -13.5608 1.72859
3968 21 230 -4.45618 -9.3065 14.6766
3810 21 122 -9.34507 -14.9599 15.7914
3946 21 214 -3.81294 -13.1571 10.8308
3839 21 141 -4.53894 -8.03622 2.83019
3846 21 146 -8.95824 -8.94915 20.1658
3975 21 237 -1.87092 5.60052 -6.13808
3920 21 198 -8.0742 2.16215 -9.21798
3671 21 29 -6.11413 1.62668 5.35952
3760 21 92 -5.11831 -1.22345 15.8867
3881 21 169 -9.66007 10.7709 0.313085
3970 21 232 -7.98243 10.4424 11.7724
3972 21 234 -2.21887 11.4857 12.4371
3962 21 226 7.19114 -22.5423 -4.18328
3681 21 35 3.42801 -23.9739 6.66587
3933 21 207 5.29043 -23.7979 19.7369
3835 21 139 0.351522 -12.368 0.675739
3978 21 240 2.61327 -10.5832 2.4928
3887 21 173 7.13699 -3.10961 14.0832
3977 21 239 1.20168 0.540956 -9.13196
3949 21 217 4.37892 6.1486 -5.99869
3904 21 186 1.66473 2.3912 5.03111
3999 21 251 -0.0787119 3.32038 20.2903
3822 21 132 0.280615 11.2489 18.251
3960 21 224 12.7106 -18.7083 -6.25511
3973 21 235 16.8917 -24.2997 -8.97637
3986 21 244 13.7322 -17.0153 -1.85684
3845 21 145 8.27635 -21.9123 13.2922
3747 21 81 16.3059 -20.0494 11.9716
3921 21 199 14.3098 -17.3964 14.7001
3905 21 187 13.3077 -12.7486 -7.7511
3967 21 229 13.4392 -16.4782 5.94915
3752 21 86 10.7281 -2.44391 16.4054
3726 21 68 9.03141 -0.501704 -2.11841
3816 21 126 10.3994 5.83286 -9.43265
3702 21 50 10.2248 -1.06749 7.39131
4000 21 252 15.103 3.36754 4.26312
3780 21 102 11.7181 6.12705 13.6426
3654 21 16 15.2857 4.23886 15.5342
3886 21 172 8.24356 -0.171047 15.9112
3948 21 216 8.46022 0.68764 12.2811
3844 21 144 16.9341 12.3566 18.2639
ITEM: TIMESTEP
1375000
ITEM: NUMBER OF ATOMS
55
ITEM: BOX BOUNDS pp pp pp
-1.8755710653534056e+01 1.6936690874608619e+01
-2.4524417834379747e+01 1.4297009592292341e+01
-9.6084761921447530e+00 2.0981135013977219e+01
ITEM: ATOMS id type mol x y z
3947 21 215 -13.1533 -21.7049 10.3678
3939 21 211 -16.4446 -13.6225 13.6866
3917 21 195 -13.0659 -15.6665 16.2639
3903 21 185 -16.4123 -5.48854 -2.83775
3938 21 210 -15.4461 -7.61772 3.66561
3958 21 222 -11.8929 -0.946598 7.81539
3847 21 147 -9.87279 7.72641 2.17915
3764 21 94 -18.6329 7.22632 17.3296
3979 21 241 -14.5512 8.44368 18.2549
3641 21 11 -15.5385 11.5019 17.9134
3848 21 148 -2.33519 -17.9938 -0.00999393
3803 21 117 -3.98528 -17.9436 -8.62853
3664 21 24 -7.39166 -18.5067 -2.03789
3748 21 82 -5.03028 -20.9367 -1.78136
3902 21 184 -8.76328 -13.5865 1.7451
3968 21 230 -4.45626 -9.31924 14.6391
3810 21 122 -9.34524 -14.9898 15.7493
3946 21 214 -3.813 -13.1816 10.8093
3839 21 141 -4.53901 -8.0451 2.8421
3846 21 146 -8.9584 -8.9608 20.1054
3975 21 237 -1.87094 5.63308 -6.08875
3920 21 198 -8.07435 2.18426 -9.15579
3671 21 29 -6.11424 1.64716 5.36088
3760 21 92 -5.1184 -1.21162 15.8442
3881 21 169 -9.66025 10.8191 0.335504
3970 21 232 -7.98258 10.4897 11.747
3972 21 234 -2.2189 11.5361 12.4089
3962 21 226 7.19131 -22.5953 -4.1421
3681 21 35 3.4281 -24.0312 6.66178
3933 21 207 5.29056 -23.8547 19.6783
3835 21 139 0.351548 -12.3901 0.696645
3978 21 240 2.61335 -10.5998 2.50613
3887 21 173 7.13716 -3.10351 14.0482
3977 21 239 1.20172 0.558141 -9.07013
3949 21 217 4.37903 6.18283 -5.94993
3904 21 186 1.66478 2.414 5.03385
3999 21 251 -0.0786949 3.34602 20.2294
3822 21 132 0.280639 11.2986 18.1985
3960 21 224 12.7109 -18.7496 -6.20529
3986 21 244 13.7325 -17.0515 -1.82537
3845 21 145 8.27653 -21.9634 13.2605
3747 21 81 16.3062 -20.0948 11.9453
3921 21 199 14.3101 -17.4337 14.6625
3905 21 187 13.308 -12.7718 -7.69504
3967 21 229 13.4395 -16.5127 5.94805
3752 21 86 10.7283 -2.4358 16.3607
3726 21 68 9.03161 -0.487688 -2.08585
3816 21 126 10.3996 5.86612 -9.36957
3702 21 50 10.2251 -1.05519 7.3842
4000 21 252 15.1034 3.39332 4.26906
3780 21 102 11.7184 6.16121 13.6094
3654 21 16 15.2861 4.26728 15.4932
3886 21 172 8.24375 -0.156025 15.8686
3948 21 216 8.46041 0.705271 12.2536
3844 21 144 16.9345 12.4097 18.2114
ITEM: TIMESTEP
1380000
ITEM: NUMBER OF ATOMS
54
ITEM: BOX BOUNDS pp pp pp
-1.8724435052402651e+01 1.6905415273477214e+01
-2.4370885949541748e+01 1.4143477707454341e+01
-9.7476446912628134e+00 2.1120303513032773e+01
ITEM: ATOMS id type mol x y z
3947 21 215 -13.1319 -21.5737 10.4104
3939 21 211 -16.4173 -13.5552 13.7594
3917 21 195 -13.0446 -15.5831 16.3601
3903 21 185 -16.3851 -5.48558 -2.91531
3938 21 210 -15.4206 -7.59791 3.64722
3958 21 222 -11.8736 -0.979558 7.83476
3847 21 147 -9.85708 7.62485 2.14724
3764 21 94 -18.6019 7.12872 17.4355
3979 21 241 -14.5273 8.33644 18.3693
3641 21 11 -15.5129 11.3705 18.0247
3848 21 148 -2.33269 -17.8919 -0.0618252
3803 21 117 -3.97989 -17.8421 -8.75878
3664 21 24 -7.3803 -18.4008 -2.10817
3748 21 82 -5.02306 -20.8115 -1.84931
3902 21 184 -8.74951 -13.5195 1.70924
3968 21 230 -4.45004 -9.28598 14.7205
3810 21 122 -9.33046 -14.9117 15.8408
3946 21 214 -3.80791 -13.1178 10.856
3839 21 141 -4.53265 -8.02192 2.81622
3846 21 146 -8.9443 -8.93037 20.2366
3975 21 237 -1.86926 5.54807 -6.19589
3920 21 198 -8.06179 2.12654 -9.29084
3671 21 29 -6.10512 1.59369 5.35792
3760 21 92 -5.11102 -1.24249 15.9366
3881 21 169 -9.64492 10.6931 0.286816
3970 21 232 -7.97018 10.3663 11.8022
3972 21 234 -2.2166 11.4044 12.4701
3962 21 226 7.17711 -22.457 -4.23153
3681 21 35 3.4205 -23.8816 6.67066
3933 21 207 5.27969 -23.7064 19.8056
3835 21 139 0.349338 -12.3325 0.651243
3978 21 240 2.60717 -10.5564 2.47719
3887 21 173 7.12306 -3.11941 14.1243
3977 21 239 1.19802 0.513279 -9.2044
3949 21 217 4.36976 6.09348 -6.05581
3904 21 186 1.66027 2.35446 5.02791
3999 21 251 -0.0801509 3.2791 20.3617
3822 21 132 0.278553 11.1688 18.3124
3960 21 224 12.687 -18.6417 -6.31349
3986 21 244 13.7068 -16.9571 -1.89372
3845 21 145 8.26044 -21.8301 13.3294
3747 21 81 16.276 -19.9763 12.0023
3921 21 199 14.2834 -17.3362 14.7442
3905 21 187 13.2831 -12.7113 -7.8168
3967 21 229 13.4143 -16.4226 5.95044
3752 21 86 10.7079 -2.45698 16.4578
3726 21 68 9.01419 -0.524278 -2.15657
3816 21 126 10.3798 5.77928 -9.50657
3702 21 50 10.2056 -1.08729 7.39965
3780 21 102 11.6963 6.07203 13.6815
3654 21 16 15.2577 4.19308 15.5824
3886 21 172 8.22771 -0.195239 15.9612
3948 21 216 8.44399 0.659245 12.3133
3844 21 144 16.9032 12.2711 18.3254
ITEM: TIMESTEP
1385000
ITEM: NUMBER OF ATOMS
54
ITEM: BOX BOUNDS pp pp pp
-1.8813347015699964e+01 1.6994327236774527e+01
-2.4366468526479228e+01 1.4139060284391821e+01
-9.6862633424462992e+00 2.1058922164218295e+01
ITEM: ATOMS id type mol x y z
3947 21 215 -13.1929 -21.5699 10.3916
3939 21 211 -16.4947 -13.5533 13.7273
3917 21 195 -13.1052 -15.5807 16.3177
3903 21 185 -16.4623 -5.48549 -2.8811
3938 21 210 -15.4931 -7.59734 3.65533
3958 21 222 -11.9283 -0.980506 7.82621
3847 21 147 -9.90174 7.62193 2.16132
3764 21 94 -18.6902 7.12591 17.3888
3979 21 241 -14.5952 8.33336 18.3188
3641 21 11 -15.5858 11.3667 17.9756
3848 21 148 -2.3398 -17.889 -0.0389646
3803 21 117 -3.99521 -17.8392 -8.70133
3664 21 24 -7.4126 -18.3977 -2.07717
3748 21 82 -5.04359 -20.8079 -1.81934
3902 21 184 -8.78864 -13.5175 1.72505
3968 21 230 -4.46771 -9.28502 14.6846
3810 21 122 -9.37248 -14.9094 15.8005
3946 21 214 -3.82238 -13.1159 10.8354
3839 21 141 -4.55073 -8.02125 2.82764
3846 21 146 -8.9844 -8.9295 20.1787
3975 21 237 -1.87405 5.54563 -6.14864
3920 21 198 -8.09749 2.12487 -9.23128
3671 21 29 -6.13105 1.59215 5.35923
3760 21 92 -5.13199 -1.24337 15.8959
3881 21 169 -9.68851 10.6895 0.30829
3970 21 232 -8.00542 10.3627 11.7779
3972 21 234 -2.22313 11.4006 12.4431
3962 21 226 7.21747 -22.453 -4.19209
3681 21 35 3.44211 -23.8773 6.66674
3933 21 207 5.31058 -23.7022 19.7495
3835 21 139 0.355621 -12.3309 0.671268
3978 21 240 2.62472 -10.5552 2.48995
3887 21 173 7.16315 -3.11987 14.0907
3977 21 239 1.20854 0.511988 -9.14518
3949 21 217 4.39611 6.09091 -6.00911
3904 21 186 1.6731 2.35275 5.03053
3999 21 251 -0.0760117 3.27718 20.3034
3822 21 132 0.284483 11.1651 18.2622
3960 21 224 12.7549 -18.6386 -6.26577
3986 21 244 13.7798 -16.9544 -1.86357
3845 21 145 8.3062 -21.8263 13.299
3747 21 81 16.3618 -19.9729 11.9772
3921 21 199 14.3593 -17.3334 14.7081
3905 21 187 13.3539 -12.7095 -7.76309
3967 21 229 13.4858 -16.42 5.94939
3752 21 86 10.7659 -2.45759 16.415
3726 21 68 9.06371 -0.525331 -2.12538
3816 21 126 10.4361 5.77678 -9.44615
3702 21 50 10.261 -1.08822 7.39284
3780 21 102 11.7592 6.06946 13.6497
3654 21 16 15.3384 4.19095 15.543
3886 21 172 8.27331 -0.196367 15.9204
3948 21 216 8.49067 0.65792 12.287
3844 21 144 16.9921 12.2671 18.2751
ITEM: TIMESTEP
1390000
ITEM: NUMBER OF ATOMS
52
ITEM: BOX BOUNDS pp pp pp
-1.8755913261796948e+01 1.6936893482871511e+01
-2.4496838854187242e+01 1.4269430612099836e+01
-9.5916327339786243e+00 2.0964291555763658e+01
ITEM: ATOMS id type mol x y z
3947 21 215 -13.1535 -21.6813 10.3626
3939 21 211 -16.4447 -13.6104 13.6778
3917 21 195 -13.0661 -15.6516 16.2522
3903 21 185 -16.4124 -5.48801 -2.82836
3938 21 210 -15.4463 -7.61416 3.66783
3958 21 222 -11.893 -0.952518 7.81304
3847 21 147 -9.87289 7.70817 2.18301
3764 21 94 -18.6331 7.20879 17.3168
3979 21 241 -14.5513 8.42441 18.2411
3641 21 11 -15.5387 11.4783 17.9
3848 21 148 -2.33521 -17.9755 -0.00372083
3803 21 117 -3.98531 -17.9254 -8.61276
3748 21 82 -5.03033 -20.9142 -1.77314
3902 21 184 -8.76337 -13.5744 1.74944
3968 21 230 -4.4563 -9.31327 14.6292
3810 21 122 -9.34533 -14.9758 15.7382
3946 21 214 -3.81303 -13.1701 10.8037
3839 21 141 -4.53905 -8.04094 2.84523
3846 21 146 -8.95849 -8.95534 20.0895
3975 21 237 -1.87095 5.61781 -6.07578
3920 21 198 -8.07443 2.17389 -9.13945
3671 21 29 -6.1143 1.63756 5.36124
3881 21 169 -9.66035 10.7965 0.341396
3970 21 232 -7.98266 10.4675 11.7404
3972 21 234 -2.21891 11.5125 12.4015
3962 21 226 7.1914 -22.5705 -4.13128
3681 21 35 3.42815 -24.0043 6.66071
3933 21 207 5.29063 -23.828 19.6629
3835 21 139 0.351562 -12.3797 0.70214
3978 21 240 2.61339 -10.592 2.50963
3887 21 173 7.13725 -3.10637 14.039
3977 21 239 1.20175 0.550082 -9.05388
3949 21 217 4.37909 6.16678 -5.93712
3904 21 186 1.66481 2.40331 5.03457
3999 21 251 -0.0786855 3.334 20.2134
3822 21 132 0.280653 11.2753 18.1848
3960 21 224 12.7111 -18.7302 -6.19219
3986 21 244 13.7327 -17.0345 -1.8171
3845 21 145 8.27664 -21.9395 13.2522
3747 21 81 16.3064 -20.0735 11.9384
3921 21 199 14.3103 -17.4162 14.6526
3905 21 187 13.3082 -12.7609 -7.6803
3967 21 229 13.4396 -16.4965 5.94777
3752 21 86 10.7284 -2.4396 16.3489
3726 21 68 9.03172 -0.494261 -2.07729
3816 21 126 10.3997 5.85052 -9.35299
3702 21 50 10.2252 -1.06096 7.38233
3780 21 102 11.7185 6.14519 13.6007
3654 21 16 15.2862 4.25396 15.4824
3886 21 172 8.24385 -0.163069 15.8574
3948 21 216 8.46052 0.697003 12.2463
3844 21 144 16.9347 12.3848 18.1976
ITEM: TIMESTEP
1395000
ITEM: NUMBER OF ATOMS
52
ITEM: BOX BOUNDS pp pp pp
-1.8687792713008964e+01 1.6868772934083527e+01
-2.4468147781666133e+01 1.4240739539578726e+01
-9.6863479730574227e+00 2.1059006794793913e+01
ITEM: ATOMS id type mol x y z
3947 21 215 -13.1067 -21.6568 10.3916
3939 21 211 -16.3854 -13.5979 13.7273
3917 21 195 -13.0197 -15.636 16.3177
3903 21 185 -16.3533 -5.48745 -2.88115
3938 21 210 -15.3908 -7.61046 3.65532
3958 21 222 -11.8511 -0.958678 7.82623
3847 21 147 -9.83868 7.68919 2.1613
3764 21 94 -18.5655 7.19055 17.3889
3979 21 241 -14.4993 8.40438 18.3189
3641 21 11 -15.4828 11.4537 17.9757
3848 21 148 -2.32977 -17.9564 -0.0389961
3803 21 117 -3.97357 -17.9064 -8.70141
3748 21 82 -5.0146 -20.8908 -1.81938
3902 21 184 -8.73339 -13.5619 1.72503
3968 21 230 -4.44276 -9.30705 14.6847
3810 21 122 -9.31313 -14.9612 15.8005
3946 21 214 -3.80195 -13.1582 10.8354
3839 21 141 -4.5252 -8.0366 2.82762
3846 21 146 -8.92777 -8.94965 20.1788
3975 21 237 -1.86728 5.60192 -6.1487
3920 21 198 -8.04708 2.1631 -9.23136
3671 21 29 -6.09443 1.62756 5.35922
3881 21 169 -9.62695 10.773 0.30826
3970 21 232 -7.95566 10.4445 11.7779
3972 21 234 -2.21392 11.4878 12.4431
3962 21 226 7.16048 -22.5446 -4.19214
3681 21 35 3.41159 -23.9764 6.66675
3933 21 207 5.26696 -23.8003 19.7495
3835 21 139 0.346749 -12.369 0.67124
3978 21 240 2.59994 -10.5839 2.48994
3887 21 173 7.10654 -3.10934 14.0908
3977 21 239 1.19369 0.541699 -9.14527
3949 21 217 4.3589 6.15008 -6.00918
3904 21 186 1.65498 2.39218 5.03053
3999 21 251 -0.0818568 3.32149 20.3034
3822 21 132 0.27611 11.2511 18.2622
3960 21 224 12.6591 -18.71 -6.26583
3986 21 244 13.6768 -17.0169 -1.86361
3845 21 145 8.24157 -21.9145 13.2991
3747 21 81 16.2407 -20.0514 11.9772
3921 21 199 14.2522 -17.398 14.7082
3905 21 187 13.2539 -12.7496 -7.76317
3967 21 229 13.3848 -16.4797 5.94939
3752 21 86 10.684 -2.44356 16.415
3726 21 68 8.99378 -0.501098 -2.12542
3816 21 126 10.3566 5.83429 -9.44623
3702 21 50 10.1827 -1.06696 7.39284
3780 21 102 11.6703 6.12852 13.6498
3654 21 16 15.2244 4.24009 15.5431
3886 21 172 8.20891 -0.170397 15.9204
3948 21 216 8.42475 0.688402 12.287
3844 21 144 16.8666 12.3589 18.2752
ITEM: TIMESTEP
1400000
ITEM: NUMBER OF ATOMS
52
ITEM: BOX BOUNDS pp pp pp
-1.8875581222613683e+01 1.7056561443688246e+01
-2.4244289253019755e+01 1.4016881010932348e+01
-9.6170341972338633e+00 2.0989693018975476e+01
ITEM: ATOMS id type mol x y z
3947 21 215 -13.2356 -21.4655 10.3704
3939 21 211 -16.5489 -13.4997 13.6911
3917 21 195 -13.1476 -15.5143 16.2698
3903 21 185 -16.5164 -5.48313 -2.84252
3938 21 210 -15.5438 -7.58158 3.66448
3958 21 222 -11.9666 -1.00674 7.81658
3847 21 147 -9.93299 7.54111 2.17719
3764 21 94 -18.752 7.04824 17.3361
3979 21 241 -14.6428 8.24802 18.262
3641 21 11 -15.6368 11.2621 17.9203
3848 21 148 -2.34477 -17.8079 -0.0131812
3803 21 117 -4.00594 -17.7585 -8.63654
3748 21 82 -5.05796 -20.7083 -1.78554
3902 21 184 -8.81603 -13.4642 1.74289
3968 21 230 -4.48008 -9.25855 14.6441
3810 21 122 -9.4019 -14.8473 15.7549
3946 21 214 -3.8325 -13.0651 10.8122
3839 21 141 -4.56339 -8.0028 2.84051
3846 21 146 -9.01247 -8.90528 20.1135
3975 21 237 -1.8774 5.47798 -6.09534
3920 21 198 -8.12247 2.07894 -9.1641
3671 21 29 -6.1492 1.54959 5.3607
3881 21 169 -9.71903 10.5892 0.33251
3970 21 232 -8.03009 10.2645 11.7504
3972 21 234 -2.22769 11.2958 12.4127
3962 21 226 7.24572 -22.343 -4.1476
3681 21 35 3.45723 -23.7582 6.66233
3933 21 207 5.33221 -23.5842 19.6861
3835 21 139 0.360018 -12.2851 0.693853
3978 21 240 2.63701 -10.5206 2.50435
3887 21 173 7.19121 -3.13253 14.0529
3977 21 239 1.2159 0.476287 -9.07839
3949 21 217 4.41455 6.0198 -5.95644
3904 21 186 1.68207 2.30537 5.03348
3999 21 251 -0.0731145 3.22393 20.2375
3822 21 132 0.288633 11.0618 18.2055
3960 21 224 12.8024 -18.5528 -6.21194
3986 21 244 13.8308 -16.8792 -1.82957
3845 21 145 8.33824 -21.7202 13.2648
3747 21 81 16.4218 -19.8786 11.9488
3921 21 199 14.4123 -17.2559 14.6675
3905 21 187 13.4035 -12.6613 -7.70253
3967 21 229 13.5358 -16.3482 5.9482
3752 21 86 10.8065 -2.47444 16.3667
3726 21 68 9.09838 -0.554449 -2.0902
3816 21 126 10.4756 5.70767 -9.378
3702 21 50 10.2999 -1.11376 7.38515
3780 21 102 11.8032 5.99849 13.6139
3654 21 16 15.3948 4.1319 15.4986
3886 21 172 8.30523 -0.227573 15.8743
3948 21 216 8.52335 0.621293 12.2572
3844 21 144 17.0543 12.1568 18.2184
ITEM: TIMESTEP
1405000
ITEM: NUMBER OF ATOMS
53
ITEM: BOX BOUNDS pp pp pp
-1.8703415896741770e+01 1.6884396117816333e+01
-2.4384978136102998e+01 1.4157569894015591e+01
-9.7373512249196921e+00 2.1110010046604057e+01
ITEM: ATOMS id type mol x y z
3947 21 215 -13.1175 -21.5857 10.4072
3939 21 211 -16.399 -13.5614 13.754
3917 21 195 -13.0303 -15.5907 16.353
3903 21 185 -16.3668 -5.48585 -2.90957
3938 21 210 -15.4035 -7.59973 3.64858
3958 21 222 -11.8607 -0.976533 7.83333
3847 21 147 -9.84652 7.63418 2.1496
3764 21 94 -18.581 7.13768 17.4277
3979 21 241 -14.5112 8.34629 18.3608
3641 21 11 -15.4956 11.3825 18.0165
3848 21 148 -2.33101 -17.9013 -0.0579915
3803 21 117 -3.97626 -17.8515 -8.74914
3748 21 82 -5.01821 -20.823 -1.84429
3902 21 184 -8.74026 -13.5256 1.71189
3968 21 230 -4.44586 -9.28903 14.7145
3810 21 122 -9.32052 -14.9189 15.8341
3946 21 214 -3.80449 -13.1236 10.8525
3839 21 141 -4.52837 -8.02404 2.81814
3846 21 146 -8.93482 -8.93317 20.2269
3975 21 237 -1.86812 5.55588 -6.18797
3920 21 198 -8.05335 2.13183 -9.28085
3671 21 29 -6.09899 1.5986 5.35814
3881 21 169 -9.63461 10.7047 0.290417
3970 21 232 -7.96185 10.3776 11.7981
3972 21 234 -2.21506 11.4165 12.4655
3962 21 226 7.16757 -22.4697 -4.22492
3681 21 35 3.41539 -23.8953 6.67
3933 21 207 5.27239 -23.72 19.7962
3835 21 139 0.347853 -12.3378 0.654601
3978 21 240 2.60302 -10.5604 2.47933
3887 21 173 7.11358 -3.11796 14.1187
3977 21 239 1.19553 0.517396 -9.19447
3949 21 217 4.36353 6.10168 -6.04798
3904 21 186 1.65724 2.35993 5.02835
3999 21 251 -0.0811295 3.28524 20.3519
3822 21 132 0.277152 11.1807 18.304
3960 21 224 12.671 -18.6516 -6.30549
3986 21 244 13.6896 -16.9658 -1.88866
3845 21 145 8.24962 -21.8423 13.3243
3747 21 81 16.2558 -19.9872 11.9981
3921 21 199 14.2655 -17.3452 14.7381
3905 21 187 13.2663 -12.7168 -7.80779
3967 21 229 13.3974 -16.4308 5.95026
4003 21 253 14.844 -9.34822 20.5882
3752 21 86 10.6942 -2.45503 16.4506
3726 21 68 9.00248 -0.52092 -2.15134
3816 21 126 10.3665 5.78725 -9.49644
3702 21 50 10.1924 -1.08435 7.39851
3780 21 102 11.6814 6.08021 13.6762
3654 21 16 15.2386 4.19989 15.5758
3886 21 172 8.21693 -0.19164 15.9544
3948 21 216 8.43295 0.663469 12.3089
3844 21 144 16.8822 12.2838 18.317
ITEM: TIMESTEP
1410000
ITEM: NUMBER OF ATOMS
50
ITEM: BOX BOUNDS pp pp pp
-1.8824871452708489e+01 1.7005851673783052e+01
-2.4395888928447576e+01 1.4168480686360169e+01
-9.5135145632700073e+00 2.0886173385010316e+01
ITEM: ATOMS id type mol x y z
3947 21 215 -13.2008 -21.595 10.3387
3939 21 211 -16.5048 -13.5662 13.6369
3903 21 185 -16.4723 -5.48606 -2.78482
3938 21 210 -15.5025 -7.60114 3.67815
3958 21 222 -11.9354 -0.97419 7.80217
3847 21 147 -9.90752 7.64139 2.20093
3764 21 94 -18.7016 7.14461 17.2573
3979 21 241 -14.604 8.35391 18.1769
3641 21 11 -15.5952 11.3919 17.8375
3848 21 148 -2.34072 -17.9085 0.0253731
3803 21 117 -3.9972 -17.8587 -8.53965
3748 21 82 -5.04625 -20.8319 -1.735
3902 21 184 -8.79371 -13.5304 1.76957
3968 21 230 -4.47 -9.29139 14.5835
3810 21 122 -9.37793 -14.9244 15.6868
3946 21 214 -3.82425 -13.1282 10.7775
3839 21 141 -4.55308 -8.02569 2.85976
3846 21 146 -8.9896 -8.93533 20.0159
3920 21 198 -8.10212 2.13594 -9.06364
3671 21 29 -6.13441 1.6024 5.3629
3881 21 169 -9.69417 10.7136 0.368725
3970 21 232 -8.00999 10.3864 11.7094
3972 21 234 -2.22397 11.4259 12.3672
3962 21 226 7.2227 -22.4795 -4.08108
3681 21 35 3.44491 -23.9059 6.65572
3933 21 207 5.31459 -23.7306 19.5914
3835 21 139 0.356435 -12.3419 0.727625
3978 21 240 2.627 -10.5635 2.52587
3887 21 173 7.16834 -3.11683 13.9963
3977 21 239 1.2099 0.520584 -8.97852
3949 21 217 4.39952 6.10803 -5.87769
3904 21 186 1.67476 2.36416 5.0379
3999 21 251 -0.0754752 3.29 20.1391
3960 21 224 12.7637 -18.6593 -6.13146
3986 21 244 13.7892 -16.9725 -1.77873
3845 21 145 8.31213 -21.8518 13.2135
3747 21 81 16.3729 -19.9956 11.9065
3921 21 199 14.3691 -17.3521 14.6068
3905 21 187 13.3631 -12.7211 -7.61196
3967 21 229 13.4951 -16.4372 5.94643
4003 21 253 14.9515 -9.35061 20.3719
3752 21 86 10.7734 -2.45353 16.2944
3726 21 68 9.07013 -0.518319 -2.03759
3816 21 126 10.4434 5.79342 -9.2761
3702 21 50 10.2682 -1.08207 7.37366
3780 21 102 11.7673 6.08655 13.5602
3654 21 16 15.3488 4.20517 15.4323
3886 21 172 8.27922 -0.188853 15.8054
3948 21 216 8.49672 0.66674 12.2128
3844 21 144 17.0036 12.2936 18.1337
ITEM: TIMESTEP
1415000
ITEM: NUMBER OF ATOMS
50
ITEM: BOX BOUNDS pp pp pp
-1.8974967344145863e+01 1.7155947565220426e+01
-2.4255522983248483e+01 1.4028114741161076e+01
-9.5721959024507335e+00 2.0944854724153640e+01
ITEM: ATOMS id type mol x y z
3947 21 215 -13.3038 -21.4751 10.3567
3939 21 211 -16.6354 -13.5047 13.6676
3903 21 185 -16.6027 -5.48335 -2.81753
3938 21 210 -15.6247 -7.58303 3.6704
3958 21 222 -12.0278 -1.00432 7.81034
3847 21 147 -9.98291 7.54854 2.18747
3764 21 94 -18.8507 7.05538 17.302
3979 21 241 -14.7188 8.25587 18.2251
3641 21 11 -15.7182 11.2717 17.8844
3848 21 148 -2.35271 -17.8154 0.00351813
3803 21 117 -4.02306 -17.7659 -8.59457
3748 21 82 -5.08091 -20.7175 -1.76365
3902 21 184 -8.85977 -13.4691 1.75445
3968 21 230 -4.49983 -9.26098 14.6179
3810 21 122 -9.44888 -14.853 15.7254
3946 21 214 -3.84867 -13.0698 10.7972
3839 21 141 -4.5836 -8.00449 2.84885
3846 21 146 -9.05729 -8.90751 20.0712
3920 21 198 -8.16238 2.08316 -9.12059
3671 21 29 -6.17818 1.55351 5.36165
3881 21 169 -9.76776 10.5984 0.348196
3970 21 232 -8.06948 10.2735 11.7327
3972 21 234 -2.23499 11.3055 12.3929
3962 21 226 7.29083 -22.3531 -4.11879
3681 21 35 3.48139 -23.7691 6.65947
3933 21 207 5.36673 -23.595 19.6451
3835 21 139 0.367041 -12.2893 0.708481
3978 21 240 2.65663 -10.5238 2.51367
3887 21 173 7.23602 -3.13136 14.0284
3977 21 239 1.22766 0.479569 -9.03513
3949 21 217 4.444 6.02634 -5.92233
3904 21 186 1.69641 2.30972 5.0354
3999 21 251 -0.0684876 3.22882 20.1949
3960 21 224 12.8783 -18.5607 -6.17708
3986 21 244 13.9124 -16.8861 -1.80755
3845 21 145 8.38939 -21.73 13.2425
3747 21 81 16.5177 -19.8873 11.9305
3921 21 199 14.4971 -17.263 14.6412
3905 21 187 13.4827 -12.6657 -7.6633
3967 21 229 13.6157 -16.3548 5.94743
4003 21 253 15.0844 -9.31977 20.4286
3752 21 86 10.8713 -2.47289 16.3354
3726 21 68 9.15374 -0.551772 -2.06741
3816 21 126 10.5385 5.71402 -9.33386
3702 21 50 10.3619 -1.11141 7.38017
3780 21 102 11.8736 6.00502 13.5906
3654 21 16 15.485 4.13733 15.4699
3886 21 172 8.3562 -0.224704 15.8444
3948 21 216 8.57553 0.624661 12.238
3844 21 144 17.1537 12.1669 18.1817
ITEM: TIMESTEP
1420000
ITEM: NUMBER OF ATOMS
50
ITEM: BOX BOUNDS pp pp pp
-1.8835317027015549e+01 1.7016297248090112e+01
-2.4139022630107064e+01 1.3911614388019657e+01
-9.7535017078755466e+00 2.1126160529500524e+01
ITEM: ATOMS id type mol x y z
3947 21 215 -13.2079 -21.3755 10.4122
3939 21 211 -16.5139 -13.4536 13.7624
3903 21 185 -16.4814 -5.4811 -2.91857
3938 21 210 -15.511 -7.568 3.64645
3958 21 222 -11.9419 -1.02933 7.83557
3847 21 147 -9.91277 7.47148 2.1459
3764 21 94 -18.712 6.98131 17.44
3979 21 241 -14.612 8.1745 18.3741
3641 21 11 -15.6038 11.172 18.0294
3848 21 148 -2.34155 -17.7381 -0.0640065
3803 21 117 -3.999 -17.6889 -8.76426
3748 21 82 -5.04866 -20.6225 -1.85217
3902 21 184 -8.79831 -13.4183 1.70773
3968 21 230 -4.47208 -9.23574 14.724
3810 21 122 -9.38287 -14.7937 15.8447
3946 21 214 -3.82595 -13.0214 10.8579
3839 21 141 -4.5552 -7.9869 2.81513
3846 21 146 -8.99431 -8.88442 20.2421
3920 21 198 -8.10631 2.03936 -9.29652
3671 21 29 -6.13745 1.51293 5.3578
3881 21 169 -9.69929 10.5028 0.284767
3970 21 232 -8.01413 10.1799 11.8045
3972 21 234 -2.22474 11.2055 12.4726
3962 21 226 7.22744 -22.2482 -4.2353
3681 21 35 3.44745 -23.6556 6.67103
3933 21 207 5.31822 -23.4826 19.811
3835 21 139 0.357173 -12.2456 0.649333
3978 21 240 2.62906 -10.4909 2.47597
3887 21 173 7.17305 -3.14343 14.1275
3977 21 239 1.21114 0.445528 -9.21006
3949 21 217 4.40262 5.95854 -6.06027
3904 21 186 1.67626 2.26454 5.02766
3999 21 251 -0.0749889 3.17805 20.3673
3960 21 224 12.7717 -18.4788 -6.31805
3986 21 244 13.7978 -16.8145 -1.8966
3845 21 145 8.31751 -21.6288 13.3323
3747 21 81 16.383 -19.7974 12.0047
3921 21 199 14.378 -17.1891 14.7476
3905 21 187 13.3714 -12.6198 -7.82192
3967 21 229 13.5035 -16.2864 5.95054
4003 21 253 14.9608 -9.29417 20.6038
3752 21 86 10.7802 -2.48897 16.4619
3726 21 68 9.07595 -0.579536 -2.15955
3816 21 126 10.45 5.64812 -9.51233
3702 21 50 10.2747 -1.13577 7.4003
3780 21 102 11.7747 5.93735 13.6846
3654 21 16 15.3583 4.08103 15.5861
3886 21 172 8.28458 -0.254459 15.9651
3948 21 216 8.50221 0.589736 12.3158
3844 21 144 17.0141 12.0617 18.3302
ITEM: TIMESTEP
1425000
ITEM: NUMBER OF ATOMS
50
ITEM: BOX BOUNDS pp pp pp
-1.8615759293941696e+01 1.6796739515016260e+01
-2.4385299495412578e+01 1.4157891253325172e+01
-9.6970806910460503e+00 2.1069739512671930e+01
ITEM: ATOMS id type mol x y z
3947 21 215 -13.0573 -21.586 10.3949
3939 21 211 -16.3227 -13.5616 13.7329
3903 21 185 -16.2907 -5.48585 -2.88713
3938 21 210 -15.3321 -7.59977 3.6539
3958 21 222 -11.8067 -0.976464 7.82772
3847 21 147 -9.8025 7.63439 2.15883
3764 21 94 -18.4939 7.13788 17.3971
3979 21 241 -14.4442 8.34651 18.3277
3641 21 11 -15.4238 11.3828 17.9843
3848 21 148 -2.32401 -17.9015 -0.0429934
3803 21 117 -3.96116 -17.8517 -8.71145
3748 21 82 -4.99797 -20.8232 -1.82462
3902 21 184 -8.70169 -13.5258 1.72227
3968 21 230 -4.42844 -9.2891 14.691
3810 21 122 -9.27909 -14.919 15.8076
3946 21 214 -3.79023 -13.1238 10.839
3839 21 141 -4.51055 -8.02409 2.82563
3846 21 146 -8.89528 -8.93323 20.1889
3920 21 198 -8.01816 2.13195 -9.24177
3671 21 29 -6.07342 1.59871 5.359
3881 21 169 -9.59163 10.705 0.304506
3970 21 232 -7.92711 10.3779 11.7822
3972 21 234 -2.20863 11.4168 12.4478
3962 21 226 7.12778 -22.47 -4.19904
3681 21 35 3.39408 -23.8956 6.66743
3933 21 207 5.24194 -23.7203 19.7594
3835 21 139 0.341658 -12.3379 0.667739
3978 21 240 2.58572 -10.5605 2.4877
3887 21 173 7.07406 -3.11792 14.0967
3977 21 239 1.18516 0.51749 -9.15562
3949 21 217 4.33756 6.10187 -6.01734
3904 21 186 1.64459 2.36005 5.03007
3999 21 251 -0.0852103 3.28538 20.3136
3960 21 224 12.6041 -18.6518 -6.27418
3986 21 244 13.6177 -16.9659 -1.86889
3845 21 145 8.2045 -21.8426 13.3044
3747 21 81 16.1712 -19.9875 11.9816
3921 21 199 14.1908 -17.3454 14.7145
3905 21 187 13.1965 -12.7169 -7.77256
3967 21 229 13.3269 -16.431 5.94957
4003 21 253 14.7664 -9.34829 20.5493
3752 21 86 10.637 -2.45499 16.4225
3726 21 68 8.95365 -0.520843 -2.13087
3816 21 126 10.3109 5.78743 -9.45679
3702 21 50 10.1378 -1.08428 7.39404
3780 21 102 11.6194 6.0804 13.6553
3654 21 16 15.159 4.20005 15.55
3886 21 172 8.17197 -0.191558 15.9276
3948 21 216 8.38693 0.663566 12.2916
3844 21 144 16.7945 12.2841 18.284
ITEM: TIMESTEP
1430000
ITEM: NUMBER OF ATOMS
50
ITEM: BOX BOUNDS pp pp pp
-1.8999840705576794e+01 1.7180820926651357e+01
-2.4115756217397674e+01 1.3888347975310268e+01
-9.5745978695606730e+00 2.0947256691209841e+01
ITEM: ATOMS id type mol x y z
3947 21 215 -13.3208 -21.3556 10.3574
3939 21 211 -16.6571 -13.4434 13.6689
3903 21 185 -16.6243 -5.48065 -2.81887
3938 21 210 -15.645 -7.565 3.67008
3958 21 222 -12.0431 -1.03433 7.81067
3847 21 147 -9.9954 7.45609 2.18692
3764 21 94 -18.8754 6.96652 17.3038
3979 21 241 -14.7378 8.15825 18.2271
3641 21 11 -15.7386 11.1521 17.8864
3848 21 148 -2.3547 -17.7226 0.00262355
3803 21 117 -4.02735 -17.6735 -8.59682
3748 21 82 -5.08665 -20.6035 -1.76482
3902 21 184 -8.87072 -13.4081 1.75383
3968 21 230 -4.50478 -9.2307 14.6193
3810 21 122 -9.46064 -14.7819 15.727
3946 21 214 -3.85272 -13.0117 10.798
3839 21 141 -4.58866 -7.98339 2.8484
3846 21 146 -9.06851 -8.87981 20.0735
3920 21 198 -8.17236 2.03061 -9.12292
3671 21 29 -6.18544 1.50482 5.3616
3881 21 169 -9.77996 10.4837 0.347356
3970 21 232 -8.07933 10.1612 11.7336
3972 21 234 -2.23681 11.1856 12.394
3962 21 226 7.30212 -22.2272 -4.12033
3681 21 35 3.48744 -23.6329 6.65962
3933 21 207 5.37538 -23.4601 19.6473
3835 21 139 0.368799 -12.2369 0.707697
3978 21 240 2.66154 -10.4843 2.51317
3887 21 173 7.24723 -3.14584 14.0297
3977 21 239 1.2306 0.438729 -9.03745
3949 21 217 4.45137 5.945 -5.92416
3904 21 186 1.7 2.25552 5.03529
3999 21 251 -0.0673297 3.16791 20.1972
3960 21 224 12.8972 -18.4625 -6.17895
3986 21 244 13.9328 -16.8002 -1.80873
3845 21 145 8.4022 -21.6086 13.2437
3747 21 81 16.5417 -19.7794 11.9315
3921 21 199 14.5183 -17.1743 14.6426
3905 21 187 13.5025 -12.6106 -7.6654
3967 21 229 13.6357 -16.2727 5.94747
4003 21 253 15.1064 -9.28906 20.4309
3752 21 86 10.8875 -2.49218 16.337
3726 21 68 9.1676 -0.585081 -2.06863
3816 21 126 10.5543 5.63496 -9.33622
3702 21 50 10.3774 -1.14064 7.38044
3780 21 102 11.8912 5.92383 13.5919
3654 21 16 15.5076 4.06978 15.4714
3886 21 172 8.36896 -0.260401 15.846
3948 21 216 8.58859 0.582761 12.239
3844 21 144 17.1786 12.0407 18.1837
ITEM: TIMESTEP
1435000
ITEM: NUMBER OF ATOMS
51
ITEM: BOX BOUNDS pp pp pp
-1.8681421892738395e+01 1.6862402113812959e+01
-2.4389430684799279e+01 1.4162022442711873e+01
-9.6159526867574385e+00 2.0988611508375005e+01
ITEM: ATOMS id type mol x y z
3947 21 215 -13.1024 -21.5895 10.3701
3939 21 211 -16.3799 -13.5634 13.6905
3903 21 185 -16.3477 -5.48593 -2.84191
3938 21 210 -15.3856 -7.60031 3.66462
3958 21 222 -11.8471 -0.975577 7.81643
3847 21 147 -9.83548 7.63712 2.17744
3764 21 94 -18.5591 7.14051 17.3353
3979 21 241 -14.4944 8.3494 18.2611
3641 21 11 -15.4776 11.3863 17.9194
3848 21 148 -2.32926 -17.9042 -0.0127784
3803 21 117 -3.97247 -17.8544 -8.63552
3748 21 82 -5.01313 -20.8266 -1.78501
3902 21 184 -8.73059 -13.5276 1.74317
4004 21 254 -2.60402 -14.8397 0.627122
3968 21 230 -4.44149 -9.28999 14.6435
3810 21 122 -9.31012 -14.9211 15.7542
3946 21 214 -3.80091 -13.1255 10.8119
3839 21 141 -4.5239 -8.02472 2.84071
3846 21 146 -8.9249 -8.93405 20.1124
3920 21 198 -8.04452 2.13351 -9.16305
3671 21 29 -6.09257 1.60015 5.36072
3881 21 169 -9.62383 10.7083 0.332888
3970 21 232 -7.95313 10.3812 11.75
3972 21 234 -2.21345 11.4203 12.4122
3962 21 226 7.15759 -22.4737 -4.14691
3681 21 35 3.41004 -23.8996 6.66226
3933 21 207 5.26475 -23.7243 19.6851
3835 21 139 0.346298 -12.3395 0.694206
3978 21 240 2.59868 -10.5617 2.50457
3887 21 173 7.10366 -3.11749 14.0523
3977 21 239 1.19293 0.518697 -9.07735
3949 21 217 4.35701 6.10427 -5.95562
3904 21 186 1.65407 2.36166 5.03353
3999 21 251 -0.0821534 3.28719 20.2365
3960 21 224 12.6542 -18.6547 -6.2111
3986 21 244 13.6715 -16.9685 -1.82904
3845 21 145 8.23829 -21.8462 13.2642
3747 21 81 16.2345 -19.9907 11.9484
3921 21 199 14.2468 -17.348 14.6669
3905 21 187 13.2488 -12.7186 -7.70158
3967 21 229 13.3797 -16.4335 5.94818
4003 21 253 14.8245 -9.3492 20.4709
3752 21 86 10.6799 -2.45442 16.3659
3726 21 68 8.99023 -0.519858 -2.08965
3816 21 126 10.3525 5.78977 -9.37693
3702 21 50 10.1787 -1.08342 7.38503
3780 21 102 11.6658 6.0828 13.6133
3654 21 16 15.2186 4.20205 15.498
3886 21 172 8.20565 -0.190502 15.8736
3948 21 216 8.4214 0.664804 12.2568
3844 21 144 16.8602 12.2878 18.2175
ITEM: TIMESTEP
1440000
ITEM: NUMBER OF ATOMS
51
ITEM: BOX BOUNDS pp pp pp
-1.8701350968865434e+01 1.6882331189939997e+01
-2.4360314852506292e+01 1.4132906610418885e+01
-9.6691469027256254e+00 2.1041805724307668e+01
ITEM: ATOMS id type mol x y z
3947 21 215 -13.116 -21.5646 10.3864
3939 21 211 -16.3972 -13.5506 13.7183
3903 21 185 -16.365 -5.48537 -2.87156
3938 21 210 -15.4018 -7.59655 3.65759
3958 21 222 -11.8594 -0.981827 7.82383
3847 21 147 -9.84549 7.61786 2.16524
3764 21 94 -18.5789 7.122 17.3758
3979 21 241 -14.5096 8.32906 18.3048
3641 21 11 -15.494 11.3614 17.9619
3848 21 148 -2.33085 -17.8849 -0.0325898
3803 21 117 -3.97591 -17.8352 -8.68531
3748 21 82 -5.01773 -20.8029 -1.81098
3902 21 184 -8.73936 -13.5149 1.72947
4004 21 254 -2.60592 -14.825 0.609535
3968 21 230 -4.44545 -9.28369 14.6746
3810 21 122 -9.31954 -14.9063 15.7892
3946 21 214 -3.80415 -13.1134 10.8297
3839 21 141 -4.52795 -8.02032 2.83082
3846 21 146 -8.93389 -8.92828 20.1626
3920 21 198 -8.05252 2.12256 -9.21467
3671 21 29 -6.09838 1.59001 5.35959
3881 21 169 -9.6336 10.6844 0.314278
3970 21 232 -7.96103 10.3578 11.7711
3972 21 234 -2.21491 11.3953 12.4356
3962 21 226 7.16663 -22.4475 -4.18109
3681 21 35 3.41489 -23.8713 6.66565
3933 21 207 5.27167 -23.6962 19.7338
3835 21 139 0.347707 -12.3286 0.676852
3978 21 240 2.60262 -10.5534 2.49351
3887 21 173 7.11265 -3.12051 14.0814
3977 21 239 1.19529 0.51019 -9.12867
3949 21 217 4.36292 6.08733 -5.99609
3904 21 186 1.65694 2.35036 5.03126
3999 21 251 -0.0812256 3.2745 20.2871
3960 21 224 12.6694 -18.6343 -6.25246
3986 21 244 13.6879 -16.9506 -1.85517
3845 21 145 8.24855 -21.8209 13.2906
3747 21 81 16.2538 -19.9682 11.9702
3921 21 199 14.2637 -17.3295 14.6981
3905 21 187 13.2647 -12.7071 -7.74812
3967 21 229 13.3957 -16.4164 5.94909
4003 21 253 14.8422 -9.3428 20.5223
3752 21 86 10.6929 -2.45844 16.403
3726 21 68 9.00133 -0.526797 -2.11668
3816 21 126 10.3651 5.7733 -9.4293
3702 21 50 10.1912 -1.0895 7.39093
3780 21 102 11.6799 6.06589 13.6409
3654 21 16 15.2367 4.18797 15.5321
3886 21 172 8.21587 -0.197939 15.909
3948 21 216 8.43187 0.656076 12.2796
3844 21 144 16.8801 12.2615 18.2611
ITEM: TIMESTEP
1445000
ITEM: NUMBER OF ATOMS
51
ITEM: BOX BOUNDS pp pp pp
-1.8831958906408133e+01 1.7012939127482696e+01
-2.4382912699384757e+01 1.4155504457297351e+01
-9.4106842435836597e+00 2.0783343065235062e+01
ITEM: ATOMS id type mol x y z
3947 21 215 -13.2056 -21.584 10.3073
3939 21 211 -16.5109 -13.5605 13.5831
3903 21 185 -16.4785 -5.48581 -2.72751
3938 21 210 -15.5082 -7.59947 3.69174
3958 21 222 -11.9398 -0.976976 7.78785
3847 21 147 -9.91108 7.63281 2.22451
3764 21 94 -18.7086 7.13636 17.179
3979 21 241 -14.6095 8.34484 18.0924
3641 21 11 -15.601 11.3807 17.7553
3848 21 148 -2.34128 -17.8999 0.0636707
3803 21 117 -3.99842 -17.8501 -8.44341
3748 21 82 -5.04789 -20.8213 -1.68479
3902 21 184 -8.79683 -13.5247 1.79607
4004 21 254 -2.61837 -14.8364 0.694987
3968 21 230 -4.47141 -9.28858 14.5233
3810 21 122 -9.38128 -14.9178 15.6191
3946 21 214 -3.8254 -13.1228 10.7431
3839 21 141 -4.55452 -8.02373 2.87888
3846 21 146 -8.99279 -8.93276 19.9189
3920 21 198 -8.10496 2.13106 -8.96385
3671 21 29 -6.13647 1.59788 5.36509
3881 21 169 -9.69764 10.703 0.4047
3970 21 232 -8.0128 10.376 11.6687
3972 21 234 -2.22449 11.4147 12.322
3962 21 226 7.22592 -22.4678 -4.015
3681 21 35 3.44663 -23.8933 6.64917
3933 21 207 5.31705 -23.718 19.4974
3835 21 139 0.356936 -12.337 0.761171
3978 21 240 2.6284 -10.5598 2.54725
3887 21 173 7.17154 -3.11817 13.9401
3977 21 239 1.21074 0.516793 -8.8793
3949 21 217 4.40162 6.10048 -5.79945
3904 21 186 1.67578 2.35913 5.04229
3999 21 251 -0.0751453 3.28434 20.0413
3960 21 224 12.7691 -18.6502 -6.05151
3986 21 244 13.7951 -16.9645 -1.72823
3845 21 145 8.31578 -21.8406 13.1626
3747 21 81 16.3798 -19.9856 11.8644
3921 21 199 14.3751 -17.3439 14.5464
3905 21 187 13.3687 -12.716 -7.52199
3967 21 229 13.5008 -16.4296 5.94467
4003 21 253 14.9578 -9.34776 20.2726
3752 21 86 10.778 -2.45532 16.2226
3726 21 68 9.07408 -0.521412 -1.98534
3816 21 126 10.4479 5.78608 -9.17487
3702 21 50 10.2726 -1.08478 7.36224
3780 21 102 11.7724 6.07901 13.507
3654 21 16 15.3553 4.1989 15.3663
3886 21 172 8.28286 -0.192167 15.7369
3948 21 216 8.50044 0.66285 12.1686
3844 21 144 17.0107 12.2819 18.0494
ITEM: TIMESTEP
1450000
ITEM: NUMBER OF ATOMS
51
ITEM: BOX BOUNDS pp pp pp
-1.8687433690993139e+01 1.6868413912067702e+01
-2.4216489903185145e+01 1.3989081661097739e+01
-9.6571913253258685e+00 2.1029850146876196e+01
ITEM: ATOMS id type mol x y z
3947 21 215 -13.1065 -21.4417 10.3827
3939 21 211 -16.3851 -13.4876 13.7121
3903 21 185 -16.353 -5.48259 -2.8649
3938 21 210 -15.3905 -7.578 3.65917
3958 21 222 -11.8508 -1.0127 7.82217
3847 21 147 -9.8385 7.52272 2.16798
3764 21 94 -18.5651 7.03056 17.3667
3979 21 241 -14.499 8.22861 18.295
3641 21 11 -15.4825 11.2383 17.9524
3848 21 148 -2.32974 -17.7895 -0.0281372
3803 21 117 -3.97351 -17.7401 -8.67412
3748 21 82 -5.01452 -20.6856 -1.80515
3902 21 184 -8.73323 -13.4521 1.73255
4004 21 254 -2.60459 -14.7524 0.613487
3968 21 230 -4.44269 -9.25253 14.6676
3810 21 122 -9.31297 -14.8331 15.7813
3946 21 214 -3.80189 -13.0536 10.8257
3839 21 141 -4.52512 -7.9986 2.83304
3846 21 146 -8.92761 -8.89977 20.1513
3920 21 198 -8.04694 2.06849 -9.20307
3671 21 29 -6.09433 1.53991 5.35984
3881 21 169 -9.62677 10.5664 0.318461
3970 21 232 -7.95552 10.2422 11.7663
3972 21 234 -2.21389 11.272 12.4303
3962 21 226 7.16032 -22.318 -4.17341
3681 21 35 3.4115 -23.7311 6.66489
3933 21 207 5.26684 -23.5574 19.7229
3835 21 139 0.346723 -12.2746 0.680752
3978 21 240 2.59987 -10.5128 2.496
3887 21 173 7.10637 -3.1354 14.0748
3977 21 239 1.19364 0.468164 -9.11713
3949 21 217 4.3588 6.00362 -5.98699
3904 21 186 1.65493 2.29459 5.03177
3999 21 251 -0.0818735 3.21181 20.2757
3960 21 224 12.6588 -18.5333 -6.24317
3986 21 244 13.6765 -16.8621 -1.84929
3845 21 145 8.24139 -21.6961 13.2846
3747 21 81 16.2403 -19.8572 11.9653
3921 21 199 14.2519 -17.2383 14.6911
3905 21 187 13.2536 -12.6503 -7.73766
3967 21 229 13.3846 -16.3319 5.94889
4003 21 253 14.8299 -9.3112 20.5107
3752 21 86 10.6838 -2.47828 16.3947
3726 21 68 8.99358 -0.561074 -2.1106
3816 21 126 10.3563 5.69194 -9.41753
3702 21 50 10.1825 -1.11958 7.38961
3780 21 102 11.6701 5.98234 13.6347
3654 21 16 15.2241 4.11847 15.5244
3886 21 172 8.20873 -0.234673 15.901
3948 21 216 8.42456 0.61296 12.2745
3844 21 144 16.8662 12.1317 18.2513
ITEM: TIMESTEP
1455000
ITEM: NUMBER OF ATOMS
50
ITEM: BOX BOUNDS pp pp pp
-1.9058140208422138e+01 1.7239120429496701e+01
-2.4166063189276514e+01 1.3938654947189107e+01
-9.5386740183795595e+00 2.0911332839952298e+01
ITEM: ATOMS id type mol x y z
3947 21 215 -13.3608 -21.3986 10.3464
3939 21 211 -16.7078 -13.4655 13.6501
3903 21 185 -16.675 -5.48162 -2.79884
3938 21 210 -15.6925 -7.57149 3.67483
3958 21 222 -12.079 -1.02353 7.80567
3847 21 147 -10.0247 7.48936 2.19516
3764 21 94 -18.9333 6.99851 17.2765
3979 21 241 -14.7824 8.19339 18.1976
3641 21 11 -15.7864 11.1951 17.8576
3848 21 148 -2.35935 -17.756 0.0160029
3803 21 117 -4.0374 -17.7068 -8.5632
3748 21 82 -5.10011 -20.6445 -1.74728
4004 21 254 -2.63994 -14.727 0.652671
3968 21 230 -4.51636 -9.2416 14.5982
3810 21 122 -9.48819 -14.8075 15.7033
3946 21 214 -3.8622 -13.0326 10.786
3839 21 141 -4.60052 -7.99098 2.85508
3846 21 146 -9.0948 -8.88978 20.0396
3920 21 198 -8.19577 2.04953 -9.08806
3671 21 29 -6.20244 1.52235 5.36237
3881 21 169 -9.80855 10.525 0.359924
3970 21 232 -8.10244 10.2016 11.7194
3972 21 234 -2.24109 11.2287 12.3782
3962 21 226 7.32859 -22.2726 -4.09725
3681 21 35 3.50161 -23.6819 6.65733
3933 21 207 5.39563 -23.5087 19.6144
3835 21 139 0.372918 -12.2557 0.719417
3978 21 240 2.67305 -10.4985 2.52064
3887 21 173 7.27352 -3.14063 14.0101
3977 21 239 1.2375 0.453429 -9.00279
3949 21 217 4.46865 5.97428 -5.89683
3904 21 186 1.70841 2.27503 5.03683
3999 21 251 -0.0646156 3.18984 20.163
3960 21 224 12.9417 -18.4978 -6.15102
3986 21 244 13.9806 -16.8311 -1.79109
3845 21 145 8.4322 -21.6523 13.2259
3747 21 81 16.598 -19.8183 11.9168
3921 21 199 14.568 -17.2062 14.6215
3905 21 187 13.5489 -12.6304 -7.63397
3967 21 229 13.6826 -16.3023 5.94686
4003 21 253 15.1581 -9.30011 20.3962
3752 21 86 10.9255 -2.48524 16.312
3726 21 68 9.20008 -0.573092 -2.05038
3816 21 126 10.5912 5.66342 -9.30086
3702 21 50 10.4138 -1.13012 7.37645
3780 21 102 11.9324 5.95305 13.5733
3654 21 16 15.5605 4.09409 15.4484
3886 21 172 8.39886 -0.247553 15.8221
3948 21 216 8.6192 0.597843 12.2236
3844 21 144 17.2369 12.0862 18.1543
ITEM: TIMESTEP
1460000
ITEM: NUMBER OF ATOMS
50
ITEM: BOX BOUNDS pp pp pp
-1.8711683227893236e+01 1.6892663448967799e+01
-2.4308011628463529e+01 1.4080603386376122e+01
-9.6558914253450396e+00 2.1028550246860434e+01
ITEM: ATOMS id type mol x y z
3947 21 215 -13.1231 -21.5199 10.3823
3939 21 211 -16.4062 -13.5277 13.7114
3903 21 185 -16.374 -5.48436 -2.86417
3938 21 210 -15.4103 -7.5898 3.65934
3958 21 222 -11.8658 -0.993056 7.82199
3847 21 147 -9.85068 7.58326 2.16828
3764 21 94 -18.5892 7.08875 17.3657
3641 21 11 -15.5024 11.3166 17.9513
4005 21 255 -14.5239 7.00889 18.4663
3848 21 148 -2.33168 -17.8502 -0.027653
3803 21 117 -3.97769 -17.8006 -8.6729
3748 21 82 -5.02012 -20.7602 -1.80451
4004 21 254 -2.6069 -14.7986 0.613917
3968 21 230 -4.44751 -9.27235 14.6668
3810 21 122 -9.32443 -14.8797 15.7805
3946 21 214 -3.80584 -13.0916 10.8252
3839 21 141 -4.53006 -8.01242 2.83329
3846 21 146 -8.93855 -8.91791 20.1501
3920 21 198 -8.05667 2.1029 -9.2018
3671 21 29 -6.1014 1.57179 5.35987
3881 21 169 -9.63866 10.6415 0.318916
3970 21 232 -7.96513 10.3157 11.7658
3972 21 234 -2.21567 11.3505 12.4297
3962 21 226 7.17132 -22.4004 -4.17257
3681 21 35 3.4174 -23.8203 6.66481
3933 21 207 5.27526 -23.6457 19.7217
3835 21 139 0.348437 -12.3089 0.681176
3978 21 240 2.60466 -10.5386 2.49627
3887 21 173 7.11731 -3.12593 14.0741
3977 21 239 1.19651 0.494907 -9.11588
3949 21 217 4.36598 6.05689 -5.98601
3904 21 186 1.65843 2.33008 5.03183
3999 21 251 -0.0807446 3.2517 20.2745
3960 21 224 12.6773 -18.5975 -6.24215
3986 21 244 13.6964 -16.9184 -1.84866
3845 21 145 8.25387 -21.7755 13.284
3747 21 81 16.2637 -19.9278 11.9647
3921 21 199 14.2726 -17.2963 14.6903
3905 21 187 13.2729 -12.6864 -7.73652
3967 21 229 13.4041 -16.3856 5.94887
4003 21 253 14.8513 -9.33131 20.5095
3752 21 86 10.6996 -2.46565 16.3938
3726 21 68 9.00708 -0.539262 -2.10994
3816 21 126 10.3717 5.74371 -9.41625
3702 21 50 10.1976 -1.10044 7.38946
3780 21 102 11.6873 6.03551 13.634
3654 21 16 15.2461 4.1627 15.5236
3886 21 172 8.22117 -0.211298 15.9001
3948 21 216 8.43729 0.640396 12.2739
3844 21 144 16.8904 12.2143 18.2502
ITEM: TIMESTEP
1465000
ITEM: NUMBER OF ATOMS
50
ITEM: BOX BOUNDS pp pp pp
-1.8754571820720351e+01 1.6935552041794914e+01
-2.4194981895054642e+01 1.3967573652967236e+01
-9.6960116559391842e+00 2.1068670477422970e+01
ITEM: ATOMS id type mol x y z
3947 21 215 -13.1526 -21.4233 10.3946
3939 21 211 -16.4436 -13.4781 13.7324
3903 21 185 -16.4113 -5.48218 -2.88653
3938 21 210 -15.4452 -7.57522 3.65404
3958 21 222 -11.8922 -1.01732 7.82757
3847 21 147 -9.87222 7.50849 2.15908
3764 21 94 -18.6318 7.01689 17.3962
4005 21 255 -14.5567 6.9375 18.4997
3641 21 11 -15.5376 11.2199 17.9834
3848 21 148 -2.3351 -17.7752 -0.0425952
3803 21 117 -3.98508 -17.7259 -8.71045
3748 21 82 -5.03002 -20.6681 -1.8241
4004 21 254 -2.61099 -14.7416 0.600653
3968 21 230 -4.45603 -9.24787 14.6903
3810 21 122 -9.3447 -14.8222 15.8069
3946 21 214 -3.81281 -13.0447 10.8387
3839 21 141 -4.53878 -7.99535 2.82582
3846 21 146 -8.95789 -8.89551 20.1879
3920 21 198 -8.07389 2.0604 -9.24074
3671 21 29 -6.11391 1.53242 5.35902
3881 21 169 -9.65969 10.5487 0.30488
3970 21 232 -7.98213 10.2249 11.7817
3972 21 234 -2.21882 11.2535 12.4474
3962 21 226 7.19079 -22.2986 -4.19835
3681 21 35 3.42782 -23.7101 6.66736
3933 21 207 5.29016 -23.5366 19.7584
3835 21 139 0.351467 -12.2666 0.668088
3978 21 240 2.61312 -10.5067 2.48793
3887 21 173 7.13665 -3.13763 14.0961
3977 21 239 1.20159 0.461879 -9.15459
3949 21 217 4.37869 5.99111 -6.01653
3904 21 186 1.66462 2.28625 5.03011
3999 21 251 -0.078748 3.20244 20.3126
3960 21 224 12.71 -18.5181 -6.27335
3986 21 244 13.7316 -16.8489 -1.86836
3845 21 145 8.27595 -21.6774 13.3039
3747 21 81 16.3051 -19.8406 11.9812
3921 21 199 14.3091 -17.2246 14.7139
3905 21 187 13.3071 -12.6419 -7.77162
3967 21 229 13.4385 -16.3193 5.94955
4003 21 253 14.8893 -9.30647 20.5483
3752 21 86 10.7276 -2.48125 16.4218
3726 21 68 9.03097 -0.5662 -2.13033
3816 21 126 10.3989 5.67978 -9.45574
3702 21 50 10.2244 -1.12407 7.39392
3780 21 102 11.7176 5.96985 13.6548
3654 21 16 15.285 4.10807 15.5493
3886 21 172 8.24316 -0.240166 15.9269
3948 21 216 8.45981 0.606512 12.2912
3844 21 144 16.9333 12.1123 18.2831
ITEM: TIMESTEP
1470000
ITEM: NUMBER OF ATOMS
51
ITEM: BOX BOUNDS pp pp pp
-1.8865789878283703e+01 1.7046770099358266e+01
-2.4349516335412826e+01 1.4122108093325419e+01
-9.5927430804699085e+00 2.0965401901971422e+01
ITEM: ATOMS id type mol x y z
4009 21 257 -17.8207 -20.8124 -2.30788
3947 21 215 -13.2289 -21.5554 10.363
3939 21 211 -16.5404 -13.5459 13.6783
3903 21 185 -16.5079 -5.48516 -2.82898
3938 21 210 -15.5358 -7.59516 3.66768
3958 21 222 -11.9606 -0.984146 7.8132
3847 21 147 -9.92808 7.61072 2.18276
3764 21 94 -18.7422 7.11513 17.3176
4005 21 255 -14.6418 7.0351 18.4137
3641 21 11 -15.6287 11.3522 17.9009
3848 21 148 -2.34399 -17.8777 -0.00413436
3748 21 82 -5.0557 -20.7941 -1.77368
4004 21 254 -2.6216 -14.8195 0.634795
3968 21 230 -4.47813 -9.28135 14.6299
3810 21 122 -9.39727 -14.9008 15.7389
3946 21 214 -3.83091 -13.1089 10.8041
3839 21 141 -4.5614 -8.01869 2.84503
3846 21 146 -9.00805 -8.92614 20.0906
3920 21 198 -8.11854 2.1185 -9.14052
3671 21 29 -6.14634 1.58624 5.36122
4010 21 258 -3.58177 9.75927 -9.02579
3881 21 169 -9.71423 10.6756 0.341008
3970 21 232 -8.02621 10.3491 11.7408
3972 21 234 -2.22698 11.3861 12.402
3962 21 226 7.24128 -22.4378 -4.13199
3681 21 35 3.45485 -23.8607 6.66078
3933 21 207 5.3288 -23.6858 19.6639
3835 21 139 0.359326 -12.3245 0.701778
3978 21 240 2.63508 -10.5504 2.5094
3887 21 173 7.18679 -3.12163 14.0396
3977 21 239 1.21474 0.507034 -9.05495
3949 21 217 4.41165 6.08104 -5.93796
3904 21 186 1.68066 2.34618 5.03452
3999 21 251 -0.0735703 3.26979 20.2144
3960 21 224 12.7949 -18.6267 -6.19306
3986 21 244 13.8228 -16.9439 -1.81764
3845 21 145 8.3332 -21.8116 13.2527
3747 21 81 16.4124 -19.9598 11.9389
3921 21 199 14.404 -17.3227 14.6533
3905 21 187 13.3957 -12.7028 -7.68127
3967 21 229 13.528 -16.41 5.94779
4003 21 253 14.9878 -9.34043 20.4485
3752 21 86 10.8001 -2.45993 16.3497
3726 21 68 9.09293 -0.529371 -2.07785
3816 21 126 10.4694 5.76719 -9.35409
3702 21 50 10.2938 -1.09176 7.38245
3780 21 102 11.7963 6.05961 13.6013
3654 21 16 15.386 4.18276 15.4831
3886 21 172 8.30021 -0.200697 15.8581
3948 21 216 8.5182 0.652838 12.2468
3844 21 144 17.0445 12.2518 18.1985
ITEM: TIMESTEP
1475000
ITEM: NUMBER OF ATOMS
51
ITEM: BOX BOUNDS pp pp pp
-1.8800441548051769e+01 1.6981421769126332e+01
-2.4364977617365678e+01 1.4137569375278272e+01
-9.4779872261161415e+00 2.0850646047639778e+01
ITEM: ATOMS id type mol x y z
4009 21 257 -17.7592 -20.825 -2.24784
3947 21 215 -13.184 -21.5686 10.3279
3939 21 211 -16.4835 -13.5526 13.6183
3903 21 185 -16.4511 -5.48546 -2.76502
3938 21 210 -15.4826 -7.59715 3.68285
3958 21 222 -11.9204 -0.980826 7.79722
3847 21 147 -9.89525 7.62094 2.20907
3764 21 94 -18.6773 7.12496 17.2303
4005 21 255 -14.5918 7.04486 18.3181
3641 21 11 -15.5752 11.3654 17.8091
3848 21 148 -2.33877 -17.888 0.0386048
3748 21 82 -5.04061 -20.8067 -1.71765
4004 21 254 -2.61536 -14.8273 0.672736
3968 21 230 -4.46515 -9.2847 14.5627
3810 21 122 -9.36638 -14.9087 15.6634
3946 21 214 -3.82028 -13.1153 10.7656
3839 21 141 -4.54811 -8.02102 2.86637
3846 21 146 -8.97858 -8.9292 19.9824
3920 21 198 -8.09231 2.12431 -9.02916
3671 21 29 -6.12728 1.59163 5.36366
4010 21 258 -3.57205 9.77123 -8.91529
3881 21 169 -9.68219 10.6883 0.381155
3970 21 232 -8.00031 10.3615 11.6953
3972 21 234 -2.22218 11.3993 12.3515
3962 21 226 7.21161 -22.4517 -4.05825
3681 21 35 3.43897 -23.8758 6.65346
3933 21 207 5.3061 -23.7007 19.5589
3835 21 139 0.354709 -12.3303 0.739215
3978 21 240 2.62218 -10.5547 2.53326
3887 21 173 7.15733 -3.12003 13.9769
3977 21 239 1.20701 0.511552 -8.94424
3949 21 217 4.39228 6.09004 -5.85066
3904 21 186 1.67123 2.35217 5.03942
3999 21 251 -0.0766125 3.27653 20.1053
3960 21 224 12.7451 -18.6376 -6.10383
3986 21 244 13.7692 -16.9535 -1.76128
3845 21 145 8.29956 -21.825 13.1959
3747 21 81 16.3494 -19.9718 11.8919
3921 21 199 14.3483 -17.3325 14.5859
3905 21 187 13.3436 -12.7089 -7.58087
3967 21 229 13.4754 -16.4191 5.94582
4003 21 253 14.9299 -9.34382 20.3376
3752 21 86 10.7575 -2.45779 16.2696
3726 21 68 9.05653 -0.525686 -2.01954
3816 21 126 10.4279 5.77593 -9.24112
3702 21 50 10.253 -1.08853 7.36971
3780 21 102 11.7501 6.0686 13.5418
3654 21 16 15.3266 4.19023 15.4095
3886 21 172 8.26669 -0.196748 15.7817
3948 21 216 8.48389 0.657473 12.1975
3844 21 144 16.9792 12.2657 18.1046
ITEM: TIMESTEP
1480000
ITEM: NUMBER OF ATOMS
51
ITEM: BOX BOUNDS pp pp pp
-1.8879172039242309e+01 1.7060152260316872e+01
-2.4231071367538728e+01 1.4003663125451322e+01
-9.5896168385413070e+00 2.0962275660008796e+01
ITEM: ATOMS id type mol x y z
4009 21 257 -17.8333 -20.7158 -2.30624
3947 21 215 -13.238 -21.4542 10.362
3939 21 211 -16.552 -13.4939 13.6767
3903 21 185 -16.5195 -5.48288 -2.82724
3938 21 210 -15.5467 -7.57988 3.6681
3958 21 222 -11.9688 -1.00957 7.81276
3847 21 147 -9.9348 7.53237 2.18348
3764 21 94 -18.7555 7.03983 17.3152
4005 21 255 -14.652 6.96029 18.4111
3641 21 11 -15.6397 11.2508 17.8984
3848 21 148 -2.34506 -17.7991 -0.00297004
3748 21 82 -5.05879 -20.6975 -1.77215
4004 21 254 -2.62287 -14.7598 0.635829
3968 21 230 -4.48079 -9.25568 14.628
3810 21 122 -9.4036 -14.8406 15.7369
3946 21 214 -3.83308 -13.0597 10.803
3839 21 141 -4.56412 -8.0008 2.84561
3846 21 146 -9.01409 -8.90266 20.0876
3920 21 198 -8.12392 2.07397 -9.13749
3671 21 29 -6.15024 1.54499 5.36128
4010 21 258 -3.58376 9.66769 -9.02278
3881 21 169 -9.72079 10.5784 0.342101
3970 21 232 -8.03151 10.2539 11.7396
3972 21 234 -2.22796 11.2845 12.4006
3962 21 226 7.24735 -22.3311 -4.12998
3681 21 35 3.45811 -23.7453 6.66058
3933 21 207 5.33345 -23.5714 19.6611
3835 21 139 0.360272 -12.2801 0.702797
3978 21 240 2.63772 -10.5169 2.51005
3887 21 173 7.19283 -3.13389 14.0379
3977 21 239 1.21633 0.472424 -9.05194
3949 21 217 4.41562 6.01211 -5.93558
3904 21 186 1.68259 2.30024 5.03465
3999 21 251 -0.0729473 3.21817 20.2115
3960 21 224 12.8051 -18.5435 -6.19063
3986 21 244 13.8338 -16.8711 -1.81611
3845 21 145 8.34008 -21.7087 13.2512
3747 21 81 16.4253 -19.8684 11.9376
3921 21 199 14.4154 -17.2475 14.6514
3905 21 187 13.4064 -12.6561 -7.67854
3967 21 229 13.5387 -16.3405 5.94773
4003 21 253 14.9996 -9.3144 20.4455
3752 21 86 10.8088 -2.47627 16.3475
3726 21 68 9.10038 -0.557599 -2.07627
3816 21 126 10.4778 5.70019 -9.35101
3702 21 50 10.3021 -1.11653 7.38211
3780 21 102 11.8058 5.99081 13.5997
3654 21 16 15.3981 4.12551 15.4811
3886 21 172 8.30707 -0.230949 15.856
3948 21 216 8.52523 0.617331 12.2455
3844 21 144 17.0579 12.1448 18.196
ITEM: TIMESTEP
1485000
ITEM: NUMBER OF ATOMS
53
ITEM: BOX BOUNDS pp pp pp
-1.8766554167401196e+01 1.6947534388475759e+01
-2.4495538616583673e+01 1.4268130374496266e+01
-9.5643625801294405e+00 2.0937021401587966e+01
ITEM: ATOMS id type mol x y z
4009 21 257 -17.7273 -20.9316 -2.29303
3947 21 215 -13.1608 -21.6802 10.3543
3939 21 211 -16.454 -13.6099 13.6635
4014 21 260 -13.9594 -14.3362 16.2684
3903 21 185 -16.4217 -5.48798 -2.81316
3938 21 210 -15.455 -7.61399 3.67143
3958 21 222 -11.8995 -0.952798 7.80925
3847 21 147 -9.87823 7.70731 2.18927
3764 21 94 -18.6437 7.20796 17.296
4005 21 255 -14.5659 7.12732 18.39
3641 21 11 -15.5474 11.4772 17.8782
3848 21 148 -2.33606 -17.9746 0.00643553
3748 21 82 -5.03279 -20.9131 -1.75982
4004 21 254 -2.61213 -14.8932 0.644178
3968 21 230 -4.45841 -9.31298 14.6133
3810 21 122 -9.35036 -14.9751 15.7202
3946 21 214 -3.81476 -13.1696 10.7946
3839 21 141 -4.54122 -8.04074 2.85031
3846 21 146 -8.96329 -8.95508 20.0638
3920 21 198 -8.0787 2.1734 -9.11298
3671 21 29 -6.1174 1.6371 5.36182
4010 21 258 -3.567 9.87217 -8.99846
3881 21 169 -9.66557 10.7954 0.350937
3970 21 232 -7.98687 10.4665 11.7296
3972 21 234 -2.21969 11.5113 12.3895
3962 21 226 7.19623 -22.5693 -4.11376
3681 21 35 3.43073 -24.003 6.65897
3933 21 207 5.29433 -23.8268 19.6379
3835 21 139 0.352314 -12.3792 0.711036
3978 21 240 2.61549 -10.5916 2.5153
3887 21 173 7.14205 -3.10651 14.0241
3977 21 239 1.203 0.549702 -9.02757
3949 21 217 4.38224 6.16602 -5.91637
3904 21 186 1.66635 2.40281 5.03573
3999 21 251 -0.0781901 3.33343 20.1875
3960 21 224 12.7192 -18.7293 -6.17099
3986 21 244 13.7414 -17.0337 -1.8037
3845 21 145 8.28212 -21.9383 13.2387
3747 21 81 16.3167 -20.0725 11.9273
3921 21 199 14.3194 -17.4154 14.6366
3905 21 187 13.3166 -12.7604 -7.65644
3967 21 229 13.4482 -16.4958 5.9473
4003 21 253 14.8999 -9.37251 20.4211
3752 21 86 10.7354 -2.43978 16.3299
4015 21 261 13.5084 -2.60852 11.3907
3726 21 68 9.03765 -0.49457 -2.06343
3816 21 126 10.4065 5.84979 -9.32615
3702 21 50 10.2318 -1.06123 7.3793
3780 21 102 11.7261 6.14443 13.5866
3654 21 16 15.2959 4.25333 15.4649
3886 21 172 8.24931 -0.163401 15.8392
3948 21 216 8.4661 0.696613 12.2346
3844 21 144 16.9453 12.3836 18.1753
ITEM: TIMESTEP
1490000
ITEM: NUMBER OF ATOMS
53
ITEM: BOX BOUNDS pp pp pp
-1.8714743383082645e+01 1.6895723604157208e+01
-2.4438459998381340e+01 1.4211051756293934e+01
-9.6273601250735652e+00 2.1000018946492375e+01
ITEM: ATOMS id type mol x y z
4009 21 257 -17.6785 -20.885 -2.32599
3947 21 215 -13.1252 -21.6314 10.3736
3939 21 211 -16.4089 -13.5849 13.6965
4014 21 260 -13.9215 -14.309 16.3121
3903 21 185 -16.3767 -5.48688 -2.84827
3938 21 210 -15.4127 -7.60663 3.66311
3958 21 222 -11.8677 -0.965051 7.81801
3847 21 147 -9.85221 7.66955 2.17482
3764 21 94 -18.5922 7.17168 17.344
4005 21 255 -14.5263 7.09127 18.4425
3641 21 11 -15.5049 11.4283 17.9285
3848 21 148 -2.33192 -17.9367 -0.017027
3748 21 82 -5.02082 -20.8666 -1.79058
4004 21 254 -2.60719 -14.8644 0.62335
3968 21 230 -4.44812 -9.30062 14.6501
3810 21 122 -9.32587 -14.9461 15.7617
3946 21 214 -3.80633 -13.1458 10.8157
3839 21 141 -4.53068 -8.03212 2.83859
3846 21 146 -8.93993 -8.94377 20.1232
3920 21 198 -8.0579 2.15194 -9.17412
3671 21 29 -6.10229 1.61722 5.36048
4010 21 258 -3.55929 9.82804 -9.05912
3881 21 169 -9.64016 10.7486 0.328897
3970 21 232 -7.96634 10.4206 11.7545
3972 21 234 -2.21589 11.4624 12.4172
3962 21 226 7.17271 -22.5179 -4.15424
3681 21 35 3.41814 -23.9474 6.66299
3933 21 207 5.27633 -23.7717 19.6956
3835 21 139 0.348653 -12.3578 0.690484
3978 21 240 2.60526 -10.5755 2.5022
3887 21 173 7.11869 -3.11242 14.0585
3977 21 239 1.19687 0.533024 -9.08835
3949 21 217 4.36689 6.1328 -5.9643
3904 21 186 1.65887 2.38067 5.03304
3999 21 251 -0.0806021 3.30855 20.2474
3960 21 224 12.6797 -18.6892 -6.21997
3986 21 244 13.6989 -16.9986 -1.83464
3845 21 145 8.25545 -21.8888 13.2699
3747 21 81 16.2667 -20.0285 11.9531
3921 21 199 14.2752 -17.3791 14.6736
3905 21 187 13.2754 -12.7379 -7.71156
3967 21 229 13.4065 -16.4622 5.94838
4003 21 253 14.854 -9.35997 20.4819
3752 21 86 10.7016 -2.44766 16.3739
3726 21 68 9.00879 -0.508174 -2.09545
3816 21 126 10.3736 5.8175 -9.38816
3702 21 50 10.1995 -1.07317 7.3863
3780 21 102 11.6894 6.11128 13.6192
3654 21 16 15.2489 4.22574 15.5053
3886 21 172 8.22274 -0.17798 15.8812
3948 21 216 8.4389 0.679502 12.2617
4015 21 261 10.7021 7.14234 -5.86053
3844 21 144 16.8935 12.3321 18.2269
ITEM: TIMESTEP
1495000
ITEM: NUMBER OF ATOMS
53
ITEM: BOX BOUNDS pp pp pp
-1.8770803492846056e+01 1.6951783713920619e+01
-2.4453403831706137e+01 1.4225995589618730e+01
-9.5574208115321859e+00 2.0930079632957721e+01
ITEM: ATOMS id type mol x y z
4009 21 257 -17.7313 -20.8972 -2.2894
3947 21 215 -13.1637 -21.6442 10.3522
3939 21 211 -16.4577 -13.5914 13.6599
4014 21 260 -13.9625 -14.3161 16.2636
3903 21 185 -16.4254 -5.48717 -2.80929
3938 21 210 -15.4584 -7.60856 3.67235
3958 21 222 -11.9022 -0.961843 7.80828
3847 21 147 -9.88037 7.67944 2.19086
3764 21 94 -18.6479 7.18118 17.2907
4005 21 255 -14.5692 7.10071 18.3842
3641 21 11 -15.5509 11.4411 17.8726
3848 21 148 -2.3364 -17.9467 0.00902089
3748 21 82 -5.03377 -20.8788 -1.75643
4004 21 254 -2.61254 -14.872 0.646473
3968 21 230 -4.45926 -9.30386 14.6092
3810 21 122 -9.35237 -14.9537 15.7157
3946 21 214 -3.81545 -13.1521 10.7922
3839 21 141 -4.54208 -8.03438 2.8516
3846 21 146 -8.96521 -8.94673 20.0573
3920 21 198 -8.08041 2.15756 -9.10625
3671 21 29 -6.11864 1.62243 5.36197
4010 21 258 -3.56764 9.8396 -8.99178
3881 21 169 -9.66765 10.7609 0.353365
3970 21 232 -7.98856 10.4326 11.7268
3972 21 234 -2.22001 11.4752 12.3865
3962 21 226 7.19816 -22.5313 -4.1093
3681 21 35 3.43177 -23.962 6.65853
3933 21 207 5.2958 -23.7861 19.6316
3835 21 139 0.352614 -12.3634 0.713301
3978 21 240 2.61633 -10.5797 2.51674
3887 21 173 7.14396 -3.11087 14.0203
3977 21 239 1.20351 0.53739 -9.02088
3949 21 217 4.3835 6.1415 -5.91109
3904 21 186 1.66696 2.38646 5.03603
3999 21 251 -0.0779923 3.31507 20.1809
3960 21 224 12.7224 -18.6997 -6.16559
3986 21 244 13.7449 -17.0078 -1.80029
3845 21 145 8.2843 -21.9017 13.2352
3747 21 81 16.3208 -20.04 11.9244
3921 21 199 14.323 -17.3886 14.6325
3905 21 187 13.32 -12.7438 -7.65037
3967 21 229 13.4516 -16.471 5.94718
4003 21 253 14.9037 -9.36325 20.4144
3752 21 86 10.7382 -2.44559 16.3251
3726 21 68 9.04002 -0.504612 -2.05991
3816 21 126 10.4092 5.82595 -9.31932
3702 21 50 10.2345 -1.07004 7.37853
3780 21 102 11.7291 6.11996 13.583
3654 21 16 15.2998 4.23296 15.4604
3886 21 172 8.25149 -0.174163 15.8346
3948 21 216 8.46833 0.683982 12.2316
4015 21 261 10.7387 7.15182 -5.80779
3844 21 144 16.9496 12.3456 18.1696
ITEM: TIMESTEP
1500000
ITEM: NUMBER OF ATOMS
53
ITEM: BOX BOUNDS pp pp pp
-1.8788573738971465e+01 1.6969553960046028e+01
-2.4132093778876403e+01 1.3904685536788996e+01
-9.6528176910533716e+00 2.1025476512427776e+01
ITEM: ATOMS id type mol x y z
4009 21 257 -17.748 -20.635 -2.33931
3947 21 215 -13.1759 -21.3696 10.3814
3939 21 211 -16.4732 -13.4506 13.7098
4014 21 260 -13.9754 -14.1633 16.3298
3903 21 185 -16.4408 -5.48097 -2.86246
3938 21 210 -15.4729 -7.56711 3.65975
3958 21 222 -11.9131 -1.03082 7.82156
3847 21 147 -9.88929 7.46689 2.16898
3764 21 94 -18.6656 6.97691 17.3634
4005 21 255 -14.5828 6.89778 18.4637
3641 21 11 -15.5655 11.166 17.9489
3848 21 148 -2.33782 -17.7335 -0.0265083
3748 21 82 -5.03787 -20.6168 -1.80301
4004 21 254 -2.61423 -14.7098 0.614933
3968 21 230 -4.46279 -9.23424 14.665
3810 21 122 -9.36077 -14.7902 15.7784
3946 21 214 -3.81835 -13.0185 10.8242
3839 21 141 -4.54569 -7.98585 2.83386
3846 21 146 -8.97322 -8.88305 20.1472
3920 21 198 -8.08754 2.03676 -9.19882
3671 21 29 -6.12382 1.51051 5.35994
4010 21 258 -3.57028 9.59116 -9.08363
3881 21 169 -9.67637 10.4971 0.319991
3970 21 232 -7.9956 10.1743 11.7646
3972 21 234 -2.22131 11.1996 12.4284
3962 21 226 7.20622 -22.242 -4.1706
3681 21 35 3.43609 -23.6488 6.66461
3933 21 207 5.30198 -23.4759 19.7189
3835 21 139 0.35387 -12.243 0.682179
3978 21 240 2.61983 -10.4889 2.49691
3887 21 173 7.15198 -3.14414 14.0725
3977 21 239 1.20561 0.443503 -9.11291
3949 21 217 4.38877 5.95451 -5.98367
3904 21 186 1.66952 2.26186 5.03196
3999 21 251 -0.077165 3.17503 20.2716
3960 21 224 12.736 -18.474 -6.23976
3986 21 244 13.7595 -16.8102 -1.84715
3845 21 145 8.29345 -21.6228 13.2825
3747 21 81 16.3379 -19.792 11.9635
3921 21 199 14.3381 -17.1847 14.6885
3905 21 187 13.3342 -12.617 -7.73383
3967 21 229 13.4659 -16.2823 5.94881
4003 21 253 14.9194 -9.29265 20.5065
3752 21 86 10.7497 -2.48992 16.3916
3726 21 68 9.04992 -0.581188 -2.10838
3816 21 126 10.4204 5.6442 -9.41322
3702 21 50 10.2456 -1.13722 7.38912
3780 21 102 11.7417 5.93332 13.6324
3654 21 16 15.3159 4.07768 15.5216
3886 21 172 8.2606 -0.256229 15.8981
3948 21 216 8.47766 0.587659 12.2726
4015 21 261 10.7503 6.94804 -5.87972
3844 21 144 16.9673 12.0555 18.2477
ITEM: TIMESTEP
1505000
ITEM: NUMBER OF ATOMS
53
ITEM: BOX BOUNDS pp pp pp
-1.8793331910430293e+01 1.6974312131504856e+01
-2.4259942149372989e+01 1.4032533907285583e+01
-9.7089222775216584e+00 2.1081581098858447e+01
ITEM: ATOMS id type mol x y z
4009 21 257 -17.7525 -20.7393 -2.36867
3947 21 215 -13.1791 -21.4788 10.3985
3939 21 211 -16.4773 -13.5066 13.7391
4014 21 260 -13.9789 -14.2241 16.3687
3903 21 185 -16.445 -5.48343 -2.89373
3938 21 210 -15.4768 -7.5836 3.65233
3958 21 222 -11.916 -1.00338 7.82937
3847 21 147 -9.89168 7.55146 2.15612
3764 21 94 -18.6703 7.05819 17.4061
4005 21 255 -14.5864 6.97853 18.5104
3641 21 11 -15.5694 11.2755 17.9937
3848 21 148 -2.3382 -17.8183 -0.0474036
3748 21 82 -5.03897 -20.7211 -1.83041
4004 21 254 -2.61469 -14.7743 0.596384
3968 21 230 -4.46373 -9.26194 14.6979
3810 21 122 -9.36302 -14.8552 15.8154
3946 21 214 -3.81912 -13.0717 10.843
3839 21 141 -4.54666 -8.00516 2.82342
3846 21 146 -8.97537 -8.90839 20.2001
3920 21 198 -8.08945 2.08482 -9.25326
3671 21 29 -6.12521 1.55505 5.35874
4010 21 258 -3.57099 9.69001 -9.13766
3881 21 169 -9.6787 10.6021 0.300363
3970 21 232 -7.99749 10.2771 11.7868
3972 21 234 -2.22166 11.3092 12.453
3962 21 226 7.20838 -22.3571 -4.20665
3681 21 35 3.43724 -23.7734 6.66819
3933 21 207 5.30363 -23.5993 19.7702
3835 21 139 0.354206 -12.2909 0.663876
3978 21 240 2.62077 -10.5251 2.48524
3887 21 173 7.15412 -3.1309 14.1031
3977 21 239 1.20617 0.480861 -9.16704
3949 21 217 4.39018 6.02891 -6.02635
3904 21 186 1.67021 2.31144 5.02956
3999 21 251 -0.0769435 3.23075 20.3249
3960 21 224 12.7396 -18.5638 -6.28339
3986 21 244 13.7634 -16.8889 -1.8747
3845 21 145 8.2959 -21.7338 13.3103
3747 21 81 16.3425 -19.8907 11.9864
3921 21 199 14.3422 -17.2658 14.7214
3905 21 187 13.338 -12.6675 -7.78292
3967 21 229 13.4697 -16.3574 5.94977
4003 21 253 14.9236 -9.32074 20.5607
3752 21 86 10.7528 -2.47228 16.4308
3726 21 68 9.05257 -0.550718 -2.13689
3816 21 126 10.4234 5.71652 -9.46845
3702 21 50 10.2485 -1.11049 7.39535
3780 21 102 11.745 6.00758 13.6615
3654 21 16 15.3202 4.13947 15.5576
3886 21 172 8.26304 -0.223575 15.9355
3948 21 216 8.48016 0.625986 12.2967
4015 21 261 10.7534 7.02912 -5.92203
3844 21 144 16.9721 12.1709 18.2937
ITEM: TIMESTEP
1510000
ITEM: NUMBER OF ATOMS
54
ITEM: BOX BOUNDS pp pp pp
-1.8971336917220714e+01 1.7152317138295277e+01
-2.4085256020071103e+01 1.3857847777983697e+01
-9.5726129871417349e+00 2.0945271808509037e+01
ITEM: ATOMS id type mol x y z
4009 21 257 -17.9201 -20.5968 -2.29735
3947 21 215 -13.3013 -21.3295 10.3568
3939 21 211 -16.6323 -13.43 13.6678
4014 21 260 -14.109 -14.141 16.2741
3903 21 185 -16.5996 -5.48006 -2.81776
3938 21 210 -15.6218 -7.56107 3.67034
3958 21 222 -12.0256 -1.04088 7.81039
3847 21 147 -9.98109 7.43591 2.18738
3764 21 94 -18.8471 6.94713 17.3023
4005 21 255 -14.7225 6.8682 18.3969
3641 21 11 -15.7153 11.126 17.8848
3848 21 148 -2.35242 -17.7024 0.00336279
3748 21 82 -5.08007 -20.5787 -1.76385
4004 21 254 -2.63166 -14.6862 0.641451
3968 21 230 -4.49911 -9.22409 14.6181
3810 21 122 -9.44716 -14.7664 15.7257
3946 21 214 -3.84808 -12.999 10.7973
3839 21 141 -4.58286 -7.97878 2.84877
3846 21 146 -9.05565 -8.87376 20.0716
3920 21 198 -8.16092 2.01915 -9.12099
3671 21 29 -6.17712 1.4942 5.36164
4010 21 258 -3.59748 9.55495 -9.0064
3881 21 169 -9.76598 10.4587 0.34805
3970 21 232 -8.06804 10.1367 11.7328
3972 21 234 -2.23472 11.1594 12.3931
3962 21 226 7.28919 -22.1998 -4.11906
3681 21 35 3.48051 -23.6032 6.65949
3933 21 207 5.36547 -23.4307 19.6455
3835 21 139 0.366784 -12.2254 0.708345
3978 21 240 2.65591 -10.4757 2.51358
3887 21 173 7.23438 -3.14899 14.0286
3977 21 239 1.22723 0.429817 -9.03553
3949 21 217 4.44293 5.92725 -5.92265
3904 21 186 1.69589 2.24369 5.03538
3999 21 251 -0.0686566 3.15462 20.1953
3960 21 224 12.8755 -18.4411 -6.17741
3986 21 244 13.9094 -16.7814 -1.80776
3845 21 145 8.38752 -21.5822 13.2428
3747 21 81 16.5142 -19.7559 11.9307
3921 21 199 14.494 -17.155 14.6414
3905 21 187 13.4798 -12.5986 -7.66366
3967 21 229 13.6128 -16.2548 5.94744
4003 21 253 15.0812 -9.28236 20.429
3752 21 86 10.8689 -2.49638 16.3357
3726 21 68 9.15172 -0.59235 -2.06763
3816 21 126 10.5362 5.61771 -9.33427
4016 21 262 14.9832 5.10364 -0.419536
3702 21 50 10.3596 -1.14702 7.38022
3780 21 102 11.871 5.90612 13.5909
3654 21 16 15.4817 4.05504 15.4702
3886 21 172 8.35434 -0.268191 15.8447
3948 21 216 8.57362 0.573618 12.2382
4015 21 261 10.8695 6.91833 -5.81925
3844 21 144 17.1501 12.0132 18.182
ITEM: TIMESTEP
1515000
ITEM: NUMBER OF ATOMS
54
ITEM: BOX BOUNDS pp pp pp
-1.8625603555765110e+01 1.6806583776839673e+01
-2.4325158420311318e+01 1.4097750178223912e+01
-9.7273784108618244e+00 2.1100037232156684e+01
ITEM: ATOMS id type mol x y z
4009 21 257 -17.5945 -20.7925 -2.37832
3947 21 215 -13.0641 -21.5346 10.4042
3939 21 211 -16.3313 -13.5352 13.7488
4014 21 260 -13.8563 -14.2551 16.3815
3903 21 185 -16.2992 -5.48469 -2.90401
3938 21 210 -15.3401 -7.59202 3.6499
3958 21 222 -11.8128 -0.989375 7.83194
3847 21 147 -9.80744 7.5946 2.15189
3764 21 94 -18.5037 7.09965 17.4201
4005 21 255 -14.4581 7.01972 18.5258
3641 21 11 -15.4319 11.3313 18.0085
3848 21 148 -2.3248 -17.8616 -0.0542773
3748 21 82 -5.00024 -20.7742 -1.83942
4004 21 254 -2.59869 -14.8073 0.590282
3968 21 230 -4.4304 -9.27607 14.7087
3810 21 122 -9.28374 -14.8884 15.8275
3946 21 214 -3.79183 -13.0988 10.8492
3839 21 141 -4.51255 -8.01501 2.81999
3846 21 146 -8.89972 -8.92131 20.2175
3920 21 198 -8.02211 2.10934 -9.27117
3671 21 29 -6.07629 1.57776 5.35835
4010 21 258 -3.54603 9.74044 -9.15543
3881 21 169 -9.59646 10.6556 0.293906
3970 21 232 -7.93101 10.3295 11.7942
3972 21 234 -2.20935 11.3652 12.4612
3962 21 226 7.13225 -22.4158 -4.21851
3681 21 35 3.39648 -23.837 6.66936
3933 21 207 5.24536 -23.6623 19.7871
3835 21 139 0.342354 -12.3154 0.657855
3978 21 240 2.58766 -10.5435 2.4814
3887 21 173 7.07849 -3.12415 14.1132
3977 21 239 1.18633 0.499917 -9.18485
3949 21 217 4.34047 6.06687 -6.04039
4018 21 264 6.64444 1.15431 -1.6668
3904 21 186 1.64601 2.33673 5.02878
3999 21 251 -0.084752 3.25917 20.3425
3960 21 224 12.6116 -18.6096 -6.29774
3986 21 244 13.6257 -16.929 -1.88377
3845 21 145 8.20956 -21.7904 13.3194
4017 21 263 13.5328 -19.5958 11.9022
3921 21 199 14.1991 -17.3072 14.7323
3905 21 187 13.2043 -12.6932 -7.79906
3967 21 229 13.3348 -16.3957 5.95009
4003 21 253 14.7751 -9.33507 20.5786
3752 21 86 10.6435 -2.46329 16.4437
3816 21 126 10.3171 5.75341 -9.48662
4016 21 262 14.6789 5.23284 -0.481465
3702 21 50 10.1439 -1.09686 7.3974
3780 21 102 11.6263 6.04547 13.671
3654 21 16 15.168 4.17098 15.5694
3886 21 172 8.17702 -0.206918 15.9477
3948 21 216 8.3921 0.645536 12.3046
4015 21 261 10.644 7.07048 -5.93594
3844 21 144 16.8044 12.2298 18.3088
ITEM: TIMESTEP
1520000
ITEM: NUMBER OF ATOMS
54
ITEM: BOX BOUNDS pp pp pp
-1.8735923607885336e+01 1.6916903828959899e+01
-2.4313046665450567e+01 1.4085638423363161e+01
-9.5875165516181511e+00 2.0960175372944768e+01
ITEM: ATOMS id type mol x y z
4009 21 257 -17.6984 -20.7827 -2.30514
3947 21 215 -13.1398 -21.5242 10.3614
3939 21 211 -16.4273 -13.5299 13.6756
4014 21 260 -13.937 -14.2494 16.2845
3903 21 185 -16.3951 -5.48446 -2.82606
3938 21 210 -15.43 -7.59045 3.66837
3958 21 222 -11.8807 -0.991975 7.81247
3847 21 147 -9.86285 7.58659 2.18396
3764 21 94 -18.6133 7.09195 17.3136
4005 21 255 -14.5425 7.01207 18.4093
3641 21 11 -15.5223 11.3209 17.8967
3848 21 148 -2.33361 -17.8535 -0.00218782
3748 21 82 -5.02571 -20.7643 -1.77113
4004 21 254 -2.60921 -14.8011 0.636523
3968 21 230 -4.45232 -9.27345 14.6268
3810 21 122 -9.33589 -14.8823 15.7355
3946 21 214 -3.80978 -13.0937 10.8023
3839 21 141 -4.53499 -8.01318 2.846
3846 21 146 -8.94948 -8.91891 20.0856
3920 21 198 -8.06641 2.10479 -9.13545
3671 21 29 -6.10847 1.57354 5.36133
4010 21 258 -3.56245 9.73107 -9.02076
3881 21 169 -9.65055 10.6456 0.342836
3970 21 232 -7.97473 10.3198 11.7387
3972 21 234 -2.21745 11.3548 12.3997
3962 21 226 7.18233 -22.4049 -4.12864
3681 21 35 3.42329 -23.8252 6.66044
3933 21 207 5.28369 -23.6506 19.6591
3835 21 139 0.35015 -12.3108 0.703483
3978 21 240 2.60944 -10.5401 2.51048
3887 21 173 7.12824 -3.1254 14.0368
3977 21 239 1.19938 0.496378 -9.04991
3949 21 217 4.37316 6.05982 -5.93399
4018 21 264 6.69148 1.15035 -1.60008
3904 21 186 1.66193 2.33203 5.03474
3999 21 251 -0.0796161 3.2539 20.2095
3960 21 224 12.6958 -18.6011 -6.18899
3986 21 244 13.7163 -16.9215 -1.81508
3845 21 145 8.26635 -21.7799 13.2501
4017 21 263 13.6228 -19.5867 11.8458
3921 21 199 14.2932 -17.2995 14.6502
3905 21 187 13.2922 -12.6884 -7.6767
3967 21 229 13.4235 -16.3886 5.9477
4003 21 253 14.8728 -9.33241 20.4434
3752 21 86 10.7154 -2.46496 16.3461
3816 21 126 10.3871 5.74656 -9.34894
4016 21 262 14.776 5.22632 -0.425499
3702 21 50 10.2127 -1.09939 7.38187
3780 21 102 11.7044 6.03843 13.5986
3654 21 16 15.2681 4.16513 15.4797
3886 21 172 8.2336 -0.210012 15.8546
3948 21 216 8.45002 0.641906 12.2446
4015 21 261 10.7159 7.0628 -5.83048
3844 21 144 16.9147 12.2188 18.1943
ITEM: TIMESTEP
1525000
ITEM: NUMBER OF ATOMS
56
ITEM: BOX BOUNDS pp pp pp
-1.8651090304534332e+01 1.6832070525608895e+01
-2.4283799165182536e+01 1.4056390923095130e+01
-9.8102585781169935e+00 2.1182917399346454e+01
ITEM: ATOMS id type mol x y z
4009 21 257 -17.6185 -20.7588 -2.42169
3947 21 215 -13.0816 -21.4992 10.4296
4023 21 267 -18.5748 -19.5965 13.1859
3939 21 211 -16.3535 -13.5171 13.7921
4014 21 260 -13.875 -14.2354 16.439
3903 21 185 -16.3214 -5.48389 -2.9502
3938 21 210 -15.3609 -7.58668 3.63895
3958 21 222 -11.8285 -0.998254 7.84347
3847 21 147 -9.82024 7.56725 2.13288
3764 21 94 -18.529 7.07335 17.4832
4005 21 255 -14.4776 6.99359 18.5949
3641 21 11 -15.4528 11.2959 18.0747
3848 21 148 -2.32683 -17.8341 -0.0851448
4022 21 266 -5.85462 -16.8853 -2.63745
3748 21 82 -5.00612 -20.7405 -1.87988
4004 21 254 -2.60112 -14.7864 0.562881
3968 21 230 -4.43546 -9.26711 14.7572
3810 21 122 -9.29579 -14.8674 15.882
3946 21 214 -3.79598 -13.0816 10.8769
3839 21 141 -4.51773 -8.00876 2.80458
3846 21 146 -8.91122 -8.91311 20.2956
3920 21 198 -8.03235 2.09379 -9.3516
3671 21 29 -6.08373 1.56335 5.35659
4010 21 258 -3.54982 9.70846 -9.23523
3881 21 169 -9.60895 10.6216 0.264911
3970 21 232 -7.94111 10.2963 11.827
3972 21 234 -2.21122 11.3297 12.4976
3962 21 226 7.14382 -22.3786 -4.27177
3681 21 35 3.40267 -23.7967 6.67465
3933 21 207 5.25421 -23.6223 19.8629
3835 21 139 0.344155 -12.2999 0.630817
3978 21 240 2.59269 -10.5318 2.46417
3887 21 173 7.08999 -3.12843 14.1585
3977 21 239 1.18934 0.487832 -9.26481
4018 21 264 6.65531 1.14081 -1.70634
3949 21 217 4.34803 6.0428 -6.10345
3904 21 186 1.64969 2.32069 5.02524
3999 21 251 -0.0835655 3.24115 20.4213
3960 21 224 12.6311 -18.5805 -6.36217
3986 21 244 13.6467 -16.9035 -1.92447
3845 21 145 8.22268 -21.7545 13.3604
4017 21 263 13.5536 -19.5647 11.9356
3921 21 199 14.2209 -17.281 14.7809
3905 21 187 13.2246 -12.6769 -7.87158
3967 21 229 13.3553 -16.3714 5.95151
4003 21 253 14.7977 -9.32599 20.6586
3752 21 86 10.6601 -2.46899 16.5015
3816 21 126 10.3333 5.73002 -9.5682
4016 21 262 14.7014 5.21057 -0.51463
3702 21 50 10.1598 -1.1055 7.4066
3780 21 102 11.6444 6.02144 13.714
3654 21 16 15.1911 4.151 15.6225
3886 21 172 8.19009 -0.217482 16.0029
3948 21 216 8.40548 0.633138 12.3402
4015 21 261 10.6606 7.04425 -5.99844
3844 21 144 16.8299 12.1924 18.3767
ITEM: TIMESTEP
1530000
ITEM: NUMBER OF ATOMS
56
ITEM: BOX BOUNDS pp pp pp
-1.8976128220800824e+01 1.7157108441875387e+01
-2.4250838759604374e+01 1.4023430517516967e+01
-9.5187526738002290e+00 2.0891411495115982e+01
ITEM: ATOMS id type mol x y z
4009 21 257 -17.9246 -20.7319 -2.26917
3947 21 215 -13.3046 -21.4711 10.3403
4023 21 267 -18.8985 -19.5716 13.0448
3939 21 211 -16.6364 -13.5026 13.6396
4014 21 260 -14.1125 -14.2198 16.2368
3903 21 185 -16.6037 -5.48326 -2.78774
3938 21 210 -15.6257 -7.58243 3.67746
3958 21 222 -12.0285 -1.00533 7.8029
3847 21 147 -9.98349 7.54544 2.19973
3764 21 94 -18.8518 7.0524 17.2613
4005 21 255 -14.7262 6.97278 18.352
3641 21 11 -15.7192 11.2677 17.8417
3848 21 148 -2.3528 -17.8122 0.0234223
4022 21 266 -5.94522 -16.8651 -2.48087
3748 21 82 -5.08118 -20.7136 -1.73755
4004 21 254 -2.63212 -14.7698 0.659258
3968 21 230 -4.50006 -9.25997 14.5866
3810 21 122 -9.44943 -14.8506 15.6902
3946 21 214 -3.84886 -13.0679 10.7793
3839 21 141 -4.58384 -8.00379 2.85879
3846 21 146 -9.05781 -8.90658 20.0208
3920 21 198 -8.16284 2.0814 -9.06872
3671 21 29 -6.17852 1.55187 5.36279
4010 21 258 -3.59819 9.68297 -8.95454
3881 21 169 -9.76833 10.5946 0.366893
3970 21 232 -8.06994 10.2698 11.7115
3972 21 234 -2.23507 11.3014 12.3695
3962 21 226 7.29136 -22.3489 -4.08445
3681 21 35 3.48167 -23.7646 6.65606
3933 21 207 5.36714 -23.5905 19.5962
3835 21 139 0.367123 -12.2875 0.725916
3978 21 240 2.65686 -10.5225 2.52478
3887 21 173 7.23654 -3.13185 13.9992
3977 21 239 1.2278 0.478201 -8.98357
4018 21 264 6.7939 1.13006 -1.56728
3949 21 217 4.44435 6.02361 -5.88167
3904 21 186 1.69658 2.30791 5.03768
3999 21 251 -0.0684336 3.22678 20.1441
3960 21 224 12.8791 -18.5574 -6.13553
3986 21 244 13.9133 -16.8833 -1.7813
3845 21 145 8.38999 -21.7259 13.2161
4017 21 263 13.8186 -19.5398 11.8181
3921 21 199 14.4981 -17.2601 14.6098
3905 21 187 13.4836 -12.6639 -7.61654
3967 21 229 13.6167 -16.3521 5.94652
4003 21 253 15.0855 -9.31874 20.377
3752 21 86 10.872 -2.47354 16.2981
3816 21 126 10.5393 5.71137 -9.28125
4016 21 262 14.9874 5.19282 -0.397983
3702 21 50 10.3626 -1.11239 7.37424
3780 21 102 11.8744 6.0023 13.563
3654 21 16 15.4861 4.13507 15.4356
3886 21 172 8.3568 -0.2259 15.8088
3948 21 216 8.57614 0.623257 12.215
4015 21 261 10.8726 7.02335 -5.77863
3844 21 144 17.1549 12.1627 18.1379
ITEM: TIMESTEP
1535000
ITEM: NUMBER OF ATOMS
53
ITEM: BOX BOUNDS pp pp pp
-1.8947899528569554e+01 1.7128879749644117e+01
-2.4402451355235510e+01 1.4175043113148103e+01
-9.5057083849255584e+00 2.0878367206228244e+01
ITEM: ATOMS id type mol x y z
4009 21 257 -17.898 -20.8556 -2.26234
3947 21 215 -13.2852 -21.6007 10.3363
4023 21 267 -18.8704 -19.6862 13.0385
3939 21 211 -16.6119 -13.5691 13.6328
4014 21 260 -14.0919 -14.2919 16.2277
3903 21 185 -16.5792 -5.48619 -2.78047
3938 21 210 -15.6027 -7.60199 3.67918
3958 21 222 -12.0111 -0.972782 7.80108
3847 21 147 -9.96932 7.64573 2.20272
3764 21 94 -18.8238 7.14879 17.2514
4005 21 255 -14.7046 7.06853 18.3412
3641 21 11 -15.6961 11.3975 17.8313
3848 21 148 -2.35055 -17.9129 0.0282804
3748 21 82 -5.07466 -20.8372 -1.73119
3968 21 230 -4.49445 -9.29282 14.5789
3810 21 122 -9.43608 -14.9278 15.6817
3946 21 214 -3.84427 -13.1309 10.7749
3839 21 141 -4.5781 -8.02668 2.86121
3846 21 146 -9.04508 -8.93663 20.0085
3920 21 198 -8.15151 2.1384 -9.05607
3671 21 29 -6.17029 1.60468 5.36307
4010 21 258 -3.59399 9.8002 -8.94198
3881 21 169 -9.75449 10.719 0.371456
3970 21 232 -8.05875 10.3917 11.7063
3972 21 234 -2.233 11.4315 12.3637
3962 21 226 7.27855 -22.4854 -4.07607
3681 21 35 3.47481 -23.9123 6.65523
3933 21 207 5.35733 -23.7369 19.5843
3835 21 139 0.365128 -12.3443 0.730171
3978 21 240 2.65128 -10.5653 2.52749
3887 21 173 7.22381 -3.11615 13.992
3977 21 239 1.22446 0.522502 -8.97098
4018 21 264 6.78187 1.17952 -1.56105
3949 21 217 4.43598 6.11185 -5.87175
3904 21 186 1.6925 2.3667 5.03823
3960 21 224 12.8576 -18.6639 -6.12539
3986 21 244 13.8902 -16.9765 -1.7749
3845 21 145 8.37546 -21.8575 13.2096
4017 21 263 13.7956 -19.6541 11.8128
3921 21 199 14.474 -17.3563 14.6022
3905 21 187 13.4611 -12.7237 -7.60513
3967 21 229 13.594 -16.4411 5.9463
4003 21 253 15.0605 -9.35206 20.3644
3752 21 86 10.8536 -2.45262 16.289
3816 21 126 10.5214 5.79713 -9.26841
4016 21 262 14.9625 5.27447 -0.392764
3702 21 50 10.345 -1.08069 7.37279
3780 21 102 11.8544 6.09036 13.5562
3654 21 16 15.4605 4.20834 15.4273
3886 21 172 8.34232 -0.187177 15.8002
3948 21 216 8.56132 0.668707 12.2094
4015 21 261 10.8542 7.1195 -5.7688
3844 21 144 17.1266 12.2996 18.1273
ITEM: TIMESTEP
1540000
ITEM: NUMBER OF ATOMS
52
ITEM: BOX BOUNDS pp pp pp
-1.8958644291482226e+01 1.7139624512556789e+01
-2.4428194797671193e+01 1.4200786555583786e+01
-9.4993936259894483e+00 2.0872052447276619e+01
ITEM: ATOMS id type mol x y z
4009 21 257 -17.9082 -20.8766 -2.25904
3947 21 215 -13.2926 -21.6227 10.3344
4023 21 267 -18.8811 -19.7056 13.0354
3939 21 211 -16.6212 -13.5804 13.6295
4014 21 260 -14.0997 -14.3042 16.2233
3903 21 185 -16.5886 -5.48668 -2.77695
3938 21 210 -15.6114 -7.60531 3.68002
3958 21 222 -12.0178 -0.967255 7.8002
3847 21 147 -9.97471 7.66276 2.20417
3764 21 94 -18.8345 7.16515 17.2466
4005 21 255 -14.7128 7.08479 18.3359
3641 21 11 -15.7049 11.4195 17.8262
3848 21 148 -2.3514 -17.9299 0.0306323
3748 21 82 -5.07714 -20.8582 -1.7281
3968 21 230 -4.49659 -9.29839 14.5752
3810 21 122 -9.44116 -14.9408 15.6775
3946 21 214 -3.84601 -13.1416 10.7728
3839 21 141 -4.58028 -8.03057 2.86239
3846 21 146 -9.04993 -8.94173 20.0026
3920 21 198 -8.15582 2.14808 -9.04994
3671 21 29 -6.17342 1.61365 5.3632
4010 21 258 -3.59559 9.8201 -8.9359
3881 21 169 -9.75976 10.7402 0.373666
3970 21 232 -8.06301 10.4124 11.7038
3972 21 234 -2.23379 11.4536 12.3609
3962 21 226 7.28342 -22.5086 -4.07201
3681 21 35 3.47742 -23.9374 6.65482
3933 21 207 5.36106 -23.7618 19.5785
3835 21 139 0.365888 -12.354 0.732231
3978 21 240 2.65341 -10.5726 2.52881
3887 21 173 7.22866 -3.11348 13.9886
3977 21 239 1.22573 0.530024 -8.96489
4018 21 264 6.78645 1.18792 -1.55804
3949 21 217 4.43917 6.12683 -5.86694
3904 21 186 1.69405 2.37669 5.0385
3960 21 224 12.8658 -18.682 -6.12048
3845 21 145 8.38099 -21.8799 13.2065
4017 21 263 13.8043 -19.6735 11.8103
3921 21 199 14.4832 -17.3726 14.5985
3905 21 187 13.4697 -12.7339 -7.5996
3967 21 229 13.6026 -16.4562 5.94619
4003 21 253 15.07 -9.35771 20.3583
3752 21 86 10.8606 -2.44907 16.2846
3816 21 126 10.5282 5.81169 -9.2622
4016 21 262 14.972 5.28833 -0.390237
3702 21 50 10.3517 -1.07531 7.37209
3780 21 102 11.862 6.10532 13.5529
3654 21 16 15.4702 4.22078 15.4232
3886 21 172 8.34783 -0.180602 15.796
3948 21 216 8.56696 0.676425 12.2067
4015 21 261 10.8612 7.13583 -5.76404
3844 21 144 17.1374 12.3228 18.1221
ITEM: TIMESTEP
1545000
ITEM: NUMBER OF ATOMS
54
ITEM: BOX BOUNDS pp pp pp
-1.8760966966081067e+01 1.6941947187155630e+01
-2.4527191145172626e+01 1.4299782903085219e+01
-9.4754421213249067e+00 2.0848100942602954e+01
ITEM: ATOMS id type mol x y z
4009 21 257 -17.722 -20.9574 -2.24651
3947 21 215 -13.1569 -21.7073 10.3271
4023 21 267 -18.6842 -19.7804 13.0238
3939 21 211 -16.4491 -13.6238 13.617
4014 21 260 -13.9553 -14.3513 16.2067
3903 21 185 -16.4168 -5.48859 -2.7636
3938 21 210 -15.4504 -7.61808 3.68318
3958 21 222 -11.8961 -0.946002 7.79687
3847 21 147 -9.87543 7.72825 2.20966
3764 21 94 -18.6381 7.22809 17.2283
4005 21 255 -14.5616 7.14731 18.316
3641 21 11 -15.5428 11.5042 17.8071
3848 21 148 -2.33561 -17.9956 0.0395526
4025 21 269 -6.33568 -18.6126 -1.67201
3748 21 82 -5.0315 -20.9389 -1.71641
3968 21 230 -4.4573 -9.31984 14.5612
3810 21 122 -9.34772 -14.9912 15.6617
3946 21 214 -3.81385 -13.1827 10.7648
3839 21 141 -4.54008 -8.04552 2.86684
3846 21 146 -8.96077 -8.96135 19.98
3920 21 198 -8.07646 2.1853 -9.0267
3671 21 29 -6.11577 1.64813 5.36371
4024 21 268 -5.64645 -1.10476 16.306
4010 21 258 -3.56617 9.89665 -8.91284
3881 21 169 -9.66283 10.8214 0.382045
3970 21 232 -7.98466 10.4919 11.6943
3972 21 234 -2.21928 11.5385 12.3504
3962 21 226 7.19369 -22.5978 -4.05662
3681 21 35 3.42938 -24.0339 6.6533
3933 21 207 5.29239 -23.8573 19.5566
3835 21 139 0.351919 -12.3911 0.740045
3978 21 240 2.61438 -10.6006 2.53379
3887 21 173 7.13953 -3.10323 13.9755
3977 21 239 1.20234 0.558951 -8.94178
4018 21 264 6.70216 1.22022 -1.54661
3949 21 217 4.38059 6.18444 -5.84872
3904 21 186 1.66554 2.41508 5.03952
3960 21 224 12.7149 -18.7515 -6.10186
3845 21 145 8.27924 -21.9658 13.1946
4017 21 263 13.6432 -19.7481 11.8006
3921 21 199 14.3146 -17.4355 14.5844
3905 21 187 13.3122 -12.7729 -7.57865
3967 21 229 13.4437 -16.5144 5.94578
4003 21 253 14.895 -9.37947 20.3351
3752 21 86 10.7317 -2.43541 16.2678
3816 21 126 10.4029 5.86769 -9.23862
4016 21 262 14.7981 5.34165 -0.380653
3702 21 50 10.2284 -1.05461 7.36943
3780 21 102 11.7221 6.16282 13.5405
3654 21 16 15.2908 4.26862 15.4079
3886 21 172 8.24644 -0.155317 15.78
3948 21 216 8.46317 0.706102 12.1964
4015 21 261 10.7323 7.19861 -5.74598
3844 21 144 16.9397 12.4122 18.1025
ITEM: TIMESTEP
1550000
ITEM: NUMBER OF ATOMS
54
ITEM: BOX BOUNDS pp pp pp
-1.8618569458755506e+01 1.6799549679830069e+01
-2.4564789721062461e+01 1.4337381478975054e+01
-9.6156519815282451e+00 2.0988310802738351e+01
ITEM: ATOMS id type mol x y z
4009 21 257 -17.5879 -20.9881 -2.31986
3947 21 215 -13.0592 -21.7394 10.37
4023 21 267 -18.5424 -19.8088 13.0917
3939 21 211 -16.3252 -13.6402 13.6903
4014 21 260 -13.8512 -14.3692 16.304
3903 21 185 -16.2931 -5.48932 -2.84175
3938 21 210 -15.3344 -7.62293 3.66466
3958 21 222 -11.8085 -0.937931 7.81638
3847 21 147 -9.80391 7.75312 2.17751
3764 21 94 -18.4967 7.25199 17.3351
4005 21 255 -14.4527 7.17106 18.4328
3641 21 11 -15.4261 11.5364 17.9192
3848 21 148 -2.32424 -18.0206 -0.0126664
3748 21 82 -4.99861 -20.9696 -1.78487
3968 21 230 -4.429 -9.32799 14.6433
3810 21 122 -9.28041 -15.0103 15.754
3946 21 214 -3.79069 -13.1984 10.8118
3839 21 141 -4.51112 -8.0512 2.84077
3846 21 146 -8.89655 -8.9688 20.1122
3920 21 198 -8.01929 2.19944 -9.16276
3671 21 29 -6.07424 1.66123 5.36073
4024 21 268 -5.60867 -1.09699 16.4042
4010 21 258 -3.54498 9.92572 -9.04785
3881 21 169 -9.59301 10.8523 0.332993
3970 21 232 -7.92822 10.5222 11.7499
3972 21 234 -2.20884 11.5707 12.412
3962 21 226 7.12906 -22.6317 -4.14671
3681 21 35 3.39477 -24.0705 6.66224
3933 21 207 5.24292 -23.8936 19.6849
3835 21 139 0.341857 -12.4052 0.694304
3978 21 240 2.58627 -10.6112 2.50463
3887 21 173 7.07532 -3.09933 14.0521
3977 21 239 1.1855 0.569938 -9.07706
4018 21 264 6.64144 1.23249 -1.6135
3949 21 217 4.33839 6.20632 -5.95539
3904 21 186 1.645 2.42966 5.03354
3960 21 224 12.6062 -18.7779 -6.21087
4025 21 269 12.8275 -19.4254 1.63197
3845 21 145 8.20594 -21.9984 13.2641
4017 21 263 13.5271 -19.7765 11.8571
3921 21 199 14.1932 -17.4593 14.6667
3905 21 187 13.1987 -12.7878 -7.70132
3967 21 229 13.3292 -16.5364 5.94818
4003 21 253 14.7689 -9.38773 20.4706
3752 21 86 10.6389 -2.43023 16.3657
3816 21 126 10.3127 5.88896 -9.37664
4016 21 262 14.6728 5.3619 -0.436758
3702 21 50 10.1395 -1.04675 7.385
3780 21 102 11.6214 6.18466 13.6131
3654 21 16 15.1616 4.2868 15.4978
3886 21 172 8.17341 -0.145714 15.8734
3948 21 216 8.3884 0.717373 12.2567
4015 21 261 10.6394 7.22246 -5.8517
3844 21 144 16.7973 12.4461 18.2173
ITEM: TIMESTEP
1555000
ITEM: NUMBER OF ATOMS
53
ITEM: BOX BOUNDS pp pp pp
-1.8682651818056236e+01 1.6863632039130799e+01
-2.4330932806316564e+01 1.4103524564229158e+01
-9.6977893989891548e+00 2.1070448220151587e+01
ITEM: ATOMS id type mol x y z
4009 21 257 -17.6482 -20.7973 -2.36284
3947 21 215 -13.1032 -21.5395 10.3951
4023 21 267 -18.6063 -19.6321 13.1315
3939 21 211 -16.381 -13.5377 13.7333
4014 21 260 -13.898 -14.2579 16.361
3903 21 185 -16.3488 -5.4848 -2.88752
3958 21 222 -11.8479 -0.988135 7.82782
3847 21 147 -9.83609 7.59842 2.15867
3764 21 94 -18.5604 7.10332 17.3976
4005 21 255 -14.5017 7.02336 18.5012
3641 21 11 -15.4786 11.3363 17.9848
3848 21 148 -2.32936 -17.8654 -0.0432573
3748 21 82 -5.01341 -20.7789 -1.82497
3968 21 230 -4.44174 -9.27732 14.6914
3810 21 122 -9.3107 -14.8914 15.808
3946 21 214 -3.80111 -13.1012 10.8393
3839 21 141 -4.52415 -8.01588 2.82549
3846 21 146 -8.92545 -8.92246 20.1896
3920 21 198 -8.04502 2.11151 -9.24246
3671 21 29 -6.09293 1.57977 5.35898
4024 21 268 -5.62567 -1.14528 16.4617
4010 21 258 -3.55452 9.7449 -9.12694
3881 21 169 -9.62443 10.6603 0.304258
3970 21 232 -7.95362 10.3342 11.7824
3972 21 234 -2.21354 11.3701 12.4481
3962 21 226 7.15814 -22.421 -4.1995
3681 21 35 3.41034 -23.8426 6.66748
3933 21 207 5.26518 -23.6679 19.76
3835 21 139 0.346385 -12.3175 0.667508
3978 21 240 2.59892 -10.5451 2.48756
3887 21 173 7.10422 -3.12355 14.097
3977 21 239 1.19308 0.501604 -9.1563
4018 21 264 6.66877 1.15619 -1.65269
3949 21 217 4.35738 6.07023 -6.01788
3904 21 186 1.65424 2.33897 5.03004
3960 21 224 12.6552 -18.6136 -6.27473
4025 21 269 12.8772 -19.2534 1.6102
3845 21 145 8.23893 -21.7954 13.3047
4017 21 263 13.5793 -19.6002 11.8903
3921 21 199 14.2478 -17.3109 14.7149
3905 21 187 13.2498 -12.6955 -7.77318
3967 21 229 13.3807 -16.3991 5.94958
4003 21 253 14.8256 -9.33634 20.55
3752 21 86 10.6807 -2.46249 16.423
3816 21 126 10.3533 5.75668 -9.45749
4016 21 262 14.7291 5.23595 -0.469625
3702 21 50 10.1795 -1.09565 7.39411
3780 21 102 11.6667 6.04882 13.6557
3654 21 16 15.2198 4.17377 15.5504
3886 21 172 8.20628 -0.205443 15.928
3948 21 216 8.42205 0.647267 12.2919
4015 21 261 10.6812 7.07414 -5.91363
3844 21 144 16.8614 12.235 18.2846
ITEM: TIMESTEP
1560000
ITEM: NUMBER OF ATOMS
53
ITEM: BOX BOUNDS pp pp pp
-1.8828057595696681e+01 1.7009037816771244e+01
-2.4370819073282643e+01 1.4143410831195236e+01
-9.6401326892092456e+00 2.1012791510374754e+01
ITEM: ATOMS id type mol x y z
4009 21 257 -17.7852 -20.8298 -2.33267
3947 21 215 -13.203 -21.5736 10.3775
4023 21 267 -18.751 -19.6623 13.1035
3939 21 211 -16.5075 -13.5552 13.7031
4014 21 260 -14.0043 -14.2769 16.321
3903 21 185 -16.4751 -5.48558 -2.85539
3958 21 222 -11.9374 -0.979572 7.81979
3847 21 147 -9.90912 7.62481 2.17189
3764 21 94 -18.7048 7.12868 17.3537
4005 21 255 -14.6129 7.04855 18.4531
3641 21 11 -15.5978 11.3704 17.9387
3848 21 148 -2.34097 -17.8919 -0.0217839
3748 21 82 -5.04699 -20.8114 -1.79682
3968 21 230 -4.47064 -9.28596 14.6576
3810 21 122 -9.37944 -14.9117 15.7701
3946 21 214 -3.82477 -13.1177 10.82
3839 21 141 -4.55372 -8.02191 2.83622
3846 21 146 -8.99103 -8.93036 20.1352
3671 21 29 -6.13534 1.59366 5.36021
4024 21 268 -5.66426 -1.13705 16.4214
4010 21 258 -3.57616 9.77574 -9.07142
3881 21 169 -9.69573 10.6931 0.324429
3970 21 232 -8.01125 10.3662 11.7596
3972 21 234 -2.22421 11.4044 12.4228
3962 21 226 7.22415 -22.457 -4.16245
4026 21 270 4.72313 -19.956 6.87154
3681 21 35 3.44568 -23.8815 6.6638
3933 21 207 5.31569 -23.7064 19.7073
3835 21 139 0.35666 -12.3325 0.686317
3978 21 240 2.62763 -10.5564 2.49954
3887 21 173 7.16978 -3.11942 14.0655
3977 21 239 1.21028 0.513259 -9.10068
4018 21 264 6.73077 1.1692 -1.62518
3949 21 217 4.40047 6.09344 -5.97402
3904 21 186 1.67522 2.35444 5.0325
3960 21 224 12.7661 -18.6417 -6.2299
4025 21 269 12.99 -19.2827 1.62548
3845 21 145 8.31377 -21.8301 13.2762
4017 21 263 13.6979 -19.6303 11.867
3921 21 199 14.3718 -17.3362 14.6811
3905 21 187 13.3656 -12.7112 -7.72273
3967 21 229 13.4976 -16.4225 5.9486
4003 21 253 14.9544 -9.34511 20.4943
3752 21 86 10.7755 -2.45699 16.3828
3816 21 126 10.4454 5.77924 -9.40074
4016 21 262 14.8571 5.25743 -0.446554
3702 21 50 10.2702 -1.08731 7.38771
3780 21 102 11.7696 6.07199 13.6258
3654 21 16 15.3517 4.19305 15.5135
3886 21 172 8.28085 -0.195256 15.8897
3948 21 216 8.49839 0.659225 12.2672
4015 21 261 10.776 7.09944 -5.87016
3844 21 144 17.0068 12.271 18.2373
ITEM: TIMESTEP
1565000
ITEM: NUMBER OF ATOMS
54
ITEM: BOX BOUNDS pp pp pp
-1.8898277926367157e+01 1.7079258147441720e+01
-2.4225113244429352e+01 1.3997705002341945e+01
-9.5939345423175162e+00 2.0966593363482335e+01
ITEM: ATOMS id type mol x y z
4009 21 257 -17.8513 -20.7109 -2.3085
3947 21 215 -13.2511 -21.4491 10.3633
4023 21 267 -18.821 -19.5522 13.0812
3939 21 211 -16.5687 -13.4913 13.679
4014 21 260 -14.0556 -14.2075 16.2889
3903 21 185 -16.5361 -5.48276 -2.82964
3958 21 222 -11.9806 -1.01085 7.81336
3847 21 147 -9.94439 7.52843 2.18249
3764 21 94 -18.7745 7.03605 17.3185
4005 21 255 -14.6667 6.95653 18.4147
3641 21 11 -15.6554 11.2457 17.9018
3848 21 148 -2.34658 -17.7952 -0.00457811
3748 21 82 -5.0632 -20.6927 -1.77426
4030 21 272 -7.51834 -17.8772 -2.57907
3968 21 230 -4.48459 -9.25439 14.6306
3810 21 122 -9.41263 -14.8375 15.7397
3946 21 214 -3.83619 -13.0572 10.8045
3839 21 141 -4.568 -7.9999 2.84481
3846 21 146 -9.0227 -8.90148 20.0917
3671 21 29 -6.15582 1.54291 5.36119
4024 21 268 -5.68289 -1.16714 16.389
4010 21 258 -3.58661 9.66308 -9.02694
3881 21 169 -9.73016 10.5735 0.340591
3970 21 232 -8.03908 10.2491 11.7413
3972 21 234 -2.22936 11.2794 12.4025
3962 21 226 7.25602 -22.3257 -4.13276
4026 21 270 4.7452 -19.8437 6.86797
3681 21 35 3.46275 -23.7395 6.66085
3933 21 207 5.34009 -23.5657 19.665
3835 21 139 0.361622 -12.2779 0.701389
3978 21 240 2.64149 -10.5152 2.50915
3887 21 173 7.20144 -3.13451 14.0403
3977 21 239 1.21859 0.470684 -9.0561
4018 21 264 6.76071 1.12167 -1.60314
3949 21 217 4.42128 6.00864 -5.93887
3904 21 186 1.68535 2.29793 5.03447
3960 21 224 12.8197 -18.5393 -6.19398
4025 21 269 13.0445 -19.1755 1.63772
3845 21 145 8.34992 -21.7036 13.2533
4017 21 263 13.7551 -19.5204 11.8484
3921 21 199 14.4317 -17.2437 14.654
3905 21 187 13.4216 -12.6537 -7.68232
3967 21 229 13.5541 -16.337 5.94781
4003 21 253 15.0165 -9.31309 20.4496
3752 21 86 10.8213 -2.47709 16.3505
3816 21 126 10.4899 5.69682 -9.35526
4016 21 262 14.9189 5.17896 -0.428067
3702 21 50 10.314 -1.11777 7.38259
3780 21 102 11.8193 5.98735 13.6019
3654 21 16 15.4154 4.12263 15.4838
3886 21 172 8.31687 -0.232471 15.8589
3948 21 216 8.53526 0.615545 12.2473
4015 21 261 10.8218 7.00703 -5.83532
3844 21 144 17.077 12.1395 18.1995
ITEM: TIMESTEP
1570000
ITEM: NUMBER OF ATOMS
54
ITEM: BOX BOUNDS pp pp pp
-1.8681022253479668e+01 1.6862002474554231e+01
-2.4252426756871262e+01 1.4025018514783856e+01
-9.7601900360495790e+00 2.1132848857135439e+01
ITEM: ATOMS id type mol x y z
4009 21 257 -17.6467 -20.7332 -2.39549
3947 21 215 -13.1021 -21.4724 10.4142
4023 21 267 -18.6046 -19.5728 13.1617
3939 21 211 -16.3796 -13.5033 13.7659
4014 21 260 -13.8968 -14.2205 16.4043
3903 21 185 -16.3474 -5.48329 -2.9223
3958 21 222 -11.8469 -1.00499 7.8365
3847 21 147 -9.83528 7.54649 2.14436
3764 21 94 -18.5588 7.05341 17.4451
4005 21 255 -14.5005 6.97378 18.5532
3641 21 11 -15.4773 11.2691 18.0347
3848 21 148 -2.32923 -17.8133 -0.0664975
3748 21 82 -5.01304 -20.7149 -1.85544
4030 21 272 -7.43853 -17.8955 -2.669
3968 21 230 -4.44141 -9.26031 14.7279
3810 21 122 -9.30993 -14.8514 15.8491
3946 21 214 -3.80085 -13.0685 10.8602
3839 21 141 -4.52382 -8.00403 2.81389
3846 21 146 -8.92472 -8.9069 20.2484
3671 21 29 -6.09246 1.55243 5.35765
4024 21 268 -5.62524 -1.1615 16.5055
4010 21 258 -3.55428 9.6842 -9.18702
3881 21 169 -9.62363 10.5959 0.282427
3970 21 232 -7.95298 10.2711 11.8072
3972 21 234 -2.21342 11.3028 12.4756
3962 21 226 7.1574 -22.3503 -4.23959
4026 21 270 4.67691 -19.8648 6.88083
3681 21 35 3.40995 -23.7661 6.67146
3933 21 207 5.26461 -23.5921 19.8171
3835 21 139 0.34627 -12.2881 0.647151
3978 21 240 2.5986 -10.5229 2.47458
3887 21 173 7.10348 -3.13168 14.1312
3977 21 239 1.19289 0.478665 -9.21651
4018 21 264 6.66807 1.13058 -1.68245
3949 21 217 4.3569 6.02454 -6.06536
3904 21 186 1.65401 2.30852 5.02738
3960 21 224 12.6539 -18.5585 -6.32325
4025 21 269 12.8759 -19.1956 1.59367
3845 21 145 8.23809 -21.7273 13.3356
4017 21 263 13.578 -19.541 11.9154
3921 21 199 14.2464 -17.2611 14.7515
3905 21 187 13.2485 -12.6645 -7.82777
3967 21 229 13.3794 -16.353 5.95065
4003 21 253 14.8242 -9.31909 20.6103
3752 21 86 10.6796 -2.47332 16.4666
3816 21 126 10.3523 5.71227 -9.51892
4016 21 262 14.7277 5.19367 -0.494595
3702 21 50 10.1785 -1.11206 7.40104
3780 21 102 11.6656 6.00322 13.688
3654 21 16 15.2183 4.13583 15.5904
3886 21 172 8.20544 -0.225495 15.9696
3948 21 216 8.42119 0.623733 12.3187
4015 21 261 10.6801 7.02435 -5.96068
3844 21 144 16.8598 12.1641 18.3357
ITEM: TIMESTEP
1575000
ITEM: NUMBER OF ATOMS
53
ITEM: BOX BOUNDS pp pp pp
-1.8774754938191368e+01 1.6955735159265931e+01
-2.4354884583411192e+01 1.4127476341323785e+01
-9.6047731207664349e+00 2.0977431941891655e+01
ITEM: ATOMS id type mol x y z
4009 21 257 -17.735 -20.8168 -2.31417
3947 21 215 -13.1664 -21.56 10.3667
4023 21 267 -18.698 -19.6502 13.0864
3939 21 211 -16.4611 -13.5482 13.6846
4014 21 260 -13.9653 -14.2693 16.2964
3903 21 185 -16.4288 -5.48527 -2.83568
3958 21 222 -11.9046 -0.982993 7.81487
3847 21 147 -9.88235 7.61427 2.18
3764 21 94 -18.6518 7.11855 17.3268
4005 21 255 -14.5722 7.03849 18.4237
3641 21 11 -15.5541 11.3568 17.9105
3848 21 148 -2.33671 -17.8813 -0.00861477
3748 21 82 -5.03468 -20.7985 -1.77955
4030 21 272 -7.47296 -17.9639 -2.58493
3968 21 230 -4.46004 -9.28251 14.6369
3810 21 122 -9.35424 -14.9035 15.7468
3946 21 214 -3.8161 -13.1111 10.8081
3839 21 141 -4.54288 -8.0195 2.84279
3846 21 146 -8.96699 -8.9272 20.1019
3671 21 29 -6.11979 1.58811 5.36096
4024 21 268 -5.65011 -1.14034 16.3966
4010 21 258 -3.56823 9.76342 -9.03737
3881 21 169 -9.66959 10.68 0.336799
3970 21 232 -7.99013 10.3534 11.7456
3972 21 234 -2.2203 11.3907 12.4073
3962 21 226 7.19995 -22.4426 -4.13972
4026 21 270 4.70638 -19.9438 6.86881
3681 21 35 3.43273 -23.866 6.66155
3933 21 207 5.29718 -23.691 19.6749
3835 21 139 0.352894 -12.3265 0.697853
3978 21 240 2.61711 -10.5519 2.5069
3887 21 173 7.14575 -3.12107 14.0462
3977 21 239 1.20397 0.508603 -9.06656
4018 21 264 6.70804 1.164 -1.60831
3949 21 217 4.38467 6.08417 -5.94712
3904 21 186 1.66753 2.34826 5.03401
3960 21 224 12.7255 -18.6305 -6.20241
4025 21 269 12.9486 -19.271 1.63485
3845 21 145 8.28634 -21.8162 13.2587
4017 21 263 13.6544 -19.6183 11.8528
3921 21 199 14.3263 -17.3261 14.6603
3967 21 229 13.4548 -16.4132 5.94799
4003 21 253 14.9072 -9.34161 20.4601
3752 21 86 10.7407 -2.45919 16.3581
3816 21 126 10.4117 5.77023 -9.36593
4016 21 262 14.8102 5.24885 -0.432405
3702 21 50 10.237 -1.09064 7.38379
3780 21 102 11.7319 6.06273 13.6075
3654 21 16 15.3033 4.18535 15.4908
3886 21 172 8.25352 -0.199326 15.8661
3948 21 216 8.47041 0.654448 12.252
4015 21 261 10.7413 7.08933 -5.8435
3844 21 144 16.9535 12.2566 18.2084
ITEM: TIMESTEP
1580000
ITEM: NUMBER OF ATOMS
53
ITEM: BOX BOUNDS pp pp pp
-1.8603292519306265e+01 1.6784272740380828e+01
-2.4262537899273887e+01 1.4035129657186481e+01
-9.7828437460820403e+00 2.1155502567124067e+01
ITEM: ATOMS id type mol x y z
4009 21 257 -17.5735 -20.7414 -2.40734
3947 21 215 -13.0488 -21.4811 10.4212
4023 21 267 -18.5272 -19.5805 13.1726
3939 21 211 -16.3119 -13.5077 13.7778
4014 21 260 -13.84 -14.2253 16.42
3903 21 185 -16.2799 -5.48348 -2.93492
3958 21 222 -11.7991 -1.00282 7.83966
3847 21 147 -9.79624 7.55318 2.13917
3764 21 94 -18.4816 7.05984 17.4623
4005 21 255 -14.4411 6.98017 18.572
3641 21 11 -15.4136 11.2777 18.0528
3848 21 148 -2.32302 -17.82 -0.0749345
3748 21 82 -4.99509 -20.7232 -1.8665
4030 21 272 -7.40997 -17.9022 -2.68126
3968 21 230 -4.42597 -9.2625 14.7412
3810 21 122 -9.27319 -14.8566 15.864
3946 21 214 -3.7882 -13.0727 10.8678
3839 21 141 -4.50801 -8.00555 2.80968
3846 21 146 -8.88966 -8.9089 20.2698
3671 21 29 -6.06979 1.55595 5.35717
4024 21 268 -5.60461 -1.15941 16.5213
4010 21 258 -3.54271 9.69202 -9.20883
3881 21 169 -9.58552 10.6042 0.274502
3970 21 232 -7.92217 10.2792 11.8161
3972 21 234 -2.20772 11.3115 12.4855
3962 21 226 7.12212 -22.3594 -4.25415
4026 21 270 4.65248 -19.8726 6.88258
3681 21 35 3.39105 -23.776 6.6729
3933 21 207 5.23761 -23.6018 19.8378
3835 21 139 0.340778 -12.2919 0.63976
3978 21 240 2.58326 -10.5258 2.46987
3887 21 173 7.06843 -3.13064 14.1435
3977 21 239 1.18369 0.481619 -9.23836
4018 21 264 6.63493 1.13388 -1.69326
3949 21 217 4.33386 6.03042 -6.08259
3904 21 186 1.6428 2.31244 5.02641
3960 21 224 12.5946 -18.5656 -6.34086
4025 21 269 12.8156 -19.203 1.58767
3845 21 145 8.19808 -21.7361 13.3469
4017 21 263 13.5147 -19.5486 11.9246
3921 21 199 14.1801 -17.2675 14.7648
3967 21 229 13.3169 -16.3589 5.95104
4003 21 253 14.7554 -9.32131 20.6321
3752 21 86 10.6289 -2.47193 16.4824
3816 21 126 10.303 5.71799 -9.54122
4016 21 262 14.6593 5.19912 -0.503659
3702 21 50 10.13 -1.10995 7.40356
3780 21 102 11.6106 6.00909 13.6998
3654 21 16 15.1477 4.14072 15.605
3886 21 172 8.16557 -0.222912 15.9847
3948 21 216 8.38038 0.626764 12.3284
4015 21 261 10.6294 7.03077 -5.97777
3844 21 144 16.7821 12.1732 18.3542
ITEM: TIMESTEP
1585000
ITEM: NUMBER OF ATOMS
53
ITEM: BOX BOUNDS pp pp pp
-1.8673998601214102e+01 1.6854978822288665e+01
-2.4266090733803864e+01 1.4038682491716457e+01
-9.8703138196171274e+00 2.1242972640608706e+01
ITEM: ATOMS id type mol x y z
4009 21 257 -17.6401 -20.7443 -2.45311
3947 21 215 -13.0973 -21.4841 10.4479
4023 21 267 -18.5976 -19.5831 13.2149
3939 21 211 -16.3734 -13.5093 13.8235
4014 21 260 -13.8917 -14.227 16.4807
3903 21 185 -16.3413 -5.48355 -2.98367
3958 21 222 -11.8426 -1.00206 7.85183
3847 21 147 -9.83175 7.55553 2.11911
3764 21 94 -18.5518 7.0621 17.5289
4005 21 255 -14.4951 6.98241 18.6449
3641 21 11 -15.4715 11.2807 18.1228
3848 21 148 -2.32866 -17.8224 -0.107511
3748 21 82 -5.01141 -20.7261 -1.9092
4030 21 272 -7.43595 -17.9046 -2.72857
3968 21 230 -4.44002 -9.26327 14.7924
3810 21 122 -9.30661 -14.8584 15.9215
3946 21 214 -3.7997 -13.0742 10.8971
3839 21 141 -4.52239 -8.00609 2.79341
3846 21 146 -8.92155 -8.9096 20.3522
3671 21 29 -6.09041 1.55719 5.35531
4024 21 268 -5.62338 -1.15867 16.5826
4010 21 258 -3.55323 9.69477 -9.29306
3881 21 169 -9.62019 10.6071 0.243901
3970 21 232 -7.95019 10.282 11.8508
3972 21 234 -2.2129 11.3145 12.524
3962 21 226 7.15422 -22.3626 -4.31036
4026 21 270 4.6747 -19.8753 6.88934
3681 21 35 3.40824 -23.7794 6.67848
3933 21 207 5.26217 -23.6052 19.9178
3835 21 139 0.345774 -12.2932 0.611225
3978 21 240 2.59722 -10.5268 2.45168
3887 21 173 7.10032 -3.13027 14.1914
3977 21 239 1.19205 0.482657 -9.32276
4018 21 264 6.66508 1.13503 -1.73499
3949 21 217 4.35481 6.03249 -6.14914
3904 21 186 1.65299 2.31382 5.02268
3960 21 224 12.6486 -18.5681 -6.40887
4025 21 269 12.8705 -19.2057 1.56449
3845 21 145 8.23447 -21.7391 13.3902
4017 21 263 13.5723 -19.5513 11.9598
3921 21 199 14.2404 -17.2697 14.8162
3967 21 229 13.3738 -16.361 5.95253
4003 21 253 14.818 -9.32209 20.7167
3752 21 86 10.675 -2.47144 16.5434
3816 21 126 10.3478 5.72 -9.62732
4016 21 262 14.7215 5.20103 -0.538661
3702 21 50 10.1741 -1.10921 7.41327
3780 21 102 11.6606 6.01116 13.7451
3654 21 16 15.2119 4.14244 15.661
3886 21 172 8.20184 -0.222005 16.0429
3948 21 216 8.41751 0.627829 12.366
4015 21 261 10.6755 7.03302 -6.04372
3844 21 144 16.8528 12.1765 18.4258
ITEM: TIMESTEP
1590000
ITEM: NUMBER OF ATOMS
53
ITEM: BOX BOUNDS pp pp pp
-1.8796222686382158e+01 1.6977202907456721e+01
-2.4249226450422235e+01 1.4021818208334828e+01
-9.6925527482895291e+00 2.1065211569329211e+01
ITEM: ATOMS id type mol x y z
4009 21 257 -17.7552 -20.7306 -2.3601
3947 21 215 -13.1811 -21.4697 10.3935
4023 21 267 -18.7193 -19.5704 13.1289
3939 21 211 -16.4798 -13.5019 13.7306
4014 21 260 -13.981 -14.219 16.3573
3903 21 185 -16.4475 -5.48323 -2.8846
3958 21 222 -11.9178 -1.00568 7.82709
3847 21 147 -9.89314 7.54438 2.15987
3764 21 94 -18.6732 7.05138 17.3936
4005 21 255 -14.5886 6.97176 18.4968
3641 21 11 -15.5717 11.2663 17.9806
3848 21 148 -2.33843 -17.8112 -0.041307
3748 21 82 -5.03964 -20.7123 -1.82241
4030 21 272 -7.48085 -17.8933 -2.63242
3968 21 230 -4.46431 -9.25962 14.6883
3810 21 122 -9.36439 -14.8498 15.8046
3946 21 214 -3.81959 -13.0672 10.8375
3839 21 141 -4.54725 -8.00354 2.82647
3846 21 146 -8.97667 -8.90626 20.1847
3671 21 29 -6.12605 1.55131 5.35909
4024 21 268 -5.65581 -1.16216 16.4581
4010 21 258 -3.57142 9.68173 -9.12189
3881 21 169 -9.68012 10.5933 0.30609
3970 21 232 -7.99863 10.2685 11.7804
3972 21 234 -2.22187 11.3001 12.4458
3962 21 226 7.2097 -22.3474 -4.19613
4026 21 270 4.71312 -19.8623 6.8756
3681 21 35 3.43795 -23.763 6.66714
3933 21 207 5.30464 -23.589 19.7552
3835 21 139 0.35441 -12.2869 0.669216
3978 21 240 2.62134 -10.522 2.48864
3887 21 173 7.15543 -3.13201 14.0942
3977 21 239 1.20651 0.477729 -9.15125
4018 21 264 6.71719 1.12953 -1.65019
3949 21 217 4.39103 6.02267 -6.0139
3904 21 186 1.67063 2.30728 5.03026
3960 21 224 12.7418 -18.5562 -6.27066
4025 21 269 12.9653 -19.1933 1.61159
3845 21 145 8.29739 -21.7245 13.3021
4017 21 263 13.6719 -19.5386 11.8882
3921 21 199 14.3447 -17.259 14.7118
3967 21 229 13.472 -16.3511 5.94949
4003 21 253 14.9262 -9.31839 20.5449
3752 21 86 10.7547 -2.47376 16.4194
3816 21 126 10.4253 5.71046 -9.45234
4016 21 262 14.8291 5.19195 -0.46753
3702 21 50 10.2504 -1.11273 7.39353
3780 21 102 11.7471 6.00136 13.653
3654 21 16 15.3228 4.13429 15.5471
3886 21 172 8.26453 -0.226312 15.9246
3948 21 216 8.48168 0.622773 12.2897
4015 21 261 10.7553 7.02232 -5.90968
3844 21 144 16.975 12.1612 18.2803
ITEM: TIMESTEP
1595000
ITEM: NUMBER OF ATOMS
52
ITEM: BOX BOUNDS pp pp pp
-1.8898653587991646e+01 1.7079633809066209e+01
-2.4221076272869372e+01 1.3993668030781965e+01
-9.5606962072893147e+00 2.0933355028360619e+01
ITEM: ATOMS id type mol x y z
4009 21 257 -17.8517 -20.7076 -2.29111
3947 21 215 -13.2514 -21.4456 10.3532
4023 21 267 -18.8213 -19.5491 13.0651
3939 21 211 -16.569 -13.4896 13.6616
4014 21 260 -14.0559 -14.2056 16.2659
3903 21 185 -16.5364 -5.48268 -2.81112
3958 21 222 -11.9808 -1.01172 7.80873
3847 21 147 -9.94458 7.52575 2.19011
4005 21 255 -14.6669 6.95398 18.387
3641 21 11 -15.6557 11.2422 17.8752
3848 21 148 -2.34661 -17.7925 0.00780102
3748 21 82 -5.06329 -20.6894 -1.75803
4030 21 272 -7.51848 -17.8745 -2.56109
3968 21 230 -4.48467 -9.25352 14.6111
3810 21 122 -9.41281 -14.8355 15.7178
3946 21 214 -3.83625 -13.0555 10.7933
3846 21 146 -9.02287 -8.90068 20.0604
3671 21 29 -6.15593 1.54151 5.3619
4024 21 268 -5.68299 -1.16797 16.3657
4010 21 258 -3.58666 9.65996 -8.99493
3881 21 169 -9.73034 10.5702 0.352219
3970 21 232 -8.03923 10.2459 11.7281
3972 21 234 -2.22939 11.2759 12.3879
4031 21 273 -8.47573 13.7907 12.993
3962 21 226 7.25619 -22.3221 -4.1114
4026 21 270 4.74532 -19.8406 6.8654
3681 21 35 3.46284 -23.7356 6.65873
3933 21 207 5.34022 -23.5618 19.6346
3835 21 139 0.361649 -12.2764 0.712232
3978 21 240 2.64156 -10.5141 2.51606
3887 21 173 7.20161 -3.13493 14.0221
3977 21 239 1.21863 0.469504 -9.02404
4018 21 264 6.76087 1.12035 -1.58729
3949 21 217 4.42139 6.00629 -5.91358
3904 21 186 1.6854 2.29637 5.03589
3960 21 224 12.82 -18.5365 -6.16814
4025 21 269 13.0447 -19.1725 1.64653
3845 21 145 8.35011 -21.7001 13.2369
4017 21 263 13.7554 -19.5174 11.835
3921 21 199 14.432 -17.2412 14.6345
3967 21 229 13.5544 -16.3346 5.94724
4003 21 253 15.0169 -9.3122 20.4175
3752 21 86 10.8215 -2.47765 16.3273
3816 21 126 10.4902 5.69454 -9.32254
4016 21 262 14.9192 5.17679 -0.414767
3702 21 50 10.3143 -1.11862 7.3789
3780 21 102 11.8196 5.98501 13.5847
3654 21 16 15.4158 4.12068 15.4625
3886 21 172 8.31706 -0.233502 15.8368
3948 21 216 8.53546 0.614335 12.2331
4015 21 261 10.8221 7.00447 -5.81026
3844 21 144 17.0774 12.1358 18.1723
ITEM: TIMESTEP
1600000
ITEM: NUMBER OF ATOMS
51
ITEM: BOX BOUNDS pp pp pp
-1.8808923839603953e+01 1.6989904060678516e+01
-2.4410410677465812e+01 1.4183002435378405e+01
-9.5808803425040345e+00 2.0953539163550211e+01
ITEM: ATOMS id type mol x y z
4009 21 257 -17.7672 -20.8621 -2.30167
3947 21 215 -13.1898 -21.6075 10.3594
4023 21 267 -18.732 -19.6922 13.0749
3939 21 211 -16.4909 -13.5726 13.6721
4014 21 260 -13.9903 -14.2957 16.2799
3903 21 185 -16.4585 -5.48634 -2.82237
3958 21 222 -11.9256 -0.971073 7.81154
3847 21 147 -9.89951 7.651 2.18548
4005 21 255 -14.5983 7.07356 18.4038
3641 21 11 -15.5821 11.4043 17.8914
3848 21 148 -2.33944 -17.9181 0.000283737
3748 21 82 -5.04257 -20.8437 -1.76789
4030 21 272 -7.48552 -18.001 -2.57201
3968 21 230 -4.46683 -9.29454 14.6229
3810 21 122 -9.37039 -14.9318 15.7311
3946 21 214 -3.82166 -13.1342 10.8001
3846 21 146 -8.9824 -8.93821 20.0794
3671 21 29 -6.12976 1.60745 5.36147
4024 21 268 -5.65918 -1.12887 16.3799
4010 21 258 -3.57331 9.80635 -9.01437
3881 21 169 -9.68635 10.7256 0.345158
3970 21 232 -8.00367 10.3981 11.7361
3972 21 234 -2.2228 11.4383 12.3968
4031 21 273 -8.43799 13.978 13.0027
3962 21 226 7.21546 -22.4926 -4.12437
3681 21 35 3.44103 -23.9201 6.66002
3933 21 207 5.30905 -23.7446 19.6531
3835 21 139 0.355308 -12.3473 0.705648
3978 21 240 2.62385 -10.5676 2.51186
3887 21 173 7.16115 -3.11532 14.0331
3977 21 239 1.20802 0.524828 -9.04351
4018 21 264 6.72261 1.18212 -1.59691
3949 21 217 4.3948 6.11648 -5.92894
3904 21 186 1.67246 2.36979 5.03503
3960 21 224 12.7515 -18.6695 -6.18383
4025 21 269 12.9751 -19.3118 1.64118
3845 21 145 8.30392 -21.8644 13.2468
4017 21 263 13.6823 -19.6601 11.8431
3921 21 199 14.3555 -17.3613 14.6463
3967 21 229 13.4822 -16.4458 5.94758
4003 21 253 14.9374 -9.35381 20.437
3752 21 86 10.763 -2.45153 16.3414
3816 21 126 10.4333 5.80163 -9.34241
4016 21 262 14.8402 5.27876 -0.422844
3702 21 50 10.2583 -1.07903 7.38114
3780 21 102 11.7561 6.09499 13.5951
3654 21 16 15.3343 4.21219 15.4755
3886 21 172 8.27104 -0.185144 15.8502
3948 21 216 8.48835 0.671093 12.2417
4015 21 261 10.7635 7.12455 -5.82548
3844 21 144 16.9877 12.3067 18.1888
ITEM: TIMESTEP
1605000
ITEM: NUMBER OF ATOMS
51
ITEM: BOX BOUNDS pp pp pp
-1.8868149176048149e+01 1.7049129397122712e+01
-2.4376021943915898e+01 1.4148613701828491e+01
-9.4601967784200376e+00 2.0832855599493950e+01
ITEM: ATOMS id type mol x y z
4009 21 257 -17.8229 -20.8341 -2.23853
3947 21 215 -13.2305 -21.5781 10.3224
4023 21 267 -18.791 -19.6662 13.0165
4032 21 274 -13.3629 -20.6427 13.0781
3939 21 211 -16.5424 -13.5575 13.609
4014 21 260 -14.0336 -14.2793 16.1961
3903 21 185 -16.5099 -5.48568 -2.75511
3958 21 222 -11.9621 -0.978455 7.79475
3847 21 147 -9.92926 7.62825 2.21315
4005 21 255 -14.6436 7.05184 18.3033
3641 21 11 -15.6307 11.3748 17.7949
3848 21 148 -2.34417 -17.8953 0.0452305
3748 21 82 -5.05624 -20.8157 -1.70896
4030 21 272 -7.50727 -17.978 -2.50673
3968 21 230 -4.4786 -9.28709 14.5523
3810 21 122 -9.39839 -14.9143 15.6517
3946 21 214 -3.83129 -13.1199 10.7597
3846 21 146 -9.00911 -8.93139 19.9656
3671 21 29 -6.14703 1.59548 5.36404
4024 21 268 -5.67489 -1.13597 16.2953
4010 21 258 -3.58212 9.77976 -8.89816
3881 21 169 -9.71539 10.6973 0.387378
3970 21 232 -8.02714 10.3704 11.6883
3972 21 234 -2.22715 11.4088 12.3437
4031 21 273 -8.4629 13.944 12.9448
3962 21 226 7.24235 -22.4616 -4.04682
3681 21 35 3.45543 -23.8866 6.65232
3933 21 207 5.32962 -23.7114 19.5427
3835 21 139 0.359493 -12.3344 0.745019
3978 21 240 2.63554 -10.5579 2.53696
3887 21 173 7.18786 -3.11888 13.9671
3977 21 239 1.21502 0.514779 -8.92707
4018 21 264 6.74786 1.1709 -1.53934
3949 21 217 4.41235 6.09647 -5.83712
3904 21 186 1.681 2.35646 5.04017
3960 21 224 12.7967 -18.6453 -6.09
4025 21 269 13.0211 -19.2865 1.67315
3845 21 145 8.33441 -21.8346 13.1871
4017 21 263 13.7306 -19.6342 11.7945
3921 21 199 14.406 -17.3395 14.5755
3967 21 229 13.5299 -16.4256 5.94552
4003 21 253 14.9899 -9.34625 20.3204
3752 21 86 10.8016 -2.45627 16.2572
3816 21 126 10.4708 5.78218 -9.22361
4016 21 262 14.8924 5.26023 -0.374552
3702 21 50 10.2952 -1.08622 7.36774
3780 21 102 11.798 6.07501 13.5326
3654 21 16 15.3881 4.19557 15.3981
3886 21 172 8.30142 -0.193927 15.7699
3948 21 216 8.51944 0.660784 12.1899
4015 21 261 10.8022 7.10274 -5.73448
ITEM: TIMESTEP
1610000
ITEM: NUMBER OF ATOMS
51
ITEM: BOX BOUNDS pp pp pp
-1.8816858405867119e+01 1.6997838626941682e+01
-2.4300377816129885e+01 1.4072969574042478e+01
-9.5997509102001892e+00 2.0972409731204035e+01
ITEM: ATOMS id type mol x y z
4009 21 257 -17.7746 -20.7723 -2.31155
3947 21 215 -13.1953 -21.5134 10.3651
4023 21 267 -18.7399 -19.609 13.084
4032 21 274 -13.3274 -20.5817 13.1462
3939 21 211 -16.4978 -13.5243 13.682
4014 21 260 -13.9961 -14.2433 16.293
3903 21 185 -16.4654 -5.48421 -2.83288
3958 21 222 -11.9305 -0.994695 7.81417
3847 21 147 -9.9035 7.57821 2.18115
4005 21 255 -14.6044 7.00406 18.4195
3641 21 11 -15.5886 11.3101 17.9065
3848 21 148 -2.34008 -17.8451 -0.00674433
3748 21 82 -5.0444 -20.754 -1.7771
4030 21 272 -7.48843 -17.9275 -2.58222
3968 21 230 -4.46841 -9.2707 14.634
3810 21 122 -9.37414 -14.8758 15.7435
3946 21 214 -3.82295 -13.0885 10.8064
3846 21 146 -8.98598 -8.9164 20.0972
3671 21 29 -6.13207 1.56913 5.36107
4024 21 268 -5.66128 -1.15159 16.3931
4010 21 258 -3.57449 9.72128 -9.03254
3881 21 169 -9.69024 10.6352 0.338556
3970 21 232 -8.00681 10.3096 11.7436
3972 21 234 -2.22339 11.3439 12.4051
4031 21 273 -8.44133 13.8692 13.0117
3962 21 226 7.21906 -22.3935 -4.1365
3681 21 35 3.44296 -23.8128 6.66122
3933 21 207 5.3118 -23.6384 19.6703
3835 21 139 0.355869 -12.3061 0.699491
3978 21 240 2.62542 -10.5365 2.50794
3887 21 173 7.16473 -3.12672 14.0434
3977 21 239 1.20896 0.492676 -9.06172
4018 21 264 6.72599 1.14622 -1.60592
3949 21 217 4.39715 6.05244 -5.94329
3904 21 186 1.6736 2.32712 5.03422
3960 21 224 12.7576 -18.5922 -6.19851
4025 21 269 12.9813 -19.2309 1.63618
3845 21 145 8.30801 -21.7689 13.2562
4017 21 263 13.6888 -19.5772 11.8507
3921 21 199 14.3623 -17.2915 14.6574
3967 21 229 13.4886 -16.3812 5.94791
4003 21 253 14.9444 -9.32963 20.4552
3752 21 86 10.7682 -2.46671 16.3546
3816 21 126 10.4383 5.73939 -9.36098
4016 21 262 14.8472 5.2195 -0.430395
3702 21 50 10.2632 -1.10204 7.38323
3780 21 102 11.7617 6.03107 13.6049
3654 21 16 15.3415 4.15901 15.4876
3886 21 172 8.27511 -0.213247 15.8628
3948 21 216 8.49251 0.638108 12.2498
4015 21 261 10.7687 7.05477 -5.83971
ITEM: TIMESTEP
1615000
ITEM: NUMBER OF ATOMS
51
ITEM: BOX BOUNDS pp pp pp
-1.8757439367274824e+01 1.6938419588349387e+01
-2.4341626707837175e+01 1.4114218465749769e+01
-9.6709799141190089e+00 2.1043638735078012e+01
ITEM: ATOMS id type mol x y z
4009 21 257 -17.7187 -20.806 -2.34881
3947 21 215 -13.1545 -21.5487 10.3869
4023 21 267 -18.6807 -19.6402 13.1185
4032 21 274 -13.2861 -20.6149 13.1809
3939 21 211 -16.4461 -13.5424 13.7193
4014 21 260 -13.9527 -14.263 16.3424
3903 21 185 -16.4138 -5.48501 -2.87258
3958 21 222 -11.8939 -0.985839 7.82409
3847 21 147 -9.87366 7.6055 2.16482
4005 21 255 -14.5589 7.03012 18.4788
3641 21 11 -15.5399 11.3454 17.9634
3848 21 148 -2.33533 -17.8725 -0.0332725
3748 21 82 -5.03068 -20.7876 -1.81188
4030 21 272 -7.4666 -17.9551 -2.62075
3968 21 230 -4.4566 -9.27964 14.6757
3810 21 122 -9.34606 -14.8968 15.7904
3946 21 214 -3.81328 -13.1056 10.8303
3846 21 146 -8.95918 -8.92458 20.1643
3671 21 29 -6.11474 1.5835 5.35955
4024 21 268 -5.64552 -1.14308 16.443
4010 21 258 -3.56565 9.75317 -9.10112
3881 21 169 -9.6611 10.6691 0.313637
3970 21 232 -7.98326 10.3428 11.7718
3972 21 234 -2.21903 11.3793 12.4364
4031 21 273 -8.41633 13.91 13.0458
3962 21 226 7.19209 -22.4307 -4.18227
3681 21 35 3.42852 -23.853 6.66577
3933 21 207 5.29116 -23.6782 19.7355
3835 21 139 0.35167 -12.3215 0.676254
3978 21 240 2.61369 -10.5481 2.49313
3887 21 173 7.13794 -3.12244 14.0824
3977 21 239 1.20193 0.504729 -9.13044
4018 21 264 6.70066 1.15968 -1.6399
3949 21 217 4.37954 6.07645 -5.99749
3904 21 186 1.66503 2.34312 5.03118
3960 21 224 12.7122 -18.6212 -6.25389
4025 21 269 12.9352 -19.2612 1.61731
3845 21 145 8.27742 -21.8047 13.2915
4017 21 263 13.6403 -19.6083 11.8795
3921 21 199 14.3116 -17.3177 14.6992
3967 21 229 13.4408 -16.4054 5.94912
4003 21 253 14.8918 -9.33869 20.5241
3752 21 86 10.7294 -2.46102 16.4043
3816 21 126 10.4007 5.76273 -9.4311
4016 21 262 14.7949 5.24171 -0.458897
3702 21 50 10.2262 -1.09341 7.39114
3780 21 102 11.7196 6.05503 13.6418
3654 21 16 15.2876 4.17894 15.5332
3886 21 172 8.24463 -0.202712 15.9102
3948 21 216 8.46132 0.650473 12.2804
4015 21 261 10.73 7.08093 -5.89342
ITEM: TIMESTEP
1620000
ITEM: NUMBER OF ATOMS
52
ITEM: BOX BOUNDS pp pp pp
-1.8670696829783235e+01 1.6851677050857798e+01
-2.4453881915815234e+01 1.4226473673727828e+01
-9.6235362659102854e+00 2.0996195086869513e+01
ITEM: ATOMS id type mol x y z
4009 21 257 -17.637 -20.8976 -2.32399
3947 21 215 -13.095 -21.6446 10.3724
4023 21 267 -18.5944 -19.725 13.0955
4032 21 274 -13.226 -20.7054 13.1578
3939 21 211 -16.3706 -13.5916 13.6945
4014 21 260 -13.8893 -14.3164 16.3095
3903 21 185 -16.3384 -5.48718 -2.84614
3958 21 222 -11.8405 -0.96174 7.81748
3847 21 147 -9.83009 7.67975 2.1757
4005 21 255 -14.4926 7.10101 18.4393
3641 21 11 -15.4688 11.4415 17.9255
3848 21 148 -2.3284 -17.947 -0.0156028
3748 21 82 -5.01065 -20.8792 -1.78872
4030 21 272 -7.43473 -18.03 -2.59508
3968 21 230 -4.43936 -9.30396 14.6479
3810 21 122 -9.30505 -14.9539 15.7592
3946 21 214 -3.79917 -13.1523 10.8144
4039 21 277 -4.03128 -6.23932 2.82957
3846 21 146 -8.92006 -8.94682 20.1196
3671 21 29 -6.08944 1.6226 5.36056
4024 21 268 -5.6225 -1.11989 16.4097
4010 21 258 -3.55274 9.83997 -9.05544
3881 21 169 -9.61857 10.7612 0.330235
3970 21 232 -7.94888 10.433 11.753
3972 21 234 -2.21266 11.4756 12.4155
4031 21 273 -8.37985 14.021 13.0231
3962 21 226 7.15272 -22.5318 -4.15178
3681 21 35 3.40744 -23.9625 6.66274
3933 21 207 5.26103 -23.7866 19.6921
3835 21 139 0.345541 -12.3636 0.691732
3978 21 240 2.59656 -10.5799 2.503
3887 21 173 7.09883 -3.11082 14.0564
3977 21 239 1.19166 0.53753 -9.08466
4018 21 264 6.66367 1.1963 -1.61726
3949 21 217 4.35384 6.14178 -5.96139
3904 21 186 1.65252 2.38665 5.03321
3960 21 224 12.646 -18.7 -6.217
4025 21 269 12.8679 -19.3438 1.62988
3845 21 145 8.23277 -21.9022 13.268
4017 21 263 13.5696 -19.6929 11.8603
3921 21 199 14.2376 -17.3889 14.6713
3967 21 229 13.3711 -16.4713 5.94831
4003 21 253 14.815 -9.36336 20.4782
3752 21 86 10.6729 -2.44553 16.3712
3816 21 126 10.3457 5.82622 -9.3844
4016 21 262 14.7186 5.30217 -0.439913
3702 21 50 10.172 -1.06994 7.38587
3780 21 102 11.6583 6.12024 13.6172
3654 21 16 15.2089 4.23319 15.5028
3886 21 172 8.20014 -0.174041 15.8786
3948 21 216 8.41577 0.684125 12.26
4015 21 261 10.6734 7.15212 -5.85764
ITEM: TIMESTEP
1625000
ITEM: NUMBER OF ATOMS
50
ITEM: BOX BOUNDS pp pp pp
-1.8778437610789400e+01 1.6959417831863963e+01
-2.4341984371943081e+01 1.4114576129855674e+01
-9.5620223411557461e+00 2.0934681162120178e+01
ITEM: ATOMS id type mol x y z
4009 21 257 -17.7384 -20.8063 -2.29181
3947 21 215 -13.1689 -21.549 10.3536
4023 21 267 -18.7016 -19.6405 13.0657
4032 21 274 -13.3007 -20.6152 13.1278
3939 21 211 -16.4644 -13.5426 13.6623
4014 21 260 -13.968 -14.2631 16.2668
3903 21 185 -16.432 -5.48502 -2.81186
3958 21 222 -11.9069 -0.985763 7.80892
3847 21 147 -9.8842 7.60573 2.1898
4005 21 255 -14.575 7.03034 18.3881
3748 21 82 -5.03553 -20.7879 -1.75868
4030 21 272 -7.47432 -17.9553 -2.56181
3968 21 230 -4.46077 -9.27971 14.6119
3810 21 122 -9.35598 -14.897 15.7187
3946 21 214 -3.8167 -13.1058 10.7938
4039 21 277 -4.05022 -6.23281 2.84105
3846 21 146 -8.96865 -8.92465 20.0616
3671 21 29 -6.12087 1.58362 5.36187
4024 21 268 -5.65109 -1.143 16.3667
4010 21 258 -3.56877 9.75345 -8.99621
3881 21 169 -9.6714 10.6694 0.351755
3970 21 232 -7.99158 10.3431 11.7286
3972 21 234 -2.22057 11.3796 12.3885
4031 21 273 -8.42517 13.9103 12.9936
3962 21 226 7.20162 -22.431 -4.11225
3681 21 35 3.43362 -23.8534 6.65882
3933 21 207 5.29846 -23.6785 19.6358
3835 21 139 0.353154 -12.3217 0.7118
3978 21 240 2.61783 -10.5482 2.51579
3887 21 173 7.14741 -3.12241 14.0228
3977 21 239 1.20441 0.504833 -9.02532
4018 21 264 6.70961 1.1598 -1.58792
3949 21 217 4.38576 6.07666 -5.91459
3904 21 186 1.66806 2.34325 5.03583
3960 21 224 12.7283 -18.6214 -6.16917
4025 21 269 12.9515 -19.2615 1.64617
3845 21 145 8.28823 -21.805 13.2375
4017 21 263 13.6574 -19.6085 11.8355
3921 21 199 14.3295 -17.3179 14.6352
3967 21 229 13.4577 -16.4056 5.94726
4003 21 253 14.9104 -9.33877 20.4188
3752 21 86 10.7431 -2.46097 16.3283
3816 21 126 10.414 5.76293 -9.32385
4016 21 262 14.8134 5.2419 -0.415298
3702 21 50 10.2393 -1.09334 7.37904
3780 21 102 11.7345 6.05524 13.5854
3654 21 16 15.3067 4.17912 15.4634
3886 21 172 8.2554 -0.202621 15.8377
3948 21 216 8.47234 0.650581 12.2336
4015 21 261 10.7437 7.08115 -5.81126
ITEM: TIMESTEP
1630000
ITEM: NUMBER OF ATOMS
50
ITEM: BOX BOUNDS pp pp pp
-1.8827129348304652e+01 1.7008109569379215e+01
-2.4441180119112481e+01 1.4213771877025074e+01
-9.6430145603361197e+00 2.1015673381251890e+01
ITEM: ATOMS id type mol x y z
4009 21 257 -17.7843 -20.8872 -2.33418
3947 21 215 -13.2023 -21.6338 10.3784
4023 21 267 -18.7501 -19.7154 13.1049
4032 21 274 -13.3345 -20.6952 13.1673
3939 21 211 -16.5067 -13.5861 13.7046
4014 21 260 -14.0036 -14.3103 16.323
3903 21 185 -16.4743 -5.48693 -2.85699
3958 21 222 -11.9368 -0.964467 7.82019
3847 21 147 -9.90866 7.67135 2.17123
4005 21 255 -14.6122 7.09299 18.4555
3748 21 82 -5.04677 -20.8688 -1.79823
4030 21 272 -7.4922 -18.0215 -2.60562
3968 21 230 -4.47045 -9.30121 14.6593
3810 21 122 -9.379 -14.9475 15.772
3946 21 214 -3.82462 -13.147 10.8209
4039 21 277 -4.05877 -6.23859 2.82593
3846 21 146 -8.99061 -8.94431 20.138
3671 21 29 -6.13507 1.61817 5.36015
4024 21 268 -5.66401 -1.12252 16.4234
4010 21 258 -3.57602 9.83014 -9.07419
3881 21 169 -9.69527 10.7508 0.32342
3970 21 232 -8.01088 10.4228 11.7607
3972 21 234 -2.22414 11.4647 12.4241
4031 21 273 -8.44565 14.0085 13.0324
3962 21 226 7.22373 -22.5203 -4.1643
3681 21 35 3.44546 -23.9501 6.66398
3933 21 207 5.31537 -23.7743 19.7099
3835 21 139 0.356594 -12.3589 0.685377
3978 21 240 2.62744 -10.5763 2.49895
3887 21 173 7.16936 -3.11213 14.0671
3977 21 239 1.21017 0.533819 -9.10346
4018 21 264 6.73037 1.19216 -1.62656
3949 21 217 4.40019 6.13439 -5.97621
3904 21 186 1.67508 2.38172 5.03237
3960 21 224 12.7654 -18.6911 -6.23214
4025 21 269 12.9893 -19.3345 1.62472
3845 21 145 8.3133 -21.8911 13.2776
4017 21 263 13.6971 -19.6833 11.8682
3921 21 199 14.371 -17.3809 14.6828
3967 21 229 13.4969 -16.4638 5.94865
4003 21 253 14.9535 -9.36057 20.497
3752 21 86 10.7749 -2.44728 16.3848
3816 21 126 10.4449 5.81904 -9.40357
4016 21 262 14.8563 5.29533 -0.447707
3702 21 50 10.2696 -1.0726 7.38803
3780 21 102 11.7689 6.11286 13.6273
3654 21 16 15.3509 4.22706 15.5153
3886 21 172 8.28038 -0.177285 15.8916
3948 21 216 8.49791 0.680318 12.2684
4015 21 261 10.7754 7.14406 -5.87233
ITEM: TIMESTEP
1635000
ITEM: NUMBER OF ATOMS
52
ITEM: BOX BOUNDS pp pp pp
-1.8783636158171305e+01 1.6964616379245868e+01
-2.4473465494823422e+01 1.4246057252736016e+01
-9.6223146745282655e+00 2.0994973495434351e+01
ITEM: ATOMS id type mol x y z
4009 21 257 -17.7433 -20.9136 -2.32335
3947 21 215 -13.1725 -21.6614 10.372
4023 21 267 -18.7068 -19.7398 13.0949
4032 21 274 -13.3043 -20.7212 13.1572
3939 21 211 -16.4689 -13.6002 13.6938
4014 21 260 -13.9718 -14.3257 16.3086
3903 21 185 -16.4365 -5.48756 -2.84546
3958 21 222 -11.9101 -0.957536 7.81731
3847 21 147 -9.88681 7.69271 2.17598
4005 21 255 -14.579 7.11338 18.4383
3748 21 82 -5.03673 -20.8951 -1.78812
4030 21 272 -7.47623 -18.0431 -2.59442
3968 21 230 -4.46181 -9.3082 14.6472
3810 21 122 -9.35844 -14.9639 15.7584
3946 21 214 -3.81754 -13.1604 10.814
4039 21 277 -4.05113 -6.24046 2.8298
3846 21 146 -8.971 -8.9507 20.1184
3671 21 29 -6.12238 1.62942 5.36059
4024 21 268 -5.65247 -1.11585 16.4089
4010 21 258 -3.56955 9.85511 -9.05426
3881 21 169 -9.67395 10.7773 0.330662
4031 21 273 -8.42735 14.0404 13.0225
3970 21 232 -7.99365 10.4487 11.7525
3972 21 234 -2.22095 11.4924 12.415
3962 21 226 7.20398 -22.5494 -4.151
3681 21 35 3.43489 -23.9815 6.66266
3933 21 207 5.30026 -23.8055 19.691
3835 21 139 0.353521 -12.371 0.69213
3978 21 240 2.61886 -10.5854 2.50325
3887 21 173 7.14975 -3.10879 14.0558
3977 21 239 1.20502 0.543252 -9.08349
4018 21 264 6.71183 1.20269 -1.61668
3949 21 217 4.3873 6.15318 -5.96046
3904 21 186 1.66881 2.39424 5.03326
4044 21 280 1.26471 2.8676 19.4227
4043 21 279 -0.0324074 9.16249 1.82957
3960 21 224 12.7322 -18.7138 -6.21605
4025 21 269 12.9555 -19.3582 1.6302
3845 21 145 8.29091 -21.9192 13.2674
4017 21 263 13.6617 -19.7076 11.8598
3921 21 199 14.3339 -17.4014 14.6706
3967 21 229 13.4619 -16.4828 5.94829
4003 21 253 14.915 -9.36766 20.477
3752 21 86 10.7465 -2.44283 16.3703
3816 21 126 10.4173 5.8373 -9.3832
4016 21 262 14.818 5.31271 -0.439424
3702 21 50 10.2425 -1.06585 7.38574
3780 21 102 11.7382 6.13161 13.6166
3654 21 16 15.3114 4.24266 15.502
3886 21 172 8.25807 -0.169039 15.8778
3948 21 216 8.47507 0.689996 12.2595
4015 21 261 10.747 7.16454 -5.85672
ITEM: TIMESTEP
1640000
ITEM: NUMBER OF ATOMS
50
ITEM: BOX BOUNDS pp pp pp
-1.8863654671780079e+01 1.7044634892854642e+01
-2.4316930654610388e+01 1.4089522412522982e+01
-9.5627860441974555e+00 2.0935444865108455e+01
ITEM: ATOMS id type mol x y z
4023 21 267 -18.7865 -19.6215 13.0661
4032 21 274 -13.3598 -20.595 13.1281
3939 21 211 -16.5385 -13.5316 13.6627
4014 21 260 -14.0303 -14.2512 16.2673
3903 21 185 -16.506 -5.48453 -2.81228
3958 21 222 -11.9593 -0.991141 7.80903
3847 21 147 -9.927 7.58916 2.18963
4005 21 255 -14.6402 7.01452 18.3887
3748 21 82 -5.05521 -20.7675 -1.75905
4030 21 272 -7.50562 -17.9386 -2.56222
3968 21 230 -4.47771 -9.27429 14.6123
3810 21 122 -9.39626 -14.8842 15.7192
3946 21 214 -3.83056 -13.0953 10.794
4039 21 277 -4.06519 -6.23135 2.8409
3846 21 146 -9.00709 -8.91968 20.0623
3671 21 29 -6.14572 1.57489 5.36185
4024 21 268 -5.6737 -1.14818 16.3672
4010 21 258 -3.58146 9.73408 -8.99694
3881 21 169 -9.71318 10.6488 0.351488
4031 21 273 -8.46101 13.8855 12.994
3970 21 232 -8.02536 10.3229 11.7289
3972 21 234 -2.22682 11.3581 12.3888
3962 21 226 7.24031 -22.4084 -4.11274
3681 21 35 3.45433 -23.829 6.65887
3933 21 207 5.32806 -23.6543 19.6365
3835 21 139 0.359175 -12.3123 0.711551
3978 21 240 2.63465 -10.5412 2.51563
3887 21 173 7.18583 -3.125 14.0232
3977 21 239 1.21449 0.497513 -9.02605
4018 21 264 6.74595 1.15162 -1.58828
3949 21 217 4.41102 6.06208 -5.91517
3904 21 186 1.68035 2.33354 5.0358
4044 21 280 1.27444 2.80307 19.3693
4043 21 279 -0.0284809 9.04706 1.84456
3960 21 224 12.7933 -18.6038 -6.16977
4025 21 269 13.0176 -19.2431 1.64597
3845 21 145 8.3321 -21.7833 13.2379
4017 21 263 13.7269 -19.5896 11.8358
3921 21 199 14.4022 -17.302 14.6357
3967 21 229 13.5262 -16.3909 5.94727
4003 21 253 14.9859 -9.33327 20.4195
3752 21 86 10.7987 -2.46442 16.3288
3816 21 126 10.468 5.74876 -9.3246
4016 21 262 14.8884 5.22841 -0.415603
3702 21 50 10.2924 -1.09858 7.37913
3780 21 102 11.7948 6.04069 13.5858
3654 21 16 15.384 4.16701 15.4639
3886 21 172 8.29911 -0.20902 15.8382
3948 21 216 8.51708 0.64307 12.234
4015 21 261 10.7992 7.06526 -5.81184
ITEM: TIMESTEP
1645000
ITEM: NUMBER OF ATOMS
50
ITEM: BOX BOUNDS pp pp pp
-1.8768537366702891e+01 1.6949517587777454e+01
-2.4577621478965813e+01 1.4350213236878407e+01
-9.4805068643482215e+00 2.0853165685273243e+01
ITEM: ATOMS id type mol x y z
4023 21 267 -18.6918 -19.8185 13.0263
4032 21 274 -13.2938 -20.8052 13.088
4045 21 281 -18.6849 -11.6302 -8.97941
3939 21 211 -16.4557 -13.6459 13.6196
4014 21 260 -13.9608 -14.3753 16.2102
3903 21 185 -16.4234 -5.48957 -2.76643
3958 21 222 -11.9008 -0.935176 7.79757
3847 21 147 -9.87923 7.76161 2.2085
4005 21 255 -14.5674 7.17916 18.3202
3748 21 82 -5.03324 -20.98 -1.71888
4030 21 272 -7.47068 -18.1127 -2.51772
4046 21 282 -2.92282 -18.9307 -8.35294
3968 21 230 -4.45881 -9.33077 14.5642
3810 21 122 -9.3513 -15.0169 15.6651
3946 21 214 -3.81509 -13.2037 10.7665
4039 21 277 -4.04848 -6.24653 2.85626
3846 21 146 -8.96419 -8.97135 19.9848
3671 21 29 -6.11798 1.66569 5.3636
4024 21 268 -5.64846 -1.09434 16.3096
4010 21 258 -3.5673 9.93564 -8.91772
3881 21 169 -9.66654 10.8628 0.380273
4031 21 273 -8.421 14.1435 12.9546
3970 21 232 -7.98766 10.5325 11.6963
3972 21 234 -2.21984 11.5817 12.3526
3681 21 35 3.43122 -24.083 6.65362
3933 21 207 5.29502 -23.906 19.5612
3835 21 139 0.352454 -12.41 0.738393
3978 21 240 2.61588 -10.6148 2.53273
3887 21 173 7.14294 -3.098 13.9783
4018 21 264 6.70539 1.23668 -1.54903
3949 21 217 4.38283 6.21379 -5.85257
3904 21 186 1.66663 2.43464 5.03931
4044 21 280 1.26287 2.91054 19.2954
4043 21 279 -0.0331484 9.2393 1.86529
3960 21 224 12.7207 -18.7869 -6.10579
4025 21 269 12.9438 -19.4349 1.66777
3845 21 145 8.28314 -22.0096 13.1971
4017 21 263 13.6494 -19.7862 11.8026
3921 21 199 14.321 -17.4675 14.5874
3967 21 229 13.4498 -16.544 5.94586
4003 21 253 14.9017 -9.39055 20.34
3752 21 86 10.7367 -2.42846 16.2714
3816 21 126 10.4077 5.89622 -9.2436
4016 21 262 14.8047 5.36881 -0.382679
3702 21 50 10.2331 -1.04407 7.36999
3780 21 102 11.7275 6.19211 13.5431
3654 21 16 15.2977 4.293 15.4111
3886 21 172 8.25033 -0.142437 15.7834
3948 21 216 8.46714 0.72122 12.1986
4015 21 261 10.7372 7.2306 -5.7498
ITEM: TIMESTEP
1650000
ITEM: NUMBER OF ATOMS
49
ITEM: BOX BOUNDS pp pp pp
-1.8697675240383546e+01 1.6878655461458109e+01
-2.4588077500194579e+01 1.4360669258107173e+01
-9.4662047824936728e+00 2.0838863603406505e+01
ITEM: ATOMS id type mol x y z
4023 21 267 -18.6212 -19.8264 13.0194
4032 21 274 -13.2447 -20.8136 13.081
4045 21 281 -18.6144 -11.6337 -8.96558
3939 21 211 -16.394 -13.6504 13.6122
4014 21 260 -13.909 -14.3802 16.2003
3903 21 185 -16.3619 -5.48977 -2.75846
3958 21 222 -11.8571 -0.932931 7.79558
3847 21 147 -9.84364 7.76852 2.21178
4005 21 255 -14.5132 7.18577 18.3083
3748 21 82 -5.01688 -20.9885 -1.7119
4030 21 272 -7.44464 -18.1196 -2.50998
4046 21 282 -2.91483 -18.9381 -8.3397
3968 21 230 -4.44472 -9.33303 14.5558
3810 21 122 -9.31781 -15.0222 15.6557
3946 21 214 -3.80356 -13.208 10.7617
4039 21 277 -4.03602 -6.24713 2.85893
3846 21 146 -8.93223 -8.97342 19.9713
3671 21 29 -6.09731 1.66934 5.36391
4024 21 268 -5.62966 -1.09218 16.2995
4010 21 258 -3.55675 9.94372 -8.90395
3881 21 169 -9.6318 10.8714 0.385277
4031 21 273 -8.3912 14.1538 12.9477
3970 21 232 -7.95958 10.5409 11.6907
3972 21 234 -2.21464 11.5907 12.3464
3681 21 35 3.41399 -24.0932 6.65271
3933 21 207 5.2704 -23.9161 19.5482
3835 21 139 0.347447 -12.4139 0.743059
3978 21 240 2.60189 -10.6178 2.53571
3887 21 173 7.11099 -3.09692 13.9704
4018 21 264 6.67517 1.24009 -1.54221
3949 21 217 4.36183 6.21988 -5.84169
3904 21 186 1.65641 2.43869 5.03992
4044 21 280 1.25425 2.91485 19.2826
4043 21 279 -0.0366256 9.24701 1.8689
3960 21 224 12.6666 -18.7943 -6.09467
4025 21 269 12.8888 -19.4426 1.67156
3845 21 145 8.24666 -22.0187 13.1901
4017 21 263 13.5916 -19.794 11.7969
3921 21 199 14.2606 -17.4741 14.579
3967 21 229 13.3928 -16.5501 5.94562
4003 21 253 14.8389 -9.39284 20.3262
3752 21 86 10.6905 -2.42701 16.2614
3816 21 126 10.3628 5.90213 -9.22952
3702 21 50 10.1889 -1.04188 7.36841
3780 21 102 11.6773 6.19819 13.5357
3654 21 16 15.2334 4.29805 15.4019
3886 21 172 8.21398 -0.139766 15.7739
3948 21 216 8.42994 0.724355 12.1925
4015 21 261 10.691 7.23723 -5.73901
ITEM: TIMESTEP
1655000
ITEM: NUMBER OF ATOMS
49
ITEM: BOX BOUNDS pp pp pp
-1.8873877528345403e+01 1.7054857749419966e+01
-2.4589386851838306e+01 1.4361978609750899e+01
-9.4853953991439219e+00 2.0858054220031843e+01
ITEM: ATOMS id type mol x y z
4023 21 267 -18.7967 -19.8274 13.0287
4032 21 274 -13.3669 -20.8147 13.0904
4045 21 281 -18.7898 -11.6341 -8.98414
3939 21 211 -16.5474 -13.651 13.6222
4014 21 260 -14.0378 -14.3809 16.2136
3903 21 185 -16.5149 -5.4898 -2.76915
3958 21 222 -11.9656 -0.93265 7.79825
3847 21 147 -9.93214 7.76939 2.20738
4005 21 255 -14.648 7.18659 18.3243
3748 21 82 -5.05757 -20.9896 -1.72127
4030 21 272 -7.50938 -18.1205 -2.52036
4046 21 282 -2.93469 -18.9391 -8.35746
3968 21 230 -4.47974 -9.33332 14.567
3810 21 122 -9.4011 -15.0229 15.6683
3946 21 214 -3.83222 -13.2086 10.7681
4039 21 277 -4.06699 -6.24721 2.85534
3846 21 146 -9.0117 -8.97368 19.9894
3671 21 29 -6.1487 1.66979 5.3635
4024 21 268 -5.67641 -1.09191 16.313
4010 21 258 -3.58298 9.94474 -8.92242
3881 21 169 -9.7182 10.8725 0.378563
4031 21 273 -8.46531 14.1551 12.9569
3970 21 232 -8.02941 10.5419 11.6983
3972 21 234 -2.22757 11.5918 12.3548
3681 21 35 3.45682 -24.0945 6.65393
3933 21 207 5.33161 -23.9174 19.5657
3835 21 139 0.359898 -12.4144 0.736798
3978 21 240 2.63667 -10.6182 2.53172
3887 21 173 7.19044 -3.09679 13.9809
4018 21 264 6.75031 1.24051 -1.55136
3949 21 217 4.41405 6.22064 -5.85629
3904 21 186 1.68183 2.4392 5.0391
4044 21 280 1.27569 2.91539 19.2998
4043 21 279 -0.0279792 9.24797 1.86406
3960 21 224 12.8011 -18.7952 -6.10959
4025 21 269 13.0255 -19.4435 1.66648
3845 21 145 8.33736 -22.0198 13.1996
4017 21 263 13.7352 -19.795 11.8046
3921 21 199 14.4109 -17.4749 14.5903
3967 21 229 13.5345 -16.5509 5.94595
4003 21 253 14.9949 -9.39313 20.3448
3752 21 86 10.8054 -2.42683 16.2748
3816 21 126 10.4745 5.90287 -9.24842
3702 21 50 10.2988 -1.04161 7.37054
3780 21 102 11.802 6.19895 13.5457
3654 21 16 15.3933 4.29868 15.4142
3886 21 172 8.30436 -0.139432 15.7866
3948 21 216 8.52245 0.724747 12.2007
4015 21 261 10.8059 7.23806 -5.75348
ITEM: TIMESTEP
1660000
ITEM: NUMBER OF ATOMS
49
ITEM: BOX BOUNDS pp pp pp
-1.8753924554375651e+01 1.6934904775450214e+01
-2.4465881689943242e+01 1.4238473447855835e+01
-9.5860829111278107e+00 2.0958741731959151e+01
ITEM: ATOMS id type mol x y z
4023 21 267 -18.6772 -19.7341 13.0774
4032 21 274 -13.2837 -20.7151 13.1395
4045 21 281 -18.6704 -11.5928 -9.0815
3939 21 211 -16.443 -13.5969 13.6749
4014 21 260 -13.9501 -14.3221 16.2835
3903 21 185 -16.4107 -5.48741 -2.82527
3958 21 222 -11.8918 -0.959164 7.81227
3847 21 147 -9.87189 7.68769 2.18429
4005 21 255 -14.5563 7.10859 18.4081
3748 21 82 -5.02987 -20.8889 -1.77043
4030 21 272 -7.46531 -18.038 -2.57482
4046 21 282 -2.92117 -18.8514 -8.45066
3968 21 230 -4.4559 -9.30656 14.626
3810 21 122 -9.34439 -14.96 15.7345
3946 21 214 -3.81271 -13.1572 10.8018
4039 21 277 -4.04591 -6.24002 2.83656
3846 21 146 -8.9576 -8.9492 20.0843
3671 21 29 -6.11372 1.62678 5.36136
4024 21 268 -5.64458 -1.11742 16.3835
4010 21 258 -3.56513 9.84924 -9.01937
3881 21 169 -9.65938 10.7711 0.343338
4031 21 273 -8.41486 14.0329 13.0051
3970 21 232 -7.98187 10.4426 11.7382
3972 21 234 -2.21877 11.4859 12.3991
3681 21 35 3.42766 -23.9741 6.66035
3933 21 207 5.28994 -23.7981 19.6578
3835 21 139 0.351422 -12.3681 0.70395
3978 21 240 2.61299 -10.5833 2.51078
3887 21 173 7.13635 -3.10958 14.036
4018 21 264 6.69916 1.20022 -1.5994
3949 21 217 4.3785 6.14876 -5.9329
3904 21 186 1.66452 2.3913 5.0348
4044 21 280 1.26109 2.86447 19.3902
4043 21 279 -0.0338654 9.1569 1.8387
3960 21 224 12.7096 -18.7084 -6.18788
4025 21 269 12.9325 -19.3527 1.6398
3845 21 145 8.27561 -21.9126 13.2494
4017 21 263 13.6374 -19.7019 11.8452
3921 21 199 14.3086 -17.3965 14.6494
3967 21 229 13.438 -16.4784 5.94767
4003 21 253 14.8887 -9.36599 20.442
3752 21 86 10.7271 -2.44387 16.3451
3816 21 126 10.3985 5.83301 -9.34753
3702 21 50 10.224 -1.06743 7.38171
3780 21 102 11.7171 6.12721 13.5978
3654 21 16 15.2844 4.23899 15.4788
3886 21 172 8.24283 -0.170976 15.8537
3948 21 216 8.45947 0.687723 12.244
4015 21 261 10.7277 7.15973 -5.8294
ITEM: TIMESTEP
1665000
ITEM: NUMBER OF ATOMS
48
ITEM: BOX BOUNDS pp pp pp
-1.8782423824182121e+01 1.6963404045256684e+01
-2.4465024555626986e+01 1.4237616313539579e+01
-9.5556761437314393e+00 2.0928334964557230e+01
ITEM: ATOMS id type mol x y z
4023 21 267 -18.7056 -19.7334 13.0627
4032 21 274 -13.3035 -20.7144 13.1247
4045 21 281 -18.6988 -11.5925 -9.0521
3939 21 211 -16.4678 -13.5965 13.659
4014 21 260 -13.971 -14.3217 16.2624
3903 21 185 -16.4355 -5.48739 -2.80832
3958 21 222 -11.9093 -0.959348 7.80804
3847 21 147 -9.88621 7.68713 2.19126
4005 21 255 -14.578 7.10805 18.3828
3748 21 82 -5.03645 -20.8882 -1.75558
4030 21 272 -7.47578 -18.0375 -2.55838
3968 21 230 -4.46157 -9.30637 14.6082
3810 21 122 -9.35787 -14.9596 15.7145
3946 21 214 -3.81734 -13.1569 10.7917
4039 21 277 -4.05092 -6.23997 2.84223
3846 21 146 -8.97045 -8.94903 20.0556
3671 21 29 -6.12203 1.62648 5.36201
4024 21 268 -5.65215 -1.11759 16.3622
4010 21 258 -3.56937 9.84858 -8.9901
3881 21 169 -9.67335 10.7704 0.353975
4031 21 273 -8.42684 14.0321 12.9906
3970 21 232 -7.99316 10.442 11.7261
3972 21 234 -2.22086 11.4852 12.3857
3681 21 35 3.43459 -23.9733 6.65841
3933 21 207 5.29984 -23.7973 19.63
3835 21 139 0.353435 -12.3678 0.71387
3978 21 240 2.61862 -10.583 2.51711
3887 21 173 7.1492 -3.10967 14.0193
4018 21 264 6.71131 1.19994 -1.58489
3949 21 217 4.38694 6.14826 -5.90976
3904 21 186 1.66863 2.39097 5.0361
4044 21 280 1.26456 2.86412 19.3629
4043 21 279 -0.0324669 9.15627 1.84636
3960 21 224 12.7313 -18.7078 -6.16424
4025 21 269 12.9546 -19.352 1.64786
3845 21 145 8.29028 -21.9118 13.2344
4017 21 263 13.6607 -19.7013 11.833
3921 21 199 14.3329 -17.396 14.6315
3967 21 229 13.4609 -16.4779 5.94715
4003 21 253 14.914 -9.36581 20.4127
3752 21 86 10.7457 -2.44399 16.3238
3816 21 126 10.4165 5.83253 -9.3176
3702 21 50 10.2417 -1.06761 7.37834
3780 21 102 11.7373 6.12671 13.5821
3654 21 16 15.3103 4.23858 15.4593
3886 21 172 8.25745 -0.171195 15.8334
3948 21 216 8.47443 0.687466 12.2309
4015 21 261 10.7463 7.15919 -5.80648
ITEM: TIMESTEP
1670000
ITEM: NUMBER OF ATOMS
49
ITEM: BOX BOUNDS pp pp pp
-1.8727211454403374e+01 1.6908191675477937e+01
-2.4464176120904057e+01 1.4236767878816650e+01
-9.5538942653565471e+00 2.0926553086165299e+01
ITEM: ATOMS id type mol x y z
4023 21 267 -18.6506 -19.7328 13.0618
4032 21 274 -13.2652 -20.7137 13.1238
4045 21 281 -18.6438 -11.5922 -9.05037
4014 21 260 -13.9306 -14.3213 16.2611
3903 21 185 -16.3875 -5.48738 -2.80733
3958 21 222 -11.8753 -0.95953 7.80779
3847 21 147 -9.85847 7.68656 2.19167
4005 21 255 -14.5358 7.10751 18.3813
3748 21 82 -5.0237 -20.8875 -1.75471
4030 21 272 -7.4555 -18.0369 -2.55741
3968 21 230 -4.45059 -9.30619 14.6071
3810 21 122 -9.33177 -14.9592 15.7134
3946 21 214 -3.80836 -13.1565 10.7911
4039 21 277 -4.04121 -6.23992 2.84256
3846 21 146 -8.94555 -8.94886 20.0539
3671 21 29 -6.10593 1.62618 5.36204
4024 21 268 -5.6375 -1.11777 16.361
4010 21 258 -3.56115 9.84793 -8.98838
3881 21 169 -9.64628 10.7697 0.354599
4054 21 286 -3.93022 7.30499 11.0119
4031 21 273 -8.40362 14.0312 12.9897
3970 21 232 -7.97128 10.4413 11.7254
3972 21 234 -2.21681 11.4844 12.3849
3681 21 35 3.42117 -23.9725 6.6583
3933 21 207 5.28066 -23.7965 19.6284
3835 21 139 0.349534 -12.3675 0.714451
3978 21 240 2.60772 -10.5828 2.51748
3887 21 173 7.12431 -3.10975 14.0184
4018 21 264 6.68777 1.19966 -1.58404
3949 21 217 4.37058 6.14777 -5.90841
3904 21 186 1.66067 2.39064 5.03618
4044 21 280 1.25784 2.86377 19.3613
4043 21 279 -0.0351763 9.15564 1.84681
3960 21 224 12.6892 -18.7072 -6.16285
4053 21 285 10.4863 -17.1667 -4.8434
4025 21 269 12.9118 -19.3514 1.64833
3845 21 145 8.26186 -21.9111 13.2335
4017 21 263 13.6157 -19.7006 11.8322
3921 21 199 14.2858 -17.3955 14.6305
3967 21 229 13.4165 -16.4774 5.94712
4003 21 253 14.8651 -9.36562 20.4109
3752 21 86 10.7097 -2.44411 16.3226
3816 21 126 10.3815 5.83205 -9.31584
3702 21 50 10.2073 -1.06779 7.37814
3780 21 102 11.6982 6.12622 13.5812
3654 21 16 15.2602 4.23817 15.4582
3886 21 172 8.22913 -0.171412 15.8322
3948 21 216 8.44545 0.687211 12.2301
4015 21 261 10.7103 7.15865 -5.80513
ITEM: TIMESTEP
1675000
ITEM: NUMBER OF ATOMS
49
ITEM: BOX BOUNDS pp pp pp
-1.8912232891449491e+01 1.7093213112524055e+01
-2.4535412975325020e+01 1.4308004733237613e+01
-9.3499770988111202e+00 2.0722635919681856e+01
ITEM: ATOMS id type mol x y z
4023 21 267 -18.8348 -19.7866 12.9631
4032 21 274 -13.3935 -20.7711 13.0243
4045 21 281 -18.828 -11.6161 -8.85319
4014 21 260 -14.0658 -14.3552 16.1196
3903 21 185 -16.5482 -5.48875 -2.69368
3958 21 222 -11.9892 -0.944237 7.7794
3847 21 147 -9.9514 7.73369 2.23843
4005 21 255 -14.6773 7.15251 18.2114
3748 21 82 -5.06642 -20.9456 -1.65515
4030 21 272 -7.52347 -18.0845 -2.44711
3968 21 230 -4.48736 -9.32162 14.4878
3810 21 122 -9.41923 -14.9954 15.5792
3946 21 214 -3.83846 -13.1861 10.7228
4039 21 277 -4.07373 -6.24407 2.88061
3846 21 146 -9.029 -8.96298 19.8617
3671 21 29 -6.15989 1.65099 5.36638
4024 21 268 -5.68659 -1.10306 16.2181
4010 21 258 -3.58868 9.903 -8.79203
3881 21 169 -9.737 10.8282 0.425938
4054 21 286 -3.96158 7.35071 10.9406
4031 21 273 -8.48144 14.1017 12.892
3970 21 232 -8.04461 10.4985 11.6446
3972 21 234 -2.23038 11.5455 12.2953
3681 21 35 3.46614 -24.0419 6.6453
3933 21 207 5.34494 -23.8653 19.4418
3835 21 139 0.362608 -12.3942 0.780976
3978 21 240 2.64424 -10.6029 2.55988
3887 21 173 7.20773 -3.10238 13.9069
4018 21 264 6.76666 1.2229 -1.48676
3949 21 217 4.42541 6.18923 -5.75327
3904 21 186 1.68736 2.41827 5.04488
4044 21 280 1.28035 2.89314 19.1783
4043 21 279 -0.0260971 9.20817 1.89818
3960 21 224 12.8304 -18.7573 -6.00431
4053 21 285 10.6046 -17.211 -4.70251
4025 21 269 13.0553 -19.4038 1.70236
3845 21 145 8.3571 -21.9729 13.1325
4017 21 263 13.7665 -19.7543 11.75
3921 21 199 14.4436 -17.4407 14.5108
3967 21 229 13.5653 -16.5192 5.94363
4003 21 253 15.0289 -9.38127 20.2139
3752 21 86 10.8304 -2.43428 16.1803
3816 21 126 10.4988 5.87234 -9.11511
3702 21 50 10.3227 -1.05289 7.3555
3780 21 102 11.8292 6.16759 13.4755
3654 21 16 15.4281 4.2726 15.3274
3886 21 172 8.32403 -0.153217 15.6965
3948 21 216 8.54259 0.708567 12.1426
4015 21 261 10.8309 7.20383 -5.65137
ITEM: TIMESTEP
1680000
ITEM: NUMBER OF ATOMS
49
ITEM: BOX BOUNDS pp pp pp
-1.8740812055539990e+01 1.6921792276614553e+01
-2.4565187420404961e+01 1.4337779178317554e+01
-9.5336767664345778e+00 2.0906335587215509e+01
ITEM: ATOMS id type mol x y z
4023 21 267 -18.6642 -19.8091 13.052
4032 21 274 -13.2746 -20.7952 13.1139
4045 21 281 -18.6574 -11.626 -9.03082
4014 21 260 -13.9405 -14.3693 16.2471
3903 21 185 -16.3993 -5.48933 -2.79606
3958 21 222 -11.8837 -0.937845 7.80497
3847 21 147 -9.86531 7.75338 2.1963
4005 21 255 -14.5462 7.17131 18.3645
3748 21 82 -5.02684 -20.9699 -1.74484
4030 21 272 -7.46049 -18.1044 -2.54648
3968 21 230 -4.4533 -9.32807 14.5953
3810 21 122 -9.3382 -15.0105 15.7001
3946 21 214 -3.81057 -13.1985 10.7843
4039 21 277 -4.0436 -6.2458 2.84634
3846 21 146 -8.95168 -8.96888 20.0349
3671 21 29 -6.10989 1.66136 5.36247
4024 21 268 -5.64111 -1.09691 16.3468
4010 21 258 -3.56317 9.92603 -8.96891
3881 21 169 -9.65295 10.8526 0.361672
4054 21 286 -3.93252 7.36981 11.0048
4031 21 273 -8.40934 14.1312 12.98
3970 21 232 -7.97667 10.5225 11.7174
3972 21 234 -2.21781 11.5711 12.376
3681 21 35 3.42448 -24.0709 6.65701
3933 21 207 5.28538 -23.894 19.6099
3835 21 139 0.350495 -12.4053 0.721047
3978 21 240 2.61041 -10.6113 2.52168
3887 21 173 7.13044 -3.09929 14.0073
4018 21 264 6.69357 1.23262 -1.5744
3949 21 217 4.37461 6.20656 -5.89303
3904 21 186 1.66263 2.42982 5.03704
4044 21 280 1.2595 2.90541 19.3431
4043 21 279 -0.0345089 9.23013 1.8519
3960 21 224 12.6995 -18.7782 -6.14713
4053 21 285 10.495 -17.2296 -4.82943
4025 21 269 12.9223 -19.4257 1.65369
3845 21 145 8.26887 -21.9988 13.2235
4017 21 263 13.6268 -19.7768 11.8241
3921 21 199 14.2974 -17.4596 14.6186
3967 21 229 13.4275 -16.5367 5.94677
4003 21 253 14.8771 -9.38782 20.3914
3752 21 86 10.7186 -2.43017 16.3085
3816 21 126 10.3902 5.88918 -9.29594
3702 21 50 10.2158 -1.04667 7.3759
3780 21 102 11.7079 6.18489 13.5707
3654 21 16 15.2725 4.28699 15.4452
3886 21 172 8.23611 -0.145613 15.8188
3948 21 216 8.45259 0.717493 12.2215
4015 21 261 10.7191 7.22271 -5.78989
ITEM: TIMESTEP
1685000
ITEM: NUMBER OF ATOMS
50
ITEM: BOX BOUNDS pp pp pp
-1.8779995261368800e+01 1.6960975482443363e+01
-2.4400031147934055e+01 1.4172622905846648e+01
-9.5737102340351683e+00 2.0946369054782590e+01
ITEM: ATOMS id type mol x y z
4023 21 267 -18.7032 -19.6843 13.0714
4032 21 274 -13.3018 -20.662 13.1335
4045 21 281 -18.6964 -11.5707 -9.06953
4014 21 260 -13.9692 -14.2908 16.2749
4055 21 287 -15.126 -14.4034 13.5075
3903 21 185 -16.4334 -5.48614 -2.81837
3958 21 222 -11.9078 -0.973301 7.81055
3847 21 147 -9.88499 7.64413 2.18712
4005 21 255 -14.5762 7.067 18.3978
3748 21 82 -5.03589 -20.8353 -1.76439
4030 21 272 -7.47489 -17.9941 -2.56813
3968 21 230 -4.46108 -9.29229 14.6187
3810 21 122 -9.35672 -14.9265 15.7264
3946 21 214 -3.81695 -13.1299 10.7977
4039 21 277 -4.05049 -6.23619 2.83887
3846 21 146 -8.96936 -8.93615 20.0726
3671 21 29 -6.12132 1.60384 5.36162
4024 21 268 -5.6515 -1.13101 16.3748
4010 21 258 -3.56901 9.79833 -9.00746
3881 21 169 -9.67216 10.717 0.347666
4054 21 286 -3.93917 7.26382 11.0188
4031 21 273 -8.42582 13.9678 12.9992
3970 21 232 -7.9922 10.3897 11.7333
3972 21 234 -2.22068 11.4294 12.3936
3681 21 35 3.434 -23.91 6.65956
3933 21 207 5.299 -23.7346 19.6465
3835 21 139 0.353264 -12.3434 0.707987
3978 21 240 2.61814 -10.5647 2.51336
3887 21 173 7.14811 -3.1164 14.0292
4018 21 264 6.71028 1.17873 -1.59349
3949 21 217 4.38623 6.11044 -5.92348
3904 21 186 1.66828 2.36577 5.03533
4044 21 280 1.26427 2.83733 19.3791
4043 21 279 -0.0325861 9.10834 1.84181
3960 21 224 12.7295 -18.6622 -6.17826
4053 21 285 10.52 -17.1267 -4.85709
4025 21 269 12.9527 -19.3042 1.64308
3845 21 145 8.28903 -21.8554 13.2433
4017 21 263 13.6587 -19.6523 11.8402
3921 21 199 14.3308 -17.3547 14.6421
3967 21 229 13.459 -16.4397 5.94746
4003 21 253 14.9118 -9.35153 20.4301
3752 21 86 10.7441 -2.45296 16.3364
3816 21 126 10.415 5.79576 -9.33535
3702 21 50 10.2402 -1.0812 7.38034
3780 21 102 11.7356 6.08896 13.5914
3654 21 16 15.3081 4.20717 15.4709
3886 21 172 8.2562 -0.187795 15.8454
3948 21 216 8.47316 0.667982 12.2386
4015 21 261 10.7447 7.11797 -5.82007
ITEM: TIMESTEP
1690000
ITEM: NUMBER OF ATOMS
51
ITEM: BOX BOUNDS pp pp pp
-1.8857824910848404e+01 1.7038805131922967e+01
-2.4504561564636063e+01 1.4277153322548656e+01
-9.4729422229684914e+00 2.0845601043737954e+01
ITEM: ATOMS id type mol x y z
4023 21 267 -18.7807 -19.7633 13.0226
4032 21 274 -13.3558 -20.7463 13.0843
4056 21 288 -16.2087 -12.2725 -7.25137
4045 21 281 -18.7738 -11.6057 -8.9721
4014 21 260 -14.0261 -14.3405 16.205
4055 21 287 -15.1879 -14.4538 13.4559
3903 21 185 -16.501 -5.48816 -2.76221
3958 21 222 -11.9557 -0.95086 7.79652
3847 21 147 -9.92408 7.71328 2.21023
4005 21 255 -14.6357 7.13302 18.3139
3748 21 82 -5.05386 -20.9205 -1.71519
4030 21 272 -7.50348 -18.0639 -2.51362
3968 21 230 -4.47655 -9.31494 14.5598
3810 21 122 -9.39351 -14.9797 15.6601
3946 21 214 -3.82961 -13.1733 10.7639
4039 21 277 -4.06417 -6.24227 2.85767
3846 21 146 -9.00446 -8.95687 19.9776
3671 21 29 -6.14402 1.64025 5.36377
4024 21 268 -5.67216 -1.10943 16.3043
4010 21 258 -3.58059 9.87915 -8.91043
3881 21 169 -9.71032 10.8028 0.38292
4054 21 286 -3.95236 7.33091 10.9836
4031 21 273 -8.45856 14.0712 12.9509
3970 21 232 -8.02305 10.4737 11.6933
3972 21 234 -2.22639 11.5191 12.3493
3681 21 35 3.45292 -24.0118 6.65314
3933 21 207 5.32604 -23.8355 19.5543
3835 21 139 0.358763 -12.3826 0.740861
3978 21 240 2.6335 -10.5942 2.53431
3887 21 173 7.1832 -3.10557 13.9741
4018 21 264 6.74346 1.21284 -1.54542
3949 21 217 4.40929 6.17127 -5.84682
3904 21 186 1.67951 2.4063 5.03963
4044 21 280 1.27373 2.88042 19.2886
4043 21 279 -0.0287669 9.18542 1.8672
3960 21 224 12.7889 -18.7356 -6.09991
4053 21 285 10.5698 -17.1918 -4.78747
4025 21 269 13.0131 -19.3811 1.66978
3845 21 145 8.3291 -21.9462 13.1934
4017 21 263 13.7221 -19.7311 11.7996
3921 21 199 14.3972 -17.4211 14.583
3967 21 229 13.5216 -16.5011 5.94574
4003 21 253 14.9807 -9.37449 20.3327
3752 21 86 10.7949 -2.43854 16.2661
3816 21 126 10.4643 5.85489 -9.23616
3702 21 50 10.2888 -1.05934 7.36915
3780 21 102 11.7907 6.14967 13.5392
3654 21 16 15.3787 4.25769 15.4063
3886 21 172 8.29612 -0.161097 15.7784
3948 21 216 8.51402 0.699318 12.1954
4015 21 261 10.7954 7.18426 -5.74409
ITEM: TIMESTEP
1695000
ITEM: NUMBER OF ATOMS
53
ITEM: BOX BOUNDS pp pp pp
-1.8945766017716231e+01 1.7126746238790794e+01
-2.4346204430367795e+01 1.4118796188280388e+01
-9.5909747569206978e+00 2.0963633577625966e+01
ITEM: ATOMS id type mol x y z
4023 21 267 -18.8682 -19.6437 13.0798
4032 21 274 -13.4167 -20.6186 13.1419
4056 21 288 -16.2837 -12.214 -7.3521
4045 21 281 -18.8613 -11.5527 -9.08623
4014 21 260 -14.0903 -14.2651 16.2869
4055 21 287 -15.2579 -14.3775 13.5163
3903 21 185 -16.5774 -5.4851 -2.82799
3958 21 222 -12.0098 -0.984857 7.81295
4058 21 290 -13.1469 6.49163 1.63372
3847 21 147 -9.96824 7.60853 2.18317
4005 21 255 -14.703 7.03301 18.4122
3748 21 82 -5.07417 -20.7914 -1.77282
4030 21 272 -7.53579 -17.9581 -2.57747
3968 21 230 -4.49403 -9.28063 14.6288
3810 21 122 -9.43508 -14.8991 15.7378
3946 21 214 -3.84392 -13.1075 10.8035
4039 21 277 -4.07963 -6.23306 2.83564
3846 21 146 -9.04412 -8.92548 20.0889
3671 21 29 -6.16967 1.58509 5.36125
4024 21 268 -5.69549 -1.14213 16.3869
4010 21 258 -3.59368 9.75671 -9.02409
3881 21 169 -9.75345 10.6729 0.341626
4054 21 286 -3.96727 7.22928 11.0248
4031 21 273 -8.49554 13.9145 13.0075
3970 21 232 -8.0579 10.3464 11.7401
3972 21 234 -2.23284 11.3832 12.4012
3681 21 35 3.47429 -23.8575 6.66067
3933 21 207 5.35659 -23.6826 19.6623
3835 21 139 0.364978 -12.3233 0.702354
3978 21 240 2.65086 -10.5494 2.50977
3887 21 173 7.22285 -3.12197 14.0386
4018 21 264 6.78096 1.16117 -1.60173
3949 21 217 4.43535 6.07911 -5.93662
3904 21 186 1.6922 2.34489 5.03459
4044 21 280 1.28443 2.81514 19.3945
4043 21 279 -0.0244516 9.06865 1.83746
3960 21 224 12.856 -18.6244 -6.19168
4053 21 285 10.6261 -17.0932 -4.86902
4025 21 269 13.0813 -19.2646 1.6385
3845 21 145 8.37436 -21.8087 13.2518
4017 21 263 13.7938 -19.6117 11.8472
3921 21 199 14.4722 -17.3206 14.6522
3967 21 229 13.5923 -16.4081 5.94775
4003 21 253 15.0586 -9.3397 20.4468
3752 21 86 10.8522 -2.46038 16.3485
4057 21 289 16.8169 -0.441277 -7.06729
3816 21 126 10.52 5.76532 -9.35235
3702 21 50 10.3437 -1.09245 7.38226
3780 21 102 11.8529 6.05769 13.6004
3654 21 16 15.4585 4.18116 15.4819
3886 21 172 8.34123 -0.201543 15.8569
3948 21 216 8.5602 0.651846 12.2461
4015 21 261 10.8528 7.08383 -5.83309
ITEM: TIMESTEP
1700000
ITEM: NUMBER OF ATOMS
53
ITEM: BOX BOUNDS pp pp pp
-1.8863652349200493e+01 1.7044632570275056e+01
-2.4377144268173364e+01 1.4149736026085957e+01
-9.6309654299480876e+00 2.1003624250619662e+01
ITEM: ATOMS id type mol x y z
4023 21 267 -18.7865 -19.667 13.0991
4032 21 274 -13.3598 -20.6436 13.1614
4056 21 288 -16.2137 -12.2254 -7.38623
4045 21 281 -18.7796 -11.5631 -9.1249
4014 21 260 -14.0303 -14.2799 16.3146
4055 21 287 -15.1926 -14.3924 13.5368
3903 21 185 -16.506 -5.4857 -2.85028
3958 21 222 -11.9593 -0.978215 7.81852
4058 21 290 -13.0912 6.5103 1.62311
3847 21 147 -9.927 7.62899 2.174
4005 21 255 -14.6402 7.05255 18.4455
3748 21 82 -5.05521 -20.8166 -1.79234
4030 21 272 -7.50562 -17.9788 -2.5991
3968 21 230 -4.47771 -9.28733 14.6523
3810 21 122 -9.39626 -14.9149 15.7641
3946 21 214 -3.83056 -13.1204 10.8169
4039 21 277 -4.06519 -6.23486 2.82818
3846 21 146 -9.00709 -8.93161 20.1266
3671 21 29 -6.14572 1.59587 5.3604
4024 21 268 -5.6737 -1.13574 16.4149
4010 21 258 -3.58146 9.78063 -9.06259
3881 21 169 -9.71318 10.6983 0.327636
4054 21 286 -3.95335 7.24913 11.0388
4031 21 273 -8.46101 13.9451 13.0267
3970 21 232 -8.02536 10.3713 11.756
3972 21 234 -2.22682 11.4098 12.4188
3681 21 35 3.45433 -23.8877 6.66322
3933 21 207 5.32806 -23.7125 19.6989
3835 21 139 0.359175 -12.3349 0.689308
3978 21 240 2.63465 -10.5582 2.50145
3887 21 173 7.18583 -3.11877 14.0605
4018 21 264 6.74595 1.17127 -1.62081
3949 21 217 4.41102 6.09712 -5.96704
3904 21 186 1.68035 2.35689 5.03289
4044 21 280 1.27444 2.82789 19.4304
4043 21 279 -0.028481 9.09146 1.82739
3960 21 224 12.7933 -18.6461 -6.22277
4053 21 285 10.5736 -17.1125 -4.89665
4025 21 269 13.0176 -19.2874 1.62791
3845 21 145 8.3321 -21.8355 13.2716
4017 21 263 13.7269 -19.635 11.8633
3921 21 199 14.4022 -17.3402 14.6757
3967 21 229 13.5262 -16.4262 5.94844
4003 21 253 14.9859 -9.3465 20.4854
3752 21 86 10.7987 -2.45612 16.3764
4057 21 289 16.7362 -0.433761 -7.10068
3816 21 126 10.468 5.78282 -9.39171
3702 21 50 10.2924 -1.08599 7.3867
3780 21 102 11.7948 6.07566 13.6211
3654 21 16 15.384 4.19611 15.5076
3886 21 172 8.29911 -0.19364 15.8836
3948 21 216 8.51708 0.661121 12.2632
4015 21 261 10.7992 7.10345 -5.86325
ITEM: TIMESTEP
1705000
ITEM: NUMBER OF ATOMS
53
ITEM: BOX BOUNDS pp pp pp
-1.8867410167469551e+01 1.7048390388544114e+01
-2.4467419800504008e+01 1.4240011558416601e+01
-9.5409284341047105e+00 2.0913587254794432e+01
ITEM: ATOMS id type mol x y z
4023 21 267 -18.7902 -19.7352 13.0555
4032 21 274 -13.3624 -20.7163 13.1175
4056 21 288 -16.2169 -12.2588 -7.30939
4045 21 281 -18.7834 -11.5933 -9.03784
4014 21 260 -14.0331 -14.3228 16.2521
4055 21 287 -15.1956 -14.4359 13.4907
3903 21 185 -16.5093 -5.48744 -2.8001
3958 21 222 -11.9616 -0.958834 7.80598
4058 21 290 -13.0938 6.56478 1.647
3847 21 147 -9.92889 7.68871 2.19464
4005 21 255 -14.643 7.10956 18.3705
3748 21 82 -5.05607 -20.8902 -1.74838
4030 21 272 -7.507 -18.0391 -2.5504
3968 21 230 -4.47846 -9.30689 14.5995
3810 21 122 -9.39804 -14.9608 15.7048
3946 21 214 -3.83117 -13.1579 10.7867
4039 21 277 -4.06585 -6.24011 2.84498
3846 21 146 -9.00878 -8.94951 20.0417
3671 21 29 -6.14681 1.62731 5.36232
4024 21 268 -5.6747 -1.1171 16.3519
4010 21 258 -3.58201 9.85043 -8.9759
3881 21 169 -9.71502 10.7724 0.359135
4054 21 286 -3.95398 7.30707 11.0073
4031 21 273 -8.46259 14.0344 12.9835
3970 21 232 -8.02685 10.4439 11.7203
3972 21 234 -2.22709 11.4872 12.3792
3681 21 35 3.45525 -23.9756 6.65747
3933 21 207 5.32937 -23.7996 19.6165
3835 21 139 0.359441 -12.3687 0.718681
3978 21 240 2.6354 -10.5837 2.52017
3887 21 173 7.18752 -3.10942 14.0113
4018 21 264 6.74755 1.20072 -1.57785
3949 21 217 4.41213 6.14966 -5.89854
3904 21 186 1.68089 2.3919 5.03673
4044 21 280 1.2749 2.86511 19.3496
4043 21 279 -0.0282966 9.15803 1.85007
3960 21 224 12.7962 -18.7095 -6.15277
4053 21 285 10.576 -17.1687 -4.83444
4025 21 269 13.0205 -19.3538 1.65176
3845 21 145 8.33403 -21.9139 13.2271
4017 21 263 13.73 -19.7031 11.827
3921 21 199 14.4054 -17.3975 14.6229
3967 21 229 13.5293 -16.4793 5.9469
4003 21 253 14.9892 -9.36633 20.3984
3752 21 86 10.8012 -2.44366 16.3135
4057 21 289 16.7399 -0.411829 -7.02552
3816 21 126 10.4704 5.83388 -9.30308
3702 21 50 10.2948 -1.06711 7.3767
3780 21 102 11.7974 6.1281 13.5744
3654 21 16 15.3874 4.23974 15.4498
3886 21 172 8.30104 -0.170583 15.8236
3948 21 216 8.51906 0.688184 12.2246
4015 21 261 10.8017 7.16071 -5.79536
ITEM: TIMESTEP
1710000
ITEM: NUMBER OF ATOMS
52
ITEM: BOX BOUNDS pp pp pp
-1.8887520105101387e+01 1.7068500326175950e+01
-2.4261634087844655e+01 1.4034225845757248e+01
-9.6969750008079103e+00 2.1069633821417181e+01
ITEM: ATOMS id type mol x y z
4023 21 267 -18.8102 -19.5798 13.1311
4032 21 274 -13.3764 -20.5504 13.1936
4056 21 288 -16.2341 -12.1828 -7.44257
4045 21 281 -18.8034 -11.5244 -9.18873
4014 21 260 -14.0478 -14.2249 16.3604
4055 21 287 -15.2116 -14.3368 13.5707
3903 21 185 -16.5268 -5.48347 -2.88707
3958 21 222 -11.974 -1.00301 7.82771
4058 21 290 -13.1074 6.4406 1.6056
3847 21 147 -9.93899 7.55258 2.15886
4005 21 255 -14.6584 6.9796 18.5005
4030 21 272 -7.51439 -17.9016 -2.63481
3968 21 230 -4.48245 -9.26231 14.6909
3810 21 122 -9.40754 -14.8561 15.8075
3946 21 214 -3.83444 -13.0724 10.839
4039 21 277 -4.06939 -6.22814 2.81587
3846 21 146 -9.01785 -8.90872 20.1888
3671 21 29 -6.15268 1.55563 5.359
4024 21 268 -5.68003 -1.15959 16.4612
4010 21 258 -3.58501 9.69132 -9.12615
3881 21 169 -9.72488 10.6034 0.304543
4054 21 286 -3.95739 7.175 11.0619
4031 21 273 -8.47105 13.8308 13.0583
3970 21 232 -8.03482 10.2785 11.7821
3972 21 234 -2.22857 11.3107 12.4478
3681 21 35 3.46014 -23.7751 6.66743
3933 21 207 5.33635 -23.6009 19.7593
3835 21 139 0.360862 -12.2916 0.667774
3978 21 240 2.63937 -10.5255 2.48773
3887 21 173 7.19659 -3.13073 14.0966
4018 21 264 6.75612 1.13358 -1.6523
3949 21 217 4.41809 6.0299 -6.01726
3904 21 186 1.68379 2.31209 5.03007
4044 21 280 1.27734 2.78027 19.4897
4043 21 279 -0.0273098 9.00628 1.81076
3960 21 224 12.8115 -18.565 -6.2741
4053 21 285 10.5888 -17.0405 -4.94226
4025 21 269 13.0361 -19.2024 1.61042
3845 21 145 8.34438 -21.7353 13.3043
4017 21 263 13.7464 -19.548 11.8899
3921 21 199 14.4225 -17.2669 14.7144
3967 21 229 13.5454 -16.3584 5.94957
4003 21 253 15.007 -9.32111 20.5492
3752 21 86 10.8143 -2.47205 16.4225
4057 21 289 16.7596 -0.461823 -7.15578
3816 21 126 10.4831 5.71748 -9.45669
3702 21 50 10.3073 -1.11014 7.39402
3780 21 102 11.8117 6.00857 13.6553
3654 21 16 15.4057 4.14028 15.5499
3886 21 172 8.31135 -0.223143 15.9275
3948 21 216 8.52961 0.626493 12.2916
4015 21 261 10.8148 7.03019 -5.91302
