LAMMPS (22 Jul 2025 - Update 1)
# Step 6: NPT equilibration at 500 K, 100 bar for 1 ns

units real
atom_style full
boundary p p p


pair_style lj/class2/coul/long 12.0
bond_style class2
angle_style class2
dihedral_style class2
improper_style class2
kspace_style pppm 1e-4
pair_modify mix sixthpower

read_data step05_final.data
Reading data file ...
  orthogonal box = (-18.960729 -24.769686 -9.1737343) to (17.141709 14.542278 20.546393)
  2 by 5 by 2 MPI processor grid
  reading atoms ...
  3640 atoms
  reading velocities ...
  3640 velocities
  scanning bonds ...
  4 = max bonds/atom
  scanning angles ...
  6 = max angles/atom
  scanning dihedrals ...
  21 = max dihedrals/atom
  scanning impropers ...
  4 = max impropers/atom
  orthogonal box = (-18.960729 -24.769686 -9.1737343) to (17.141709 14.542278 20.546393)
  2 by 5 by 2 MPI processor grid
  reading bonds ...
  4020 bonds
  reading angles ...
  7100 angles
  reading dihedrals ...
  11170 dihedrals
  reading impropers ...
  3110 impropers
Finding 1-2 1-3 1-4 neighbors ...
  special bond factors lj:    0        0        0       
  special bond factors coul:  0        0        0       
     4 = max # of 1-2 neighbors
     9 = max # of 1-3 neighbors
    24 = max # of 1-4 neighbors
    27 = max # of special neighbors
  special bonds CPU = 0.002 seconds
  read_data CPU = 0.261 seconds

neighbor 2.0 bin
neigh_modify delay 0 every 1 check yes

timestep 0.5

thermo_style custom step temp press vol density etotal ke pe
thermo 5000
thermo_modify flush yes

# ---------- Trajectory output ----------
dump traj all atom 10000 step06_trajectory.dump
dump_modify traj sort id

# Write restart files every 200,000 steps (~100 ps)
restart 50000 step01_restart_*.bin

fix npt6 all npt temp 500.0 500.0 100.0 aniso 98.6923 98.6923 1000.0 pchain 3

run 500000
PPPM initialization ...
  using 12-bit tables for long-range coulomb
  G vector (1/distance) = 0.16814866
  grid = 8 8 8
  stencil order = 5
  estimated absolute RMS force accuracy = 0.014995418
  estimated relative force accuracy = 4.5158257e-05
  using double precision KISS FFT
  3d grid and FFT values/proc = 567 32
Generated 190 of 190 mixed pair_coeff terms from sixthpower/sixthpower mixing rule
Neighbor list info ...
  update: every = 1 steps, delay = 0 steps, check = yes
  max neighbors/atom: 2000, page size: 100000
  master list distance cutoff = 14
  ghost atom cutoff = 14
  binsize = 7, bins = 6 6 5
  1 neighbor lists, perpetual/occasional/extra = 1 0 0
  (1) pair lj/class2/coul/long, perpetual
      attributes: half, newton on
      pair build: half/bin/newton
      stencil: half/bin/3d
      bin: standard
Per MPI rank memory allocation (min/avg/max) = 18.34 | 18.34 | 18.35 Mbytes
   Step          Temp          Press          Volume        Density         TotEng         KinEng         PotEng    
         0   497.45617     -2546.9487      42180.522      1.1260965      26668.802      5395.9905      21272.812    
      5000   496.77545     -718.81337      42076.289      1.1288861      26537.829      5388.6067      21149.222    
     10000   509.47495     -187.95049      42139.876      1.1271827      26793.795      5526.3603      21267.434    
     15000   497.61153     -198.60634      42511.088      1.11734        26548.773      5397.6757      21151.097    
     20000   499.22109     -960.79044      41897.701      1.133698       26600.68       5415.1349      21185.545    
     25000   507.75106      619.96275      41219.802      1.1523427      26823.173      5507.661       21315.512    
     30000   505.51371      542.29269      41751.972      1.137655       26734.496      5483.392       21251.104    
     35000   496.77212      1759.8069      41867.819      1.1345071      26496.217      5388.5706      21107.647    
     40000   497.32573     -580.02348      41546.565      1.1432795      26537.961      5394.5756      21143.385    
     45000   507.25541     -256.75271      41927.031      1.1329049      26584.129      5502.2846      21081.845    
     50000   506.63142     -1758.8375      42280.307      1.1234388      26741.094      5495.516       21245.578    
     55000   494.92767     -412.31118      41381.413      1.1478423      26631.947      5368.5635      21263.384    
     60000   520.73432     -130.37766      41512.246      1.1442247      26819.249      5648.4926      21170.756    
     65000   495.61318      567.5808       41362.754      1.1483601      26409.637      5375.9993      21033.638    
     70000   504.34645      2304.2466      41035.991      1.1575043      26436.764      5470.7306      20966.033    
     75000   501.38868     -1313.6335      41814.425      1.1359558      26633.914      5438.6471      21195.267    
     80000   489.28987     -918.1894       41133.49       1.1547607      26628.911      5307.4093      21321.502    
     85000   509.09835     -650.99084      41568.763      1.142669       26647.93       5522.2753      21125.654    
     90000   509.85557      48.716297      41372.442      1.1480912      26689.997      5530.4889      21159.508    
     95000   500.72538     -113.7262       41540.299      1.143452       26714.429      5431.4522      21282.977    
    100000   491.79892     -822.47529      41452.799      1.1458656      26455.362      5334.6253      21120.736    
    105000   509.56499      2545.828       41332.512      1.1492004      26779.577      5527.337       21252.24     
    110000   493.4683      -1095.0875      42072.035      1.1290002      26521.749      5352.7334      21169.015    
    115000   508.72562     -1487.842       42447.327      1.1190183      26635.767      5518.2322      21117.535    
    120000   502.87204     -2009.3843      41319.487      1.1495626      26581.669      5454.7374      21126.932    
    125000   495.6256      -3548.4183      41737.43       1.1380513      26585.29       5376.1341      21209.156    
    130000   505.08282      2424.502       40860.11       1.1624868      26560.795      5478.7181      21082.077    
    135000   498.26491     -2843.71        41575.48       1.1424844      26589.338      5404.7631      21184.575    
    140000   502.07488     -366.24973      41557.736      1.1429722      26765.609      5446.0904      21319.519    
    145000   503.02003     -697.06135      41609.179      1.1415591      26739.529      5456.3426      21283.187    
    150000   497.11403      4000.6479      41755.787      1.137551       26414.29       5392.2793      21022.01     
    155000   483.59385      375.97733      41664.645      1.1400394      26363.44       5245.6236      21117.816    
    160000   498.13483      1498.5701      42044.14       1.1297493      26529.761      5403.352       21126.409    
    165000   493.39225      1259.5125      41353.351      1.1486212      26575.472      5351.9085      21223.563    
    170000   506.81399     -667.9838       41081.124      1.1562327      26618.088      5497.4964      21120.591    
    175000   497.45005     -2148.769       41319.456      1.1495635      26541.129      5395.9241      21145.204    
    180000   492.36064     -437.30271      41403.188      1.1472387      26529.873      5340.7184      21189.155    
    185000   501.19475     -547.71966      41247.417      1.1515712      26617.434      5436.5435      21180.89     
    190000   496.36355      516.70757      41080.268      1.1562568      26580.489      5384.1387      21196.351    
    195000   495.50678     -1212.4229      41436.238      1.1463236      26403.305      5374.8452      21028.46     
    200000   508.85127      5.2323965      41545.019      1.1433221      26672.324      5519.595       21152.729    
    205000   490.87031     -3021.2788      42033.29       1.1300409      26492.689      5324.5526      21168.136    
    210000   508.33157      957.81947      41400.839      1.1473038      26664.675      5513.9578      21150.717    
    215000   499.14598      271.8802       41434.174      1.1463807      26559.792      5414.3201      21145.471    
    220000   500.5133       2489.5292      41669.84       1.1398973      26560.666      5429.1517      21131.514    
    225000   499.15114      1300.5568      41535.804      1.1435758      26500.642      5414.3761      21086.266    
    230000   498.79052      545.3352       41622.029      1.1412067      26610.356      5410.4644      21199.892    
    235000   508.56572      1036.6747      41301.766      1.1500558      26729.646      5516.4976      21213.148    
    240000   502.72031      2609.7554      41934.853      1.1326936      26694.041      5453.0915      21240.95     
    245000   495.71249     -3141.125       41903.203      1.1335491      26496.424      5377.0765      21119.348    
    250000   496.86245     -83.498012      41772.984      1.1370827      26513.727      5389.5503      21124.177    
    255000   495.81341     -854.4522       41483.215      1.1450255      26549.712      5378.1712      21171.541    
    260000   494.27551      1200.434       41298.745      1.15014        26615.98       5361.4894      21254.49     
    265000   492.15158      438.19919      42011.534      1.1306261      26547.372      5338.4507      21208.921    
    270000   495.94164     -392.58736      42056.448      1.1294187      26371.683      5379.5622      20992.121    
    275000   491.14562     -539.2435       41323.739      1.1494443      26428.921      5327.5389      21101.382    
    280000   495.4852      -2018.7901      41852.715      1.1349165      26698.491      5374.6111      21323.88     
    285000   499.40294     -304.51031      41802.664      1.1362754      26444.913      5417.1074      21027.805    
    290000   494.17174     -896.12988      42195.293      1.1257023      26527.44       5360.3637      21167.076    
    295000   498.56572     -97.706502      41932.787      1.1327494      26622.316      5408.026       21214.29     
    300000   501.67795      478.22922      41339.394      1.149009       26414.148      5441.7849      20972.363    
    305000   506.57654     -1240.5359      42090.369      1.1285085      26572.5        5494.9207      21077.579    
    310000   498.34392     -311.10511      41908.054      1.1334179      26593.522      5405.6201      21187.902    
    315000   487.35135     -806.22683      41789.069      1.136645       26576.269      5286.3818      21289.887    
    320000   500.02363      1949.9158      41044.198      1.1572729      26508.344      5423.8402      21084.504    
    325000   496.74617     -396.95287      41244.687      1.1516474      26590.444      5388.289       21202.155    
    330000   503.08699     -454.66011      41924.96       1.1329608      26613.21       5457.069       21156.141    
    335000   509.04282     -2020.566       41649.135      1.140464       26793.535      5521.6729      21271.862    
    340000   497.2802      -163.39996      41457.638      1.1457319      26616.64       5394.0818      21222.558    
    345000   487.60299     -893.40782      41898.691      1.1336712      26568.114      5289.1115      21279.002    
    350000   509.6151      -685.53573      41802.739      1.1362733      26764.305      5527.8805      21236.425    
    355000   509.92253     -269.51986      41468.446      1.1454333      26703.115      5531.2152      21171.9      
    360000   504.59517     -143.11082      41381.733      1.1478335      26721.806      5473.4284      21248.377    
    365000   495.04465      2293.7611      41222.056      1.1522797      26543.912      5369.8324      21174.08     
    370000   500.28849      468.30253      41441.596      1.1461754      26460.879      5426.7132      21034.166    
    375000   510.64266      334.01809      40996.173      1.1586286      26622.945      5539.0266      21083.918    
    380000   501.71092     -636.966        41491.836      1.1447875      26534.828      5442.1426      21092.685    
    385000   494.99671      749.69157      41496.353      1.1446629      26469.095      5369.3123      21099.782    
    390000   510.14841     -306.52358      41401.274      1.1472917      26676.472      5533.6654      21142.807    
    395000   509.03413      1558.5224      41061.052      1.1567979      26541.037      5521.5786      21019.458    
    400000   504.44451     -970.26104      41675.222      1.1397501      26767.492      5471.7942      21295.698    
    405000   499.08318      3254.5068      41014.772      1.1581032      26594.436      5413.6389      21180.797    
    410000   496.76119     -1753.1187      41645.144      1.1405733      26535.329      5388.452       21146.877    
    415000   507.51906      1259.2786      41548.939      1.1432142      26558.364      5505.1444      21053.219    
    420000   503.62884      1195.4967      41683.798      1.1395156      26560.109      5462.9465      21097.163    
    425000   507.85141     -452.43464      41687.157      1.1394238      26781.03       5508.7495      21272.28     
    430000   500.67915     -1133.8055      42133.438      1.1273549      26692.074      5430.9507      21261.123    
    435000   506.28645      1449.0099      41807.771      1.1361366      26701.911      5491.7741      21210.137    
    440000   493.80378     -1836.0709      40676.166      1.1677437      26525.02       5356.3724      21168.647    
    445000   499.34212     -1291.6881      41847.319      1.1350629      26554.042      5416.4478      21137.594    
    450000   500.15071      432.03093      41123.57       1.1550393      26484.83       5425.2187      21059.611    
    455000   497.61454     -1010.9939      41796.427      1.1364449      26610.116      5397.7084      21212.407    
    460000   492.6322       764.07519      41021.542      1.157912       26423.849      5343.6641      21080.185    
    465000   495.96729      561.35183      41399.165      1.1473501      26523.07       5379.8404      21143.229    
    470000   488.15469     -1468.1975      41787.514      1.1366873      26553.54       5295.0958      21258.445    
    475000   495.78482      127.22064      41210.604      1.1525999      26531.119      5377.8611      21153.257    
    480000   510.89586     -1952.0475      41639.781      1.1407202      26645.995      5541.7731      21104.222    
    485000   508.78691      340.58543      41285.164      1.1505183      26709.09       5518.897       21190.193    
    490000   498.87183     -426.81661      41384.554      1.1477552      26643.451      5411.3465      21232.105    
    495000   500.44917     -376.20836      41941.91       1.132503       26464.708      5428.4561      21036.252    
    500000   489.64717      812.60215      42121.249      1.1276811      26405.033      5311.285       21093.748    
Loop time of 1403.48 on 20 procs for 500000 steps with 3640 atoms

Performance: 15.390 ns/day, 1.559 hours/ns, 356.258 timesteps/s, 1.297 Matom-step/s
97.7% CPU use with 20 MPI tasks x no OpenMP threads

MPI task timing breakdown:
Section |  min time  |  avg time  |  max time  |%varavg| %total
---------------------------------------------------------------
Pair    | 739.26     | 812.38     | 885.47     | 155.5 | 57.88
Bond    | 194.61     | 223.2      | 264.88     | 135.9 | 15.90
Kspace  | 120.06     | 230.33     | 332.8      | 416.4 | 16.41
Neigh   | 46.408     | 46.453     | 46.507     |   0.4 |  3.31
Comm    | 60.756     | 61.652     | 62.218     |   5.4 |  4.39
Output  | 0.036877   | 0.041794   | 0.04893    |   1.6 |  0.00
Modify  | 17.967     | 19.803     | 21.18      |  26.8 |  1.41
Other   |            | 9.63       |            |       |  0.69

Nlocal:            182 ave         201 max         162 min
Histogram: 1 2 3 2 1 3 3 2 1 2
Nghost:         5878.1 ave        5965 max        5796 min
Histogram: 3 2 0 2 3 3 2 2 2 1
Neighs:        90308.1 ave      100415 max       79597 min
Histogram: 2 1 1 3 2 3 3 2 1 2

Total # of neighbors = 1806162
Ave neighs/atom = 496.19835
Ave special neighs/atom = 11.554945
Neighbor list builds = 14281
Dangerous builds = 0

unfix npt6
undump traj

write_data step06_final.data
System init for write_data ...
PPPM initialization ...
  using 12-bit tables for long-range coulomb
  G vector (1/distance) = 0.16700082
  grid = 8 8 8
  stencil order = 5
  estimated absolute RMS force accuracy = 0.015860702
  estimated relative force accuracy = 4.7764032e-05
  using double precision KISS FFT
  3d grid and FFT values/proc = 567 32
Generated 190 of 190 mixed pair_coeff terms from sixthpower/sixthpower mixing rule
Total wall time: 0:23:23
