LAMMPS (22 Jul 2025 - Update 1)
# Step 10: NPT production run at 313.15 K, 0 bar for 20 ns

units real
atom_style full
boundary p p p

pair_style lj/class2/coul/long 12.0
bond_style class2
angle_style class2
dihedral_style class2
improper_style class2
kspace_style pppm 1e-4
pair_modify mix sixthpower

read_restart step10_restart_17000000.bin
Reading restart file ...
  restart file = 22 Jul 2025, LAMMPS = 22 Jul 2025
WARNING: Restart file used different # of processors: 35 vs. 40 (../read_restart.cpp:629)
  restoring atom style full from restart
  orthogonal box = (-18.692444 -23.883659 -9.1379691) to (16.873424 13.65625 20.510628)
  4 by 5 by 2 MPI processor grid
  restoring pair style lj/class2/coul/long from restart
  restoring bond style class2 from restart
  restoring angle style class2 from restart
  restoring dihedral style class2 from restart
  restoring improper style class2 from restart
  3640 atoms
  4020 bonds
  7100 angles
  11170 dihedrals
  3110 impropers
Finding 1-2 1-3 1-4 neighbors ...
  special bond factors lj:    0        0        0       
  special bond factors coul:  0        0        0       
     4 = max # of 1-2 neighbors
     9 = max # of 1-3 neighbors
    24 = max # of 1-4 neighbors
    27 = max # of special neighbors
  special bonds CPU = 0.003 seconds
  read_restart CPU = 0.014 seconds

neighbor 2.0 bin
neigh_modify delay 0 every 1 check yes

group coal union all
3640 atoms in group coal
group carbon type 1 2 3 4 5 6
1860 atoms in group carbon

timestep 0.5

variable density equal density
variable vol equal vol

thermo_style    custom step time temp press vol density
thermo          10000
thermo_modify   flush yes

# ---------- Trajectory output ----------
dump traj all atom 5000000 step10_trajectory.xyz
dump_modify traj sort id

# Write restart files every 1000000 steps (~100 ps)
restart 5000000 step10_restart_*.bin

# Comprehensive data collection
fix data_out all ave/time 2000 1 2000 c_thermo_temp c_thermo_press v_density v_vol     file step10_thermo_data.txt

# Detailed structural analysis
compute rdf_cc carbon rdf 200 1 1 2 2 3 3 4 4 5 5 6 6
fix rdf_out all ave/time 20000 1 20000 c_rdf_cc[*] file step10_rdf_production.txt mode vector

# Mean squared displacement for dynamics
compute msd_c carbon msd
Resetting peratom fix info from restart file:
  fix style: STORE/ATOM, fix ID: msd_c_COMPUTE_STORE
fix msd_out all ave/time 5000 1 5000 c_msd_c[4] file step10_msd_data.txt

# Pore structure monitoring
compute density_profile all chunk/atom bin/1d z center 1.0 units box
fix density_out all ave/chunk 10000 1 10000 density_profile density/mass file step10_density_profile.txt

# NPT at zero pressure (drained conditions as per paper)
fix npt10 all npt temp 313.15 313.15 100.0 aniso 0.0 0.0 1000.0 pchain 3
Resetting global fix info from restart file:
  fix style: npt, fix ID: npt10

# Long production run - 10 ns
run 3000000
PPPM initialization ...
  using 12-bit tables for long-range coulomb
  G vector (1/distance) = 0.17084127
  grid = 8 8 8
  stencil order = 5
  estimated absolute RMS force accuracy = 0.013572704
  estimated relative force accuracy = 4.0873795e-05
  using double precision KISS FFT
  3d grid and FFT values/proc = 441 16
Generated 190 of 190 mixed pair_coeff terms from sixthpower/sixthpower mixing rule
All restart file global fix info was re-assigned
All restart file peratom fix info was re-assigned
Neighbor list info ...
  update: every = 1 steps, delay = 0 steps, check = yes
  max neighbors/atom: 2000, page size: 100000
  master list distance cutoff = 14
  ghost atom cutoff = 14
  binsize = 7, bins = 6 6 5
  2 neighbor lists, perpetual/occasional/extra = 1 1 0
  (1) pair lj/class2/coul/long, perpetual
      attributes: half, newton on
      pair build: half/bin/newton
      stencil: half/bin/3d
      bin: standard
  (2) compute rdf, occasional, copy from (1)
      attributes: half, newton on
      pair build: copy
      stencil: none
      bin: none
Per MPI rank memory allocation (min/avg/max) = 19.14 | 19.14 | 19.14 Mbytes
   Step          Time           Temp          Press          Volume        Density    
  17000000   8500000        320.80557      2514.4455      39585.011      1.1999324    
  17010000   8505000        313.82957     -1571.3862      39235.569      1.2106193    
  17020000   8510000        310.02154      692.61451      39466.354      1.2035401    
  17030000   8515000        315.80123      59.857444      39583.909      1.1999658    
  17040000   8520000        309.43687     -808.22669      39438.634      1.204386     
  17050000   8525000        310.40217     -730.55103      39163.901      1.2128347    
  17060000   8530000        313.72099     -468.37069      39926.988      1.1896549    
  17070000   8535000        316.56293      239.13673      39794.193      1.1936249    
  17080000   8540000        314.84378      1125.4123      39524.989      1.2017546    
  17090000   8545000        314.98369     -3015.8831      39468.681      1.2034691    
  17100000   8550000        321.37657     -2379.5929      39048.721      1.2164121    
  17110000   8555000        308.97524     -135.38858      39288.977      1.2089736    
  17120000   8560000        317.08558      1434.1693      39329.765      1.2077198    
  17130000   8565000        311.49835      2057.4645      39300.005      1.2086344    
  17140000   8570000        304.43269      425.98393      38803.376      1.2241032    
  17150000   8575000        311.97836     -2406.3563      39722.48       1.1957798    
  17160000   8580000        308.54325     -255.06841      39362.013      1.2067304    
  17170000   8585000        318.87754      636.19607      39653.053      1.1978734    
  17180000   8590000        310.75516      766.76764      39595.636      1.1996104    
  17190000   8595000        317.63036      1304.3144      39430.17       1.2046445    
  17200000   8600000        317.21365      1638.854       39490.598      1.2028012    
  17210000   8605000        313.71093     -17.210898      39183.973      1.2122134    
  17220000   8610000        319.05056      2303.2409      39373.272      1.2063853    
  17230000   8615000        311.66838      50.590968      39654.445      1.1978314    
  17240000   8620000        305.54368      379.60606      39312.009      1.2082653    
  17250000   8625000        315.65083     -1908.158       39474.687      1.203286     
  17260000   8630000        318.12009      1468.0234      39573.187      1.2002909    
  17270000   8635000        313.40834     -23.311241      39398.975      1.2055983    
  17280000   8640000        309.01946     -533.87278      39391.926      1.2058141    
  17290000   8645000        320.84682      486.29945      39832.082      1.1924894    
  17300000   8650000        315.21299      1530.8121      40036.802      1.1863919    
  17310000   8655000        308.59957     -518.77549      39315.865      1.2081468    
  17320000   8660000        312.1604       1928.4648      39336.03       1.2075275    
  17330000   8665000        323.63784     -1343.3378      39698.17       1.196512     
  17340000   8670000        306.85499     -171.39789      39300.808      1.2086097    
  17350000   8675000        310.07329     -718.53962      39561.139      1.2006565    
  17360000   8680000        309.8224      -219.03878      39249.457      1.2101909    
  17370000   8685000        316.96199     -737.88774      39472.531      1.2033517    
  17380000   8690000        315.28008     -835.7385       39100.288      1.2148079    
  17390000   8695000        312.18906     -1530.8302      39483.926      1.2030044    
  17400000   8700000        319.01128     -163.80727      39506.408      1.2023198    
  17410000   8705000        311.63512     -2062.6634      39446.154      1.2041564    
  17420000   8710000        311.83388     -1205.2205      39258.386      1.2099157    
  17430000   8715000        314.58774     -525.26728      39449.062      1.2040676    
  17440000   8720000        316.51626      240.93142      39180.28       1.2123277    
  17450000   8725000        314.50971     -41.143868      39607.203      1.1992601    
  17460000   8730000        315.29688     -1211.4942      39624.32       1.198742     
  17470000   8735000        317.58162     -646.49521      39599.507      1.1994932    
  17480000   8740000        316.56594      2958.1451      39667.086      1.1974496    
  17490000   8745000        310.27233      1107.7386      39626.524      1.1986754    
  17500000   8750000        312.51089     -908.05761      39759.035      1.1946803    
  17510000   8755000        311.36147     -434.87777      39362.297      1.2067217    
  17520000   8760000        315.51801     -311.09068      39202.396      1.2116437    
  17530000   8765000        309.74552      1363.003       39166.341      1.2127591    
  17540000   8770000        311.55609     -154.01183      39509.651      1.2022211    
  17550000   8775000        314.32324      144.47122      39650.886      1.1979389    
  17560000   8780000        313.37446      1212.2252      39456.795      1.2038316    
  17570000   8785000        307.94137      876.8178       39269.851      1.2095625    
  17580000   8790000        318.46169     -1507.4171      39990.594      1.1877628    
  17590000   8795000        317.1327      -588.96006      39701.217      1.1964202    
  17600000   8800000        313.62147     -1048.4011      39536.156      1.2014152    
  17610000   8805000        314.72684     -1369.3375      39093.255      1.2150264    
  17620000   8810000        312.48541      1579.2271      39809.694      1.1931601    
  17630000   8815000        321.78359      922.81702      39455.63       1.2038672    
  17640000   8820000        304.48932     -687.9609       39570.978      1.2003579    
  17650000   8825000        316.44218      1294.0684      39696.055      1.1965758    
  17660000   8830000        312.00935     -666.60068      39695.507      1.1965923    
  17670000   8835000        318.78586     -845.5692       39257.889      1.209931     
  17680000   8840000        312.40282     -67.875627      39549.254      1.2010173    
  17690000   8845000        318.45909      320.6037       39572.559      1.20031      
  17700000   8850000        305.9327      -1757.8738      39809.779      1.1931575    
  17710000   8855000        322.64145      1769.4301      39545.595      1.2011284    
  17720000   8860000        310.62202      592.99253      39475.699      1.2032551    
  17730000   8865000        313.94313     -575.8957       39365.108      1.2066355    
  17740000   8870000        309.92829      2060.9676      39445.25       1.204184     
  17750000   8875000        319.62838     -762.49674      39573.55       1.2002799    
  17760000   8880000        315.00623      3477.3962      39198.16       1.2117747    
  17770000   8885000        319.06584     -1229.7724      39415.611      1.2050895    
  17780000   8890000        321.23688     -367.91113      39533.61       1.2014926    
  17790000   8895000        314.96367      1370.054       39767.369      1.19443      
  17800000   8900000        319.28408      1329.2292      39517.609      1.201979     
  17810000   8905000        310.34256     -225.33367      39270.515      1.209542     
  17820000   8910000        319.09927     -681.44883      39807.193      1.193235     
  17830000   8915000        314.43563      1865.2687      39105.153      1.2146567    
  17840000   8920000        317.58017      1326.7044      39283.001      1.2091575    
  17850000   8925000        315.27994      460.48753      39457.138      1.2038212    
  17860000   8930000        319.79223      1539.8414      39388.62       1.2059152    
  17870000   8935000        311.62084     -271.96825      39202.221      1.2116491    
  17880000   8940000        312.72556     -1292.2563      39661.147      1.197629     
  17890000   8945000        308.47971     -165.02452      39618.764      1.1989101    
  17900000   8950000        312.9527       960.74704      39130.654      1.2138652    
  17910000   8955000        312.19765      93.744206      39284.584      1.2091088    
  17920000   8960000        313.02416     -1935.5249      39925.977      1.189685     
  17930000   8965000        309.02518      875.25574      39577.339      1.200165     
  17940000   8970000        316.60242      509.03541      39434.593      1.2045094    
  17950000   8975000        316.13514      2028.2143      39426.498      1.2047567    
  17960000   8980000        303.34542     -3751.9153      39833.242      1.1924547    
  17970000   8985000        320.29633      1568.0346      39728.454      1.1956       
  17980000   8990000        305.42166      171.91121      39639.659      1.1982782    
  17990000   8995000        315.26081     -1383.0476      39450.011      1.2040386    
  18000000   9000000        313.55133      1037.5596      39673.994      1.1972411    
  18010000   9005000        317.24704      1017.3373      39541.16       1.2012631    
  18020000   9010000        308.08637      1603.9414      39543.467      1.2011931    
  18030000   9015000        316.34597     -1334.0852      39410.248      1.2052535    
  18040000   9020000        305.76947      2123.2628      39255.157      1.2100152    
  18050000   9025000        308.25714      2088.3283      39892.986      1.1906689    
  18060000   9030000        313.99186      2532.0583      39356.22       1.206908     
  18070000   9035000        315.29666     -501.24992      39384.367      1.2060455    
  18080000   9040000        316.03377     -477.05185      39279.977      1.2092506    
  18090000   9045000        315.1812      -1320.7953      39481.333      1.2030834    
  18100000   9050000        311.96019      567.95932      39296.59       1.2087394    
  18110000   9055000        315.67475     -419.08442      39606.605      1.1992782    
  18120000   9060000        314.35134      378.60532      39486.967      1.2029118    
  18130000   9065000        313.54442     -692.80499      39262.029      1.2098034    
  18140000   9070000        303.50449     -1022.9032      39320.402      1.2080074    
  18150000   9075000        315.95887     -689.60298      39694.784      1.1966141    
  18160000   9080000        323.77054     -1950.958       39681.374      1.1970185    
  18170000   9085000        315.58387      944.92596      39595.968      1.1996004    
  18180000   9090000        317.59241     -531.62749      39445.895      1.2041643    
  18190000   9095000        310.3949       561.16111      39557.945      1.2007534    
  18200000   9100000        312.29233     -637.90581      39306.082      1.2084475    
  18210000   9105000        312.456       -158.31587      39324.876      1.20787      
  18220000   9110000        314.3014       2411.7067      39520.224      1.2018995    
  18230000   9115000        312.86453      863.56769      39446.629      1.2041419    
  18240000   9120000        313.05302      1772.1145      39673.293      1.1972623    
  18250000   9125000        316.97762     -1582.5349      39389.952      1.2058745    
  18260000   9130000        310.62401     -84.523169      39433.402      1.2045458    
  18270000   9135000        315.4851       2435.7975      39459.099      1.2037614    
  18280000   9140000        307.30095      545.25798      39418.733      1.204994     
  18290000   9145000        312.12699     -1799.1329      39477.908      1.2031878    
  18300000   9150000        308.69092      477.72799      39362.592      1.2067127    
  18310000   9155000        316.02402     -300.72505      39573.418      1.2002839    
  18320000   9160000        317.91133     -26.883856      39356.651      1.2068948    
  18330000   9165000        319.59783      2155.705       39062.611      1.2159796    
  18340000   9170000        311.52738     -1318.8155      39732.01       1.1954929    
  18350000   9175000        311.00433     -1550.0422      39282.351      1.2091776    
  18360000   9180000        311.33747     -654.77874      39561.384      1.2006491    
  18370000   9185000        313.83347     -580.29695      39224.689      1.2109551    
  18380000   9190000        308.85929      977.1196       39536.521      1.2014041    
  18390000   9195000        315.49123     -2143.4147      39897.323      1.1905395    
  18400000   9200000        312.14731      2614.7966      39308.197      1.2083825    
  18410000   9205000        311.05142      1939.6818      39489.365      1.2028387    
  18420000   9210000        304.83114      685.29777      39279.531      1.2092644    
  18430000   9215000        309.84329     -516.89453      39728.366      1.1956026    
  18440000   9220000        314.93621     -1074.5584      39610.48       1.1991609    
  18450000   9225000        313.01426     -2218.0759      39760.06       1.1946495    
  18460000   9230000        310.32503      572.80631      39555.683      1.2008221    
  18470000   9235000        304.83511     -1554.3117      39526.971      1.2016944    
  18480000   9240000        314.68267      695.61996      39826.219      1.192665     
  18490000   9245000        307.28569      918.95232      39601.171      1.1994428    
  18500000   9250000        318.37011     -112.7017       39484.293      1.2029932    
  18510000   9255000        315.04714     -412.99467      39787.635      1.1938216    
  18520000   9260000        316.91288      1687.9341      39540.15       1.2012938    
  18530000   9265000        314.03014     -1142.1392      39430.443      1.2046362    
  18540000   9270000        311.08248      1511.0316      39514.349      1.2020782    
  18550000   9275000        310.72989      1102.9951      39427.601      1.204723     
  18560000   9280000        307.82432     -47.965958      39330.275      1.2077042    
  18570000   9285000        311.98499      613.89611      39444.894      1.2041948    
  18580000   9290000        309.1307       1466.4774      39848.759      1.1919904    
  18590000   9295000        316.29012      612.79857      39778.996      1.1940809    
  18600000   9300000        321.37983     -1300.4276      39585.851      1.199907     
  18610000   9305000        311.68371     -220.174        39268.947      1.2095903    
  18620000   9310000        313.78888     -359.06161      39476.439      1.2032326    
  18630000   9315000        312.21245     -736.80838      39034.814      1.2168455    
  18640000   9320000        316.09004     -3074.7381      39306.551      1.2084331    
  18650000   9325000        311.06799      1420.8091      39463.904      1.2036148    
  18660000   9330000        316.4494       76.985856      39664.953      1.197514     
  18670000   9335000        307.01974      1237.4961      39386.453      1.2059816    
  18680000   9340000        315.90455      683.83023      39669.063      1.19739      
  18690000   9345000        304.27729     -1054.8867      39516.365      1.2020169    
  18700000   9350000        316.0752      -1310.3298      39169.504      1.2126612    
  18710000   9355000        315.26796     -763.12896      39872.414      1.1912832    
  18720000   9360000        315.91194      1082.128       39535.153      1.2014457    
  18730000   9365000        315.2229       122.27173      39335.344      1.2075485    
  18740000   9370000        317.83597     -792.08585      39860.059      1.1916525    
  18750000   9375000        326.38101     -667.62003      39663.972      1.1975436    
  18760000   9380000        307.02958      1152.8454      39433.798      1.2045337    
  18770000   9385000        317.19117      580.48771      39477.497      1.2032003    
  18780000   9390000        311.48591      575.63108      39235.11       1.2106335    
  18790000   9395000        317.57556      767.92354      39608.467      1.1992218    
  18800000   9400000        313.3364       732.30911      40025.761      1.1867192    
  18810000   9405000        313.36235      543.57753      39789.872      1.1937545    
  18820000   9410000        311.77415     -355.27736      39614.407      1.199042     
  18830000   9415000        311.81025     -646.84044      39792.52       1.193675     
  18840000   9420000        312.32393     -1463.907       39554.947      1.2008444    
  18850000   9425000        313.77575     -1201.1046      39349.74       1.2071068    
  18860000   9430000        312.34096      589.07755      39228.518      1.2108369    
  18870000   9435000        314.92463     -1156.0389      39669.119      1.1973883    
  18880000   9440000        314.4747       1613.9449      39297.717      1.2087048    
  18890000   9445000        314.66444      2445.3097      39624.291      1.1987429    
  18900000   9450000        314.26573     -1685.1797      39290.359      1.2089311    
  18910000   9455000        311.91313     -529.69361      39331.259      1.207674     
  18920000   9460000        315.15432      489.04617      39394.223      1.2057437    
  18930000   9465000        316.64326     -722.7697       39620.774      1.1988493    
  18940000   9470000        312.78124      295.07069      39511.502      1.2021648    
  18950000   9475000        311.32018      1946.4534      39555.796      1.2008187    
  18960000   9480000        321.09877      582.08114      39442.583      1.2042654    
  18970000   9485000        312.43209      433.27257      39289.137      1.2089687    
  18980000   9490000        310.43386      385.12104      39592.949      1.1996918    
  18990000   9495000        313.84771     -1992.2436      39516.467      1.2020138    
  19000000   9500000        310.33134     -1235.7385      39551.195      1.2009583    
  19010000   9505000        312.27526      817.04485      39599.871      1.1994821    
  19020000   9510000        315.68379     -2024.6997      39663.395      1.1975611    
  19030000   9515000        305.53417      581.637        39808.236      1.1932038    
  19040000   9520000        316.53847      1957.9556      39233.973      1.2106686    
  19050000   9525000        312.44768     -322.17956      39660.078      1.1976612    
  19060000   9530000        313.52592      174.04961      39592.69       1.1996997    
  19070000   9535000        311.42618      80.100016      39501.333      1.2024743    
  19080000   9540000        312.51765     -471.26154      39386.566      1.2059781    
  19090000   9545000        309.18608      2109.5332      39497.453      1.2025924    
  19100000   9550000        314.6037       843.71047      39419.716      1.204964     
  19110000   9555000        313.38984     -53.210186      39411.747      1.2052076    
  19120000   9560000        314.54637     -1361.5722      39510.237      1.2022033    
  19130000   9565000        312.13781      2643.2243      39762.061      1.1945894    
  19140000   9570000        308.97258      7.3442436      39353.971      1.206977     
  19150000   9575000        310.12292      1104.8263      39319.431      1.2080373    
  19160000   9580000        314.8815       756.08738      39736.874      1.1953466    
  19170000   9585000        312.26893      1623.7573      39355.366      1.2069342    
  19180000   9590000        312.59843      1357.1274      39202.082      1.2116534    
  19190000   9595000        313.01787      913.80341      39340.128      1.2074017    
  19200000   9600000        312.54358      65.052829      39726.45       1.1956603    
  19210000   9605000        308.71557      368.10141      39521.57       1.2018586    
  19220000   9610000        318.52694     -334.54246      39368.562      1.2065297    
  19230000   9615000        313.98612     -964.18017      39665.693      1.1974917    
  19240000   9620000        316.94636      189.37253      39654.716      1.1978232    
  19250000   9625000        308.72212      1070.9291      39571.892      1.2003302    
  19260000   9630000        315.76144     -190.49245      39201.201      1.2116807    
  19270000   9635000        313.38103      214.25042      39295.692      1.208767     
  19280000   9640000        312.51016     -3697.3167      39687.12       1.1968452    
  19290000   9645000        306.095        933.69165      39859.963      1.1916553    
  19300000   9650000        320.58486     -3123.5717      39694.487      1.1966231    
  19310000   9655000        315.81384      724.54742      39317.057      1.2081102    
  19320000   9660000        307.86684     -578.42581      39623.623      1.1987631    
  19330000   9665000        310.2256      -3200.1042      39342.532      1.2073279    
  19340000   9670000        314.45912      1300.6463      39519.152      1.2019321    
  19350000   9675000        314.60087      1517.319       39438.163      1.2044004    
  19360000   9680000        313.11584      338.12598      39756.376      1.1947602    
  19370000   9685000        307.98974      108.9087       39450.625      1.2040199    
  19380000   9690000        307.3952       687.86788      39323.144      1.2079232    
  19390000   9695000        319.08987     -1614.5606      39770.103      1.1943479    
  19400000   9700000        317.05166     -106.28802      39549.636      1.2010057    
  19410000   9705000        312.77053      1286.8836      39933.987      1.1894464    
  19420000   9710000        308.93577     -143.83589      40106.709      1.184324     
  19430000   9715000        316.0451      -732.23608      39788.559      1.1937939    
  19440000   9720000        319.03276      168.88183      39512.332      1.2021396    
  19450000   9725000        313.57961     -412.62045      39411.414      1.2052178    
  19460000   9730000        313.19967      300.34908      39838.895      1.1922855    
  19470000   9735000        319.06863      637.90218      39331.958      1.2076525    
  19480000   9740000        316.15045     -393.47564      39549.432      1.2010119    
  19490000   9745000        306.05182      551.96863      39334.382      1.2075781    
  19500000   9750000        315.99163      2839.7267      39491.722      1.2027669    
  19510000   9755000        309.31319      1071.0268      39675.846      1.1971853    
  19520000   9760000        310.87789     -1310.1675      39516.252      1.2020203    
  19530000   9765000        313.69438     -2101.4619      39496.226      1.2026298    
  19540000   9770000        312.38129     -127.62468      39468.308      1.2034805    
  19550000   9775000        312.83923      1850.0692      39590.889      1.1997543    
  19560000   9780000        317.55187      1578.1606      39678.528      1.1971043    
  19570000   9785000        309.28933      58.48025       39720.561      1.1958375    
  19580000   9790000        314.24487     -1356.5476      39562.261      1.2006224    
  19590000   9795000        313.20434      1768.1187      39117.506      1.2142731    
  19600000   9800000        312.89317     -38.354109      39430.949      1.2046207    
  19610000   9805000        310.38719     -252.07315      39543.788      1.2011833    
  19620000   9810000        311.23347      1362.9526      39221.3        1.2110598    
  19630000   9815000        304.4331       942.33666      39513.861      1.2020931    
  19640000   9820000        310.70859     -88.045471      39246.463      1.2102833    
  19650000   9825000        314.47536      1842.1838      39717.208      1.1959385    
  19660000   9830000        319.06592     -1145.0179      39474.92       1.2032789    
  19670000   9835000        317.50677      120.64838      39314.012      1.2082038    
  19680000   9840000        306.26691     -153.73383      39554.463      1.2008591    
  19690000   9845000        317.00241      1449.9909      39376.111      1.2062983    
  19700000   9850000        319.5283      -648.89521      39042.008      1.2166213    
  19710000   9855000        312.4491       1376.5468      39423.939      1.2048349    
  19720000   9860000        320.76547      224.67131      39428.202      1.2047046    
  19730000   9865000        313.99133     -1972.1718      39712.55       1.1960788    
  19740000   9870000        305.35525      210.83956      39637.662      1.1983385    
  19750000   9875000        316.55985     -499.75919      39565.449      1.2005257    
  19760000   9880000        306.97606      896.86092      39018.302      1.2173605    
  19770000   9885000        312.50525      104.24033      39450.59       1.204021     
  19780000   9890000        311.42824     -1601.2774      39970.643      1.1883556    
  19790000   9895000        315.9882       2339.8756      39111.729      1.2144525    
  19800000   9900000        313.79222      685.11592      39370.373      1.2064742    
  19810000   9905000        306.84015      485.37916      39555.154      1.2008382    
  19820000   9910000        316.0528      -286.15387      39426.712      1.2047502    
  19830000   9915000        306.54391     -1897.9437      39791.129      1.1937168    
  19840000   9920000        308.89468      1016.1907      39835.615      1.1923837    
  19850000   9925000        315.70871     -739.06349      39597.024      1.1995684    
  19860000   9930000        316.54745      1704.0983      38819.098      1.2236075    
  19870000   9935000        319.60602      103.10656      39372.716      1.2064024    
  19880000   9940000        308.31502     -1382.8962      39875.462      1.1911922    
  19890000   9945000        314.12353      636.06697      39872.651      1.1912761    
  19900000   9950000        317.40008      1262.3129      39377.448      1.2062574    
  19910000   9955000        311.10499     -29.423402      39095.286      1.2149633    
  19920000   9960000        318.12918      74.716837      39362.202      1.2067246    
  19930000   9965000        311.25742     -852.52639      39544.904      1.2011494    
  19940000   9970000        318.43801      1131.4843      39203.561      1.2116077    
  19950000   9975000        305.75949     -667.06123      39424.459      1.204819     
  19960000   9980000        312.32582     -233.43596      39357.485      1.2068692    
  19970000   9985000        315.72594     -907.2923       39735.078      1.1954006    
  19980000   9990000        310.02002     -886.13678      39614.917      1.1990266    
  19990000   9995000        306.71941     -652.9707       39216.352      1.2112125    
  20000000   10000000       306.78064     -1923.0694      39537.132      1.2013855    
Loop time of 6107.21 on 40 procs for 3000000 steps with 3640 atoms

Performance: 21.221 ns/day, 1.131 hours/ns, 491.223 timesteps/s, 1.788 Matom-step/s
96.9% CPU use with 40 MPI tasks x no OpenMP threads

MPI task timing breakdown:
Section |  min time  |  avg time  |  max time  |%varavg| %total
---------------------------------------------------------------
Pair    | 2696.1     | 3107.8     | 3768.7     | 415.4 | 50.89
Bond    | 639.54     | 816.72     | 1038       | 359.2 | 13.37
Kspace  | 508.46     | 1380       | 1917.9     | 879.8 | 22.60
Neigh   | 141.93     | 142.24     | 142.45     |   1.1 |  2.33
Comm    | 451.57     | 457.32     | 463.65     |  14.1 |  7.49
Output  | 0.02282    | 0.03083    | 0.033067   |   1.1 |  0.00
Modify  | 122.17     | 138.64     | 144.29     |  61.2 |  2.27
Other   |            | 64.43      |            |       |  1.05

Nlocal:             91 ave         111 max          78 min
Histogram: 4 3 7 9 2 6 6 2 0 1
Nghost:        5098.77 ave        5154 max        5033 min
Histogram: 1 2 4 2 6 8 8 3 2 4
Neighs:        48117.5 ave       58129 max       39720 min
Histogram: 1 5 3 8 9 2 5 4 2 1

Total # of neighbors = 1924701
Ave neighs/atom = 528.76401
Ave special neighs/atom = 11.554945
Neighbor list builds = 63789
Dangerous builds = 0

# Clean up
unfix npt10
unfix data_out
unfix rdf_out
unfix msd_out
unfix density_out
undump traj

# Write final production structure
write_data step10_production.data
System init for write_data ...
PPPM initialization ...
  using 12-bit tables for long-range coulomb
  G vector (1/distance) = 0.17041369
  grid = 8 8 8
  stencil order = 5
  estimated absolute RMS force accuracy = 0.013869297
  estimated relative force accuracy = 4.1766975e-05
  using double precision KISS FFT
  3d grid and FFT values/proc = 441 16
Generated 190 of 190 mixed pair_coeff terms from sixthpower/sixthpower mixing rule
Total wall time: 1:41:47
