ITEM: TIMESTEP
15000
ITEM: NUMBER OF ATOMS
4
ITEM: BOX BOUNDS pp pp pp
-1.8348607460098147e+01 1.6529587681172710e+01
-2.4135098942096988e+01 1.3907690700009582e+01
-9.1281951625427773e+00 2.0500853989280209e+01
ITEM: ATOMS id type mol x y z
3642 21 12 -13.8811 5.69632 -0.818218
3641 21 11 -10.5501 10.4408 1.47755
3644 21 14 4.63361 -1.31583 1.81667
3643 21 13 0.076846 6.38381 -8.85807
ITEM: TIMESTEP
20000
ITEM: NUMBER OF ATOMS
7
ITEM: BOX BOUNDS pp pp pp
-1.8355032373063580e+01 1.6536012594138143e+01
-2.4065245319534718e+01 1.3837837077447311e+01
-9.1363717913386182e+00 2.0509030618058429e+01
ITEM: ATOMS id type mol x y z
3642 21 12 -13.8859 5.65662 -0.821808
3651 21 19 -11.8284 9.42541 3.87954
3650 21 18 -16.3354 8.61448 16.3148
3644 21 14 4.63565 -1.32978 1.81453
3649 21 17 1.51755 -0.898031 15.0419
3643 21 13 0.0772094 6.34159 -8.8661
3648 21 16 8.53235 0.135722 -3.13499
ITEM: TIMESTEP
25000
ITEM: NUMBER OF ATOMS
9
ITEM: BOX BOUNDS pp pp pp
-1.8370749328196222e+01 1.6551729549270785e+01
-2.4188535743946485e+01 1.3961127501859078e+01
-9.0273636158759132e+00 2.0400022442578120e+01
ITEM: ATOMS id type mol x y z
3642 21 12 -13.8976 5.72668 -0.773946
3651 21 19 -11.8382 9.51999 3.89283
3650 21 18 -16.3493 8.70379 16.2367
3655 21 21 -1.09156 9.57949 10.1595
3644 21 14 4.64064 -1.30516 1.843
3656 21 22 7.0363 -3.31085 13.2461
3649 21 17 1.51973 -0.870605 14.9731
3643 21 13 0.0780984 6.41611 -8.75908
3648 21 16 8.54085 0.169872 -3.07012
ITEM: TIMESTEP
30000
ITEM: NUMBER OF ATOMS
11
ITEM: BOX BOUNDS pp pp pp
-1.8555267159341799e+01 1.6736247380416362e+01
-2.4076983902789372e+01 1.3849575660701966e+01
-9.1088340606136349e+00 2.0481492887297868e+01
ITEM: ATOMS id type mol x y z
3642 21 12 -14.0348 5.66329 -0.809717
3651 21 19 -11.9537 9.43441 3.88289
3650 21 18 -16.5124 8.62299 16.2951
3655 21 21 -1.09348 9.49357 10.1842
3663 21 25 -8.7222 7.61169 11.7914
3644 21 14 4.69929 -1.32744 1.82172
3656 21 22 7.12026 -3.32139 13.288
3649 21 17 1.5454 -0.89542 15.0246
3643 21 13 0.0885347 6.34868 -8.83906
3648 21 16 8.64072 0.138973 -3.1186
3664 21 26 11.0076 6.3714 -6.76723
ITEM: TIMESTEP
35000
ITEM: NUMBER OF ATOMS
14
ITEM: BOX BOUNDS pp pp pp
-1.8462842651353924e+01 1.6643822872428487e+01
-2.4034651354137665e+01 1.3807243112050259e+01
-9.1386643869377835e+00 2.0511323213603880e+01
ITEM: ATOMS id type mol x y z
3669 21 29 -13.1775 -11.5794 15.5743
3642 21 12 -13.9661 5.63923 -0.822815
3651 21 19 -11.8959 9.40194 3.87926
3650 21 18 -16.4307 8.59232 16.3165
3655 21 21 -1.09252 9.46096 10.1933
3663 21 25 -8.68128 7.58328 11.8037
3644 21 14 4.66992 -1.33589 1.81393
3656 21 22 7.07821 -3.32539 13.3033
3649 21 17 1.53254 -0.904836 15.0434
3643 21 13 0.0833072 6.32309 -8.86835
3673 21 31 4.57044 12.9245 18.3463
3648 21 16 8.5907 0.127247 -3.13635
3668 21 28 10.3434 3.76961 17.8555
3664 21 26 10.9451 6.34577 -6.79234
ITEM: TIMESTEP
40000
ITEM: NUMBER OF ATOMS
15
ITEM: BOX BOUNDS pp pp pp
-1.8448724242521322e+01 1.6629704463595885e+01
-2.3981032007946069e+01 1.3753623765858663e+01
-9.0293268234075619e+00 2.0401985650056631e+01
ITEM: ATOMS id type mol x y z
3669 21 29 -13.1676 -11.5611 15.5014
3642 21 12 -13.9556 5.60876 -0.774808
3651 21 19 -11.887 9.3608 3.89259
3650 21 18 -16.4182 8.55348 16.2381
3674 21 32 -7.01425 -2.89461 16.9621
3655 21 21 -1.09237 9.41965 10.1601
3663 21 25 -8.67503 7.5473 11.7586
3644 21 14 4.66543 -1.34659 1.84249
3656 21 22 7.07178 -3.33046 13.2471
3649 21 17 1.53058 -0.916764 14.9744
3643 21 13 0.0825086 6.29068 -8.76101
3673 21 31 4.56603 12.8734 18.2529
3648 21 16 8.58306 0.112395 -3.07128
3668 21 28 10.3344 3.74443 17.7658
3664 21 26 10.9356 6.31329 -6.70031
ITEM: TIMESTEP
45000
ITEM: NUMBER OF ATOMS
13
ITEM: BOX BOUNDS pp pp pp
-1.8538306609817131e+01 1.6719286830891694e+01
-2.3947646371340117e+01 1.3720238129252710e+01
-8.9628957933148783e+00 2.0335554619946652e+01
ITEM: ATOMS id type mol x y z
3669 21 29 -13.2302 -11.5497 15.4571
3642 21 12 -14.0222 5.58979 -0.745641
3651 21 19 -11.9431 9.33519 3.90068
3650 21 18 -16.4974 8.5293 16.1904
3674 21 32 -7.04543 -2.89854 16.9112
3655 21 21 -1.09331 9.39394 10.1399
3663 21 25 -8.71469 7.5249 11.7311
3644 21 14 4.6939 -1.35326 1.85984
3656 21 22 7.11255 -3.33361 13.213
3678 21 34 -0.626095 -1.29815 19.0695
3643 21 13 0.0875754 6.2705 -8.69579
3648 21 16 8.63154 0.103148 -3.03175
3668 21 28 10.3918 3.72876 17.7113
ITEM: TIMESTEP
50000
ITEM: NUMBER OF ATOMS
12
ITEM: BOX BOUNDS pp pp pp
-1.8458612879234515e+01 1.6639593100309078e+01
-2.3863594694627952e+01 1.3636186452540546e+01
-9.3570985504385575e+00 2.0729757377048912e+01
ITEM: ATOMS id type mol x y z
3669 21 29 -13.1745 -11.521 15.72
3642 21 12 -13.9629 5.54202 -0.918722
3651 21 19 -11.8932 9.27071 3.85263
3650 21 18 -16.427 8.46841 16.4731
3674 21 32 -7.01769 -2.90842 17.2133
3655 21 21 -1.09248 9.32919 10.2597
3663 21 25 -8.67941 7.46849 11.8938
3644 21 14 4.66857 -1.37004 1.75688
3656 21 22 7.07628 -3.34156 13.4155
3678 21 34 -0.627377 -1.31518 19.4297
3648 21 16 8.58841 0.0798659 -3.26635
3668 21 28 10.3407 3.6893 18.0348
ITEM: TIMESTEP
55000
ITEM: NUMBER OF ATOMS
15
ITEM: BOX BOUNDS pp pp pp
-1.8500985879121803e+01 1.6681966100196366e+01
-2.4101583096305291e+01 1.3874174854217884e+01
-9.0083389163425274e+00 2.0380997742938384e+01
ITEM: ATOMS id type mol x y z
3669 21 29 -13.2041 -11.6023 15.4874
3642 21 12 -13.9945 5.67727 -0.765593
3651 21 19 -11.9197 9.45329 3.89514
3650 21 18 -16.4644 8.64081 16.223
3691 21 41 -2.10738 -13.6868 -0.33913
3674 21 32 -7.03244 -2.88043 16.946
3663 21 25 -8.69817 7.6282 11.7499
3682 21 36 2.22111 -23.8713 17.319
3687 21 39 2.49185 -11.1149 6.51752
3644 21 14 4.68204 -1.32252 1.84797
3656 21 22 7.09556 -3.31906 13.2364
3683 21 37 5.59691 0.107442 -2.18938
3678 21 34 -0.626695 -1.26697 19.111
3648 21 16 8.61134 0.145787 -3.05879
3668 21 28 10.3679 3.80103 17.7486
ITEM: TIMESTEP
60000
ITEM: NUMBER OF ATOMS
15
ITEM: BOX BOUNDS pp pp pp
-1.8406203303940963e+01 1.6587183525015526e+01
-2.3997002752644892e+01 1.3769594510557486e+01
-9.2729910839915739e+00 2.0645649910566302e+01
ITEM: ATOMS id type mol x y z
3669 21 29 -13.1379 -11.5666 15.6639
3642 21 12 -13.924 5.61783 -0.881793
3651 21 19 -11.8604 9.37305 3.86288
3650 21 18 -16.3806 8.56505 16.4128
3691 21 41 -2.10093 -13.6396 -0.447649
3674 21 32 -6.99945 -2.89273 17.1488
3695 21 43 -1.49403 4.69376 -7.94872
3663 21 25 -8.6562 7.55802 11.8591
3682 21 36 2.20424 -23.768 17.5285
3687 21 39 2.47353 -11.0819 6.53249
3644 21 14 4.65191 -1.3434 1.77885
3656 21 22 7.05243 -3.32895 13.3723
3683 21 37 5.56186 0.0786851 -2.33122
3678 21 34 -0.628219 -1.28816 19.3528
3648 21 16 8.56004 0.116819 -3.21629
ITEM: TIMESTEP
65000
ITEM: NUMBER OF ATOMS
16
ITEM: BOX BOUNDS pp pp pp
-1.8821816359575994e+01 1.7002796580650557e+01
-2.3856335561988711e+01 1.3628927319901305e+01
-9.0352271698976345e+00 2.0407885996457459e+01
ITEM: ATOMS id type mol x y z
3669 21 29 -13.4283 -11.5185 15.5053
3642 21 12 -14.2331 5.53789 -0.777399
3651 21 19 -12.1205 9.26514 3.89187
3650 21 18 -16.7481 8.46315 16.2423
3691 21 41 -2.12923 -13.5761 -0.350155
3674 21 32 -7.14411 -2.90928 16.9667
3663 21 25 -8.84022 7.46362 11.761
3682 21 36 2.27821 -23.6291 17.3403
3697 21 45 6.3095 -13.4886 5.33794
3687 21 39 2.55389 -11.0374 6.51904
3644 21 14 4.78402 -1.37149 1.84095
3656 21 22 7.24156 -3.34224 13.2502
3683 21 37 5.71558 0.0400055 -2.20379
3678 21 34 -0.621538 -1.31665 19.1356
3701 21 47 8.80301 -20.229 1.31688
3648 21 16 8.78498 0.0778552 -3.0748
ITEM: TIMESTEP
70000
ITEM: NUMBER OF ATOMS
15
ITEM: BOX BOUNDS pp pp pp
-1.8540547234709923e+01 1.6721527455784486e+01
-2.3873231145106530e+01 1.3645822903019123e+01
-9.2103829468297889e+00 2.0583041773369235e+01
ITEM: ATOMS id type mol x y z
3669 21 29 -13.2318 -11.5243 15.6221
3642 21 12 -14.0239 5.54749 -0.854304
3651 21 19 -11.9445 9.2781 3.87052
3650 21 18 -16.4994 8.47539 16.3679
3691 21 41 -2.11007 -13.5837 -0.421976
3674 21 32 -7.04621 -2.90729 17.1009
3682 21 36 2.22815 -23.6458 17.479
3697 21 45 6.19615 -13.4962 5.3338
3687 21 39 2.4995 -11.0428 6.52894
3644 21 14 4.69461 -1.36812 1.7952
3656 21 22 7.11357 -3.34065 13.3402
3683 21 37 5.61155 0.0446513 -2.29767
3678 21 34 -0.626059 -1.31323 19.2956
3701 21 47 8.6505 -20.2427 1.26489
3648 21 16 8.63275 0.0825352 -3.17903
ITEM: TIMESTEP
75000
ITEM: NUMBER OF ATOMS
14
ITEM: BOX BOUNDS pp pp pp
-1.8465275081421563e+01 1.6646255302496126e+01
-2.4029918195045681e+01 1.3802509952958275e+01
-8.9949021639004663e+00 2.0367560990425300e+01
ITEM: ATOMS id type mol x y z
3669 21 29 -13.1792 -11.5778 15.4784
3642 21 12 -13.9679 5.63654 -0.759694
3651 21 19 -11.8974 9.39831 3.89678
3650 21 18 -16.4329 8.58889 16.2134
3691 21 41 -2.10495 -13.6544 -0.33362
3674 21 32 -7.02001 -2.88886 16.9358
3697 21 45 6.16581 -13.5662 5.3389
3687 21 39 2.48495 -11.0923 6.51676
3644 21 14 4.67069 -1.33683 1.85148
3656 21 22 7.07931 -3.32584 13.2295
3683 21 37 5.58371 0.0877359 -2.18218
3678 21 34 -0.62727 -1.28149 19.0988
3705 21 49 -0.507664 8.26251 16.3902
3701 21 47 8.60968 -20.369 1.32884
ITEM: TIMESTEP
80000
ITEM: NUMBER OF ATOMS
14
ITEM: BOX BOUNDS pp pp pp
-1.8585308974141327e+01 1.6766289195215890e+01
-2.4179607677571514e+01 1.3952199435484108e+01
-9.0414003853496929e+00 2.0414059211856088e+01
ITEM: ATOMS id type mol x y z
3669 21 29 -13.2631 -11.629 15.5094
3642 21 12 -14.0572 5.72161 -0.780109
3651 21 19 -11.9725 9.51314 3.89111
3650 21 18 -16.539 8.69733 16.2467
3691 21 41 -2.11312 -13.722 -0.352686
3674 21 32 -7.06179 -2.87126 16.9714
3697 21 45 6.21419 -13.6331 5.3378
3687 21 39 2.50816 -11.1396 6.51939
3644 21 14 4.70884 -1.30695 1.83934
3707 21 51 1.58312 -3.02421 4.73242
3656 21 22 7.13394 -3.31169 13.2533
3683 21 37 5.6281 0.128896 -2.2071
3678 21 34 -0.62534 -1.25116 19.1412
3705 21 49 -0.504916 8.36836 16.4241
ITEM: TIMESTEP
85000
ITEM: NUMBER OF ATOMS
15
ITEM: BOX BOUNDS pp pp pp
-1.8558341635676314e+01 1.6739321856750877e+01
-2.4115009165795328e+01 1.3887600923707922e+01
-9.1230783185536133e+00 2.0495737145040806e+01
ITEM: ATOMS id type mol x y z
3669 21 29 -13.2442 -11.6069 15.5639
3642 21 12 -14.0371 5.6849 -0.815971
3651 21 19 -11.9556 9.46359 3.88116
3650 21 18 -16.5152 8.65053 16.3053
3708 21 52 -7.97096 -16.9851 -0.990342
3691 21 41 -2.11128 -13.6928 -0.386178
3674 21 32 -7.0524 -2.87885 17.034
3697 21 45 6.20332 -13.6042 5.33586
3687 21 39 2.50294 -11.1192 6.52401
3644 21 14 4.70027 -1.31984 1.818
3707 21 51 1.57931 -3.03129 4.72713
3656 21 22 7.12166 -3.3178 13.2953
3683 21 37 5.61813 0.111134 -2.25087
3678 21 34 -0.625773 -1.26425 19.2159
3705 21 49 -0.505533 8.32268 16.4837
ITEM: TIMESTEP
90000
ITEM: NUMBER OF ATOMS
16
ITEM: BOX BOUNDS pp pp pp
-1.8455684212437468e+01 1.6636664433512031e+01
-2.4082263214893626e+01 1.3854854972806219e+01
-9.0928733606579222e+00 2.0465532187127909e+01
ITEM: ATOMS id type mol x y z
3669 21 29 -13.1725 -11.5957 15.5438
3642 21 12 -13.9608 5.66629 -0.802709
3651 21 19 -11.8914 9.43846 3.88484
3650 21 18 -16.4244 8.62681 16.2836
3709 21 53 -9.79691 13.8276 18.3932
3691 21 41 -2.10429 -13.6781 -0.373792
3674 21 32 -7.01667 -2.8827 17.0108
3697 21 45 6.16195 -13.5896 5.33658
3687 21 39 2.4831 -11.1088 6.5223
3644 21 14 4.66764 -1.32638 1.82589
3707 21 51 1.56484 -3.03488 4.72909
3656 21 22 7.07495 -3.32089 13.2798
3683 21 37 5.58016 0.102129 -2.23469
3678 21 34 -0.627424 -1.27088 19.1883
3705 21 49 -0.507883 8.29953 16.4616
3710 21 54 12.4842 -15.2523 17.0408
ITEM: TIMESTEP
95000
ITEM: NUMBER OF ATOMS
17
ITEM: BOX BOUNDS pp pp pp
-1.8414717657543250e+01 1.6595697878617813e+01
-2.4142400401661650e+01 1.3914992159574243e+01
-9.2051438083888932e+00 2.0577802634838985e+01
ITEM: ATOMS id type mol x y z
3669 21 29 -13.1438 -11.6162 15.6187
3642 21 12 -13.9303 5.70047 -0.852004
3651 21 19 -11.8657 9.4846 3.87116
3650 21 18 -16.3882 8.67037 16.3641
3709 21 53 -9.77616 13.8877 18.4898
3691 21 41 -2.1015 -13.7052 -0.419828
3674 21 32 -7.00241 -2.87563 17.0968
3697 21 45 6.14543 -13.6165 5.33392
3687 21 39 2.47517 -11.1278 6.52865
3644 21 14 4.65462 -1.31437 1.79657
3707 21 51 1.55906 -3.02829 4.72181
3656 21 22 7.05631 -3.31521 13.3375
3683 21 37 5.56501 0.118665 -2.29486
3678 21 34 -0.628082 -1.2587 19.2908
3705 21 49 -0.508821 8.34205 16.5435
3711 21 55 9.98406 -22.8433 12.011
3710 21 54 12.4529 -15.2844 17.1271
ITEM: TIMESTEP
100000
ITEM: NUMBER OF ATOMS
19
ITEM: BOX BOUNDS pp pp pp
-1.8426768540534209e+01 1.6607748761608772e+01
-2.4075530399033937e+01 1.3848122156946530e+01
-9.1597067897600226e+00 2.0532365616193200e+01
ITEM: ATOMS id type mol x y z
3669 21 29 -13.1522 -11.5934 15.5883
3642 21 12 -13.9392 5.66246 -0.832054
3651 21 19 -11.8733 9.4333 3.87669
3650 21 18 -16.3988 8.62193 16.3316
3709 21 53 -9.78227 13.8209 18.4507
3691 21 41 -2.10233 -13.675 -0.401197
3716 21 58 -8.46607 -8.40581 5.8789
3674 21 32 -7.00661 -2.8835 17.062
3715 21 57 -9.31197 -0.798556 17.1722
3697 21 45 6.15029 -13.5866 5.335
3687 21 39 2.4775 -11.1067 6.52608
3644 21 14 4.65845 -1.32773 1.80844
3707 21 51 1.56076 -3.03561 4.72476
3656 21 22 7.06179 -3.32153 13.3141
3683 21 37 5.56946 0.100278 -2.27051
3678 21 34 -0.627889 -1.27225 19.2493
3705 21 49 -0.508545 8.29477 16.5104
3711 21 55 9.99156 -22.781 11.9917
3710 21 54 12.4621 -15.2487 17.0922
ITEM: TIMESTEP
105000
ITEM: NUMBER OF ATOMS
21
ITEM: BOX BOUNDS pp pp pp
-1.8384390614747371e+01 1.6565370835821934e+01
-2.4241469732413748e+01 1.4014061490326341e+01
-9.0762906895176663e+00 2.0448949515934615e+01
ITEM: ATOMS id type mol x y z
3669 21 29 -13.1226 -11.6501 15.5327
3642 21 12 -13.9077 5.75677 -0.795429
3651 21 19 -11.8468 9.5606 3.88686
3650 21 18 -16.3613 8.74214 16.2718
3709 21 53 -9.7608 13.9866 18.379
3691 21 41 -2.09944 -13.7499 -0.366993
3716 21 58 -8.44779 -8.43462 5.87782
3674 21 32 -6.99186 -2.86398 16.9981
3718 21 60 -8.91925 2.29754 6.23146
3715 21 57 -9.29164 -0.760793 17.1077
3697 21 45 6.13321 -13.6607 5.33697
3687 21 39 2.46931 -11.1591 6.52136
3644 21 14 4.64498 -1.29459 1.83022
3707 21 51 1.55478 -3.01743 4.73016
3656 21 22 7.04251 -3.30584 13.2713
3683 21 37 5.55379 0.145907 -2.2258
3678 21 34 -0.62857 -1.23863 19.1731
3705 21 49 -0.509515 8.41211 16.4496
3711 21 55 9.96518 -22.9356 11.9563
3710 21 54 12.4298 -15.3374 17.0281
3717 21 59 13.8575 7.33851 -3.35396
ITEM: TIMESTEP
110000
ITEM: NUMBER OF ATOMS
20
ITEM: BOX BOUNDS pp pp pp
-1.8500415519122068e+01 1.6681395740196631e+01
-2.4111546127343061e+01 1.3884137885255655e+01
-9.1352564550847895e+00 2.0507915281482582e+01
ITEM: ATOMS id type mol x y z
3669 21 29 -13.2037 -11.6057 15.572
3642 21 12 -13.994 5.68293 -0.821318
3651 21 19 -11.9194 9.46093 3.87967
3650 21 18 -16.4639 8.64802 16.314
3709 21 53 -9.81957 13.8569 18.4297
3691 21 41 -2.10734 -13.6913 -0.391171
3716 21 58 -8.49784 -8.41206 5.87858
3674 21 32 -7.03224 -2.87926 17.0433
3715 21 57 -9.3473 -0.79036 17.1533
3697 21 45 6.17997 -13.6027 5.33557
3687 21 39 2.49174 -11.1181 6.5247
3644 21 14 4.68186 -1.32053 1.81482
3707 21 51 1.57115 -3.03167 4.72634
3656 21 22 7.0953 -3.31812 13.3016
3683 21 37 5.5967 0.110181 -2.2574
3678 21 34 -0.626705 -1.26495 19.227
3705 21 49 -0.506859 8.32023 16.4925
3711 21 55 10.0374 -22.8146 11.9813
3710 21 54 12.5183 -15.2679 17.0734
3717 21 59 13.9556 7.25393 -3.39007
ITEM: TIMESTEP
115000
ITEM: NUMBER OF ATOMS
19
ITEM: BOX BOUNDS pp pp pp
-1.8482145247695858e+01 1.6663125468770421e+01
-2.4043569995904026e+01 1.3816161753816619e+01
-9.0677800815280882e+00 2.0440438907909979e+01
ITEM: ATOMS id type mol x y z
3669 21 29 -13.191 -11.5825 15.527
3642 21 12 -13.9804 5.6443 -0.791692
3651 21 19 -11.9079 9.40878 3.8879
3650 21 18 -16.4478 8.59878 16.2657
3709 21 53 -9.81032 13.789 18.3717
3691 21 41 -2.1061 -13.6606 -0.363503
3718 21 60 -1.31082 -1.83898 -1.92064
3716 21 58 -8.48996 -8.40026 5.87771
3674 21 32 -7.02588 -2.88726 16.9916
3687 21 39 2.48821 -11.0966 6.52088
3644 21 14 4.67605 -1.33411 1.83245
3707 21 51 1.56857 -3.03912 4.73071
3656 21 22 7.08699 -3.32455 13.2669
3683 21 37 5.58994 0.0914898 -2.22124
3678 21 34 -0.626998 -1.27872 19.1653
3705 21 49 -0.507278 8.27217 16.4434
3711 21 55 10.026 -22.7512 11.9527
3710 21 54 12.5044 -15.2316 17.0215
3717 21 59 13.9401 7.20967 -3.34875
ITEM: TIMESTEP
120000
ITEM: NUMBER OF ATOMS
21
ITEM: BOX BOUNDS pp pp pp
-1.8454605148330387e+01 1.6635585369404950e+01
-2.4203900054824395e+01 1.3976491812736988e+01
-9.0914598139115519e+00 2.0464118640275217e+01
ITEM: ATOMS id type mol x y z
3669 21 29 -13.1717 -11.6373 15.5428
3642 21 12 -13.96 5.73542 -0.802089
3651 21 19 -11.8907 9.53178 3.88501
3723 21 63 -10.5546 7.32833 5.10442
3650 21 18 -16.4234 8.71492 16.2826
3709 21 53 -9.79637 13.9491 18.392
3691 21 41 -2.10422 -13.733 -0.373213
3718 21 60 -1.31019 -1.81124 -1.93285
3716 21 58 -8.47808 -8.42809 5.87802
3674 21 32 -7.0163 -2.8684 17.0097
3722 21 62 3.55587 -14.2035 -3.32686
3687 21 39 2.48289 -11.1473 6.52222
3644 21 14 4.6673 -1.3021 1.82626
3707 21 51 1.56469 -3.02155 4.72918
3656 21 22 7.07446 -3.30939 13.2791
3683 21 37 5.57976 0.135576 -2.23393
3678 21 34 -0.627441 -1.24624 19.187
3705 21 49 -0.507908 8.38554 16.4606
3711 21 55 10.0089 -22.9006 11.9627
3710 21 54 12.4834 -15.3173 17.0397
3717 21 59 13.9169 7.31405 -3.36325
ITEM: TIMESTEP
125000
ITEM: NUMBER OF ATOMS
21
ITEM: BOX BOUNDS pp pp pp
-1.8464352243762310e+01 1.6645332464836873e+01
-2.4136306067773624e+01 1.3908897825686218e+01
-9.1863605294597406e+00 2.0559019355803130e+01
ITEM: ATOMS id type mol x y z
3669 21 29 -13.1785 -11.6142 15.6061
3642 21 12 -13.9672 5.697 -0.843756
3651 21 19 -11.8968 9.47992 3.87344
3650 21 18 -16.4321 8.66596 16.3507
3709 21 53 -9.8013 13.8816 18.4736
3691 21 41 -2.10488 -13.7025 -0.412126
3718 21 60 -1.31042 -1.82294 -1.98178
3716 21 58 -8.48229 -8.41636 5.87925
3674 21 32 -7.01969 -2.87635 17.0825
3722 21 62 3.55835 -14.1713 -3.38474
3687 21 39 2.48477 -11.1259 6.52759
3644 21 14 4.6704 -1.31559 1.80147
3707 21 51 1.56606 -3.02895 4.72303
3656 21 22 7.07889 -3.31578 13.3278
3683 21 37 5.58336 0.11699 -2.28479
3678 21 34 -0.627284 -1.25993 19.2737
3705 21 49 -0.507685 8.33774 16.5298
3711 21 55 10.0149 -22.8376 12.003
3710 21 54 12.4908 -15.2812 17.1126
3723 21 63 8.44525 -0.514602 -2.71219
3717 21 59 13.9251 7.27004 -3.42136
ITEM: TIMESTEP
130000
ITEM: NUMBER OF ATOMS
22
ITEM: BOX BOUNDS pp pp pp
-1.8497614215455481e+01 1.6678594436530044e+01
-2.4004627390303209e+01 1.3777219148215803e+01
-9.1921658369589743e+00 2.0564824663284366e+01
ITEM: ATOMS id type mol x y z
3669 21 29 -13.2018 -11.5692 15.61
3642 21 12 -13.9919 5.62217 -0.846305
3651 21 19 -11.9176 9.3789 3.87274
3650 21 18 -16.4615 8.57057 16.3548
3709 21 53 -9.81815 13.7501 18.4786
3691 21 41 -2.10715 -13.643 -0.414507
3718 21 60 -1.31118 -1.84572 -1.98477
3716 21 58 -8.49663 -8.3935 5.87932
3674 21 32 -7.03127 -2.89184 17.0869
3722 21 62 3.56681 -14.1086 -3.38829
3687 21 39 2.4912 -11.0843 6.52791
3644 21 14 4.68097 -1.34188 1.79996
3707 21 51 1.57075 -3.04338 4.72266
3656 21 22 7.09403 -3.32823 13.3308
3683 21 37 5.59567 0.0807817 -2.2879
3678 21 34 -0.62675 -1.28661 19.279
3705 21 49 -0.506924 8.24463 16.534
3711 21 55 10.0356 -22.7149 12.0055
3710 21 54 12.5162 -15.2108 17.1171
3723 21 63 8.46297 -0.546438 -2.71547
3724 21 64 10.6085 3.67462 18.3373
3717 21 59 13.9532 7.18432 -3.42492
ITEM: TIMESTEP
135000
ITEM: NUMBER OF ATOMS
22
ITEM: BOX BOUNDS pp pp pp
-1.8460455655980102e+01 1.6641435877054665e+01
-2.4095332013846360e+01 1.3867923771758953e+01
-9.0822040909063126e+00 2.0454862917217124e+01
ITEM: ATOMS id type mol x y z
3669 21 29 -13.1758 -11.6002 15.5367
3642 21 12 -13.9643 5.67372 -0.798025
3651 21 19 -11.8944 9.44849 3.88614
3650 21 18 -16.4286 8.63628 16.276
3709 21 53 -9.79933 13.8407 18.3841
3691 21 41 -2.10462 -13.684 -0.369417
3724 21 64 -1.51998 -16.3539 -1.28659
3718 21 60 -1.31033 -1.83003 -1.92808
3716 21 58 -8.48061 -8.40924 5.8779
3674 21 32 -7.01833 -2.88117 17.0026
3722 21 62 3.55735 -14.1518 -3.32122
3687 21 39 2.48402 -11.113 6.52169
3644 21 14 4.66916 -1.32377 1.82868
3707 21 51 1.56551 -3.03344 4.72978
3656 21 22 7.07712 -3.31966 13.2743
3683 21 37 5.58192 0.105723 -2.22897
3678 21 34 -0.627347 -1.26823 19.1785
3705 21 49 -0.507774 8.30877 16.4539
3711 21 55 10.0125 -22.7994 11.9588
3710 21 54 12.4878 -15.2593 17.0326
3723 21 63 8.44317 -0.524508 -2.65337
3717 21 59 13.9218 7.24337 -3.35758
ITEM: TIMESTEP
140000
ITEM: NUMBER OF ATOMS
20
ITEM: BOX BOUNDS pp pp pp
-1.8581120928316778e+01 1.6762101149391341e+01
-2.3908948433891098e+01 1.3681540191803691e+01
-9.1886227235227409e+00 2.0561281549812374e+01
ITEM: ATOMS id type mol x y z
3669 21 29 -13.2601 -11.5365 15.6076
3642 21 12 -14.0541 5.56779 -0.84475
3651 21 19 -11.9699 9.3055 3.87317
3650 21 18 -16.5353 8.50126 16.3523
3709 21 53 -9.86045 13.6545 18.4756
3691 21 41 -2.11284 -13.5998 -0.413054
3718 21 60 -1.31308 -1.86227 -1.98295
3725 21 65 -7.09844 -7.58052 7.73122
3674 21 32 -7.06033 -2.90309 17.0842
3722 21 62 3.58806 -14.063 -3.38612
3687 21 39 2.50735 -11.054 6.52771
3644 21 14 4.70751 -1.36099 1.80088
3707 21 51 1.58253 -3.05387 4.72288
3656 21 22 7.13203 -3.33727 13.329
3683 21 37 5.62655 0.0544726 -2.286
3678 21 34 -0.625407 -1.30599 19.2757
3705 21 49 -0.505012 8.17697 16.5315
3711 21 55 10.0876 -22.6258 12.004
3710 21 54 12.5799 -15.1596 17.1144
3723 21 63 8.50747 -0.56957 -2.71347
ITEM: TIMESTEP
145000
ITEM: NUMBER OF ATOMS
21
ITEM: BOX BOUNDS pp pp pp
-1.8405002008620624e+01 1.6585982229695187e+01
-2.4090984912484970e+01 1.3863576670397563e+01
-9.2167020639003852e+00 2.0589360890171079e+01
ITEM: ATOMS id type mol x y z
3669 21 29 -13.137 -11.5987 15.6264
3642 21 12 -13.9231 5.67125 -0.857078
3651 21 19 -11.8597 9.44516 3.86975
3650 21 18 -16.3796 8.63313 16.3724
3709 21 53 -9.77124 13.8363 18.4997
3691 21 41 -2.10084 -13.682 -0.424568
3718 21 60 -1.30906 -1.83078 -1.99742
3725 21 65 -7.03676 -7.60441 7.73508
3674 21 32 -6.99903 -2.88168 17.1057
3722 21 62 3.54324 -14.1497 -3.40325
3687 21 39 2.4733 -11.1116 6.5293
3644 21 14 4.65153 -1.32464 1.79355
3707 21 51 1.55769 -3.03392 4.72107
3656 21 22 7.05189 -3.32007 13.3434
3683 21 37 5.56141 0.104528 -2.30105
3678 21 34 -0.628239 -1.26912 19.3014
3705 21 49 -0.509043 8.30569 16.5519
3726 21 66 11.6813 -18.0652 0.211691
3711 21 55 9.97801 -22.7954 12.0159
3710 21 54 12.4455 -15.2569 17.136
3723 21 63 8.41362 -0.525559 -2.72932
ITEM: TIMESTEP
150000
ITEM: NUMBER OF ATOMS
21
ITEM: BOX BOUNDS pp pp pp
-1.8506544635347591e+01 1.6687524856422154e+01
-2.4030062311075000e+01 1.3802654068987593e+01
-9.2076654484126479e+00 2.0580324274665834e+01
ITEM: ATOMS id type mol x y z
3669 21 29 -13.208 -11.5779 15.6203
3642 21 12 -13.9986 5.63662 -0.853111
3651 21 19 -11.9232 9.39842 3.87085
3650 21 18 -16.4694 8.589 16.366
3709 21 53 -9.82268 13.7755 18.4919
3691 21 41 -2.10776 -13.6545 -0.420862
3718 21 60 -1.31138 -1.84132 -1.99276
3725 21 65 -7.07233 -7.59641 7.73384
3674 21 32 -7.03437 -2.88884 17.0988
3722 21 62 3.56908 -14.1207 -3.39774
3687 21 39 2.49293 -11.0923 6.52879
3644 21 14 4.68381 -1.3368 1.79591
3707 21 51 1.57201 -3.0406 4.72165
3656 21 22 7.09809 -3.32582 13.3388
3683 21 37 5.59897 0.0877756 -2.29621
3678 21 34 -0.626606 -1.28146 19.2931
3705 21 49 -0.506719 8.26261 16.5453
3726 21 66 11.7544 -18.0237 0.21501
3711 21 55 10.0412 -22.7386 12.0121
3710 21 54 12.523 -15.2244 17.129
3723 21 63 8.46773 -0.540288 -2.72422
ITEM: TIMESTEP
155000
ITEM: NUMBER OF ATOMS
19
ITEM: BOX BOUNDS pp pp pp
-1.8405669347765624e+01 1.6586649568840187e+01
-2.4029190812610725e+01 1.3801782570523319e+01
-9.2348114587513166e+00 2.0607470284985894e+01
ITEM: ATOMS id type mol x y z
3669 21 29 -13.1375 -11.5776 15.6384
3642 21 12 -13.9236 5.63613 -0.86503
3651 21 19 -11.8601 9.39775 3.86754
3650 21 18 -16.3802 8.58837 16.3854
3709 21 53 -9.77158 13.7746 18.5153
3691 21 41 -2.10089 -13.6541 -0.431993
3718 21 60 -1.30908 -1.84147 -2.00676
3725 21 65 -7.037 -7.5963 7.73757
3674 21 32 -6.99926 -2.88895 17.1196
3722 21 62 3.54341 -14.1203 -3.4143
3687 21 39 2.47343 -11.092 6.53033
3644 21 14 4.65174 -1.33698 1.78882
3707 21 51 1.55778 -3.04069 4.71989
3656 21 22 7.05219 -3.32591 13.3527
3678 21 34 -0.628228 -1.28163 19.3179
3705 21 49 -0.509028 8.262 16.5651
3726 21 66 11.6818 -18.0231 0.205038
3710 21 54 12.446 -15.2239 17.1499
3723 21 63 8.41398 -0.540499 -2.73955
ITEM: TIMESTEP
160000
ITEM: NUMBER OF ATOMS
18
ITEM: BOX BOUNDS pp pp pp
-1.8356842595749441e+01 1.6537822816824004e+01
-2.4316814887146723e+01 1.4089406645059317e+01
-9.1279257539194738e+00 2.0500584580140178e+01
ITEM: ATOMS id type mol x y z
3669 21 29 -13.1034 -11.6758 15.5672
3642 21 12 -13.8872 5.79959 -0.8181
3651 21 19 -11.8295 9.61841 3.88057
3650 21 18 -16.337 8.79672 16.3088
3709 21 53 -9.74685 14.0618 18.4234
3691 21 41 -2.09756 -13.784 -0.388165
3718 21 60 -1.30796 -1.79171 -1.95165
3674 21 32 -6.98227 -2.85512 17.0377
3722 21 62 3.53098 -14.2572 -3.3491
3687 21 39 2.46398 -11.183 6.52428
3644 21 14 4.63622 -1.27955 1.81674
3707 21 51 1.5509 -3.00917 4.72682
3656 21 22 7.02997 -3.29872 13.2978
3678 21 34 -0.629013 -1.22336 19.2203
3705 21 49 -0.510146 8.46539 16.4872
3726 21 66 11.6466 -18.2194 0.244303
3710 21 54 12.4087 -15.3776 17.0678
3723 21 63 8.38796 -0.47096 -2.67919
ITEM: TIMESTEP
165000
ITEM: NUMBER OF ATOMS
18
ITEM: BOX BOUNDS pp pp pp
-1.8501011870887698e+01 1.6681992091962261e+01
-2.3959762652989482e+01 1.3732354410902076e+01
-9.1656983087167490e+00 2.0538357134918002e+01
ITEM: ATOMS id type mol x y z
3669 21 29 -13.2041 -11.5538 15.5923
3642 21 12 -13.9945 5.59667 -0.834684
3651 21 19 -11.9197 9.34448 3.87596
3650 21 18 -16.4645 8.53807 16.3359
3709 21 53 -9.81987 13.7053 18.4559
3691 21 41 -2.10738 -13.6228 -0.403654
3718 21 60 -1.31125 -1.85348 -1.97113
3674 21 32 -7.03245 -2.89711 17.0666
3722 21 62 3.56768 -14.0872 -3.37214
3687 21 39 2.49186 -11.0701 6.52642
3644 21 14 4.68205 -1.35084 1.80687
3707 21 51 1.57123 -3.0483 4.72437
3656 21 22 7.09558 -3.33247 13.3172
3678 21 34 -0.626695 -1.2957 19.2548
3705 21 49 -0.506846 8.2129 16.5147
3726 21 66 11.7504 -17.9757 0.230427
3710 21 54 12.5188 -15.1868 17.0968
3723 21 63 8.46478 -0.557285 -2.70052
ITEM: TIMESTEP
170000
ITEM: NUMBER OF ATOMS
16
ITEM: BOX BOUNDS pp pp pp
-1.8434878060909487e+01 1.6615858281984050e+01
-2.3773978127789466e+01 1.3546569885702059e+01
-9.3806989159963692e+00 2.0753357742171424e+01
ITEM: ATOMS id type mol x y z
3669 21 29 -13.1579 -11.4903 15.7357
3642 21 12 -13.9453 5.49109 -0.929084
3651 21 19 -11.8784 9.20196 3.84976
3650 21 18 -16.406 8.40349 16.49
3691 21 41 -2.10288 -13.5389 -0.491813
3718 21 60 -1.30974 -1.88562 -2.08198
3674 21 32 -7.00943 -2.91896 17.2314
3722 21 62 3.55084 -13.9987 -3.50327
3687 21 39 2.47907 -11.0114 6.53858
3644 21 14 4.66103 -1.38793 1.75071
3656 21 22 7.06548 -3.35003 13.4277
3678 21 34 -0.627758 -1.33334 19.4512
3705 21 49 -0.50836 8.08153 16.6715
3726 21 66 11.7028 -17.8489 0.151446
3710 21 54 12.4683 -15.0875 17.262
3723 21 63 8.42954 -0.602202 -2.82193
ITEM: TIMESTEP
175000
ITEM: NUMBER OF ATOMS
16
ITEM: BOX BOUNDS pp pp pp
-1.8671986499990290e+01 1.6852966721064853e+01
-2.3983992770574833e+01 1.3756584528487426e+01
-9.0796664345712657e+00 2.0452325260740235e+01
ITEM: ATOMS id type mol x y z
3669 21 29 -13.3236 -11.5621 15.535
3642 21 12 -14.1216 5.61044 -0.796911
3651 21 19 -12.0268 9.36307 3.88645
3650 21 18 -16.6156 8.55563 16.2742
3691 21 41 -2.11902 -13.6337 -0.368377
3718 21 60 -1.31516 -1.84929 -1.92677
3674 21 32 -7.09196 -2.89426 17.0007
3722 21 62 3.61119 -14.0987 -3.31967
3687 21 39 2.52492 -11.0778 6.52155
3644 21 14 4.73639 -1.346 1.82934
3656 21 22 7.17338 -3.33018 13.273
3678 21 34 -0.623946 -1.29079 19.1762
3705 21 49 -0.502932 8.23004 16.452
3726 21 66 11.8734 -17.9922 0.262031
3710 21 54 12.6493 -15.1998 17.0307
3723 21 63 8.55589 -0.551427 -2.65194
ITEM: TIMESTEP
180000
ITEM: NUMBER OF ATOMS
16
ITEM: BOX BOUNDS pp pp pp
-1.8574279745035515e+01 1.6755259966110078e+01
-2.4122788243068726e+01 1.3895380000981319e+01
-9.0652172209070514e+00 2.0437876047058818e+01
ITEM: ATOMS id type mol x y z
3669 21 29 -13.2553 -11.6095 15.5253
3642 21 12 -14.049 5.68932 -0.790567
3733 21 69 -18.0997 5.0437 16.4424
3651 21 19 -11.9656 9.46955 3.88821
3650 21 18 -16.5293 8.65617 16.2638
3718 21 60 -1.31293 -1.82528 -1.91932
3674 21 32 -7.05795 -2.87794 16.9896
3722 21 62 3.58632 -14.1648 -3.31086
3687 21 39 2.50603 -11.1216 6.52073
3644 21 14 4.70534 -1.31829 1.83312
3656 21 22 7.12892 -3.31706 13.2656
3678 21 34 -0.625517 -1.26267 19.163
3705 21 49 -0.505169 8.32818 16.4415
3726 21 66 11.8031 -18.0869 0.267339
3710 21 54 12.5747 -15.2739 17.0196
3723 21 63 8.50383 -0.51787 -2.64378
ITEM: TIMESTEP
185000
ITEM: NUMBER OF ATOMS
18
ITEM: BOX BOUNDS pp pp pp
-1.8356077665357549e+01 1.6537057886432112e+01
-2.4340527036267215e+01 1.4113118794179808e+01
-9.1296821004129356e+00 2.0502340926544544e+01
ITEM: ATOMS id type mol x y z
3669 21 29 -13.1028 -11.6839 15.5683
3642 21 12 -13.8867 5.81306 -0.818871
3733 21 69 -17.8874 5.16004 16.4894
3651 21 19 -11.829 9.6366 3.88035
3650 21 18 -16.3363 8.81389 16.31
3738 21 72 -9.45102 -12.5199 4.09234
3718 21 60 -1.30794 -1.78761 -1.95256
3674 21 32 -6.982 -2.85233 17.039
3722 21 62 3.53079 -14.2685 -3.35018
3687 21 39 2.46384 -11.1904 6.52438
3644 21 14 4.63598 -1.27482 1.81628
3656 21 22 7.02962 -3.29648 13.2987
3678 21 34 -0.629025 -1.21856 19.2219
3705 21 49 -0.510163 8.48215 16.4885
3726 21 66 11.6461 -18.2355 0.243657
3737 21 71 12.1217 -15.4944 3.01009
3710 21 54 12.4082 -15.3903 17.0691
3723 21 63 8.38755 -0.465227 -2.68019
ITEM: TIMESTEP
190000
ITEM: NUMBER OF ATOMS
19
ITEM: BOX BOUNDS pp pp pp
-1.8507526327563550e+01 1.6688506548638113e+01
-2.4216634541175882e+01 1.3989226299088475e+01
-9.1094369750204578e+00 2.0482095801135372e+01
ITEM: ATOMS id type mol x y z
3642 21 12 -13.9993 5.74265 -0.809982
3733 21 69 -18.0347 5.09384 16.4747
3651 21 19 -11.9238 9.54155 3.88282
3650 21 18 -16.4702 8.72415 16.2955
3743 21 75 -9.67632 -19.4335 -5.12672
3738 21 72 -9.52516 -12.4722 4.09451
3718 21 60 -1.3114 -1.80904 -1.94212
3674 21 32 -7.03472 -2.8669 17.0235
3722 21 62 3.56933 -14.2095 -3.33783
3687 21 39 2.49312 -11.1513 6.52323
3644 21 14 4.68412 -1.29955 1.82157
3656 21 22 7.09854 -3.30819 13.2883
3742 21 74 1.92434 3.92193 0.793151
3678 21 34 -0.62659 -1.24366 19.2034
3705 21 49 -0.506697 8.39455 16.4737
3726 21 66 11.7551 -18.151 0.251094
3737 21 71 12.2348 -15.4275 3.01375
3710 21 54 12.5238 -15.3241 17.0535
3723 21 63 8.46825 -0.495181 -2.66875
ITEM: TIMESTEP
195000
ITEM: NUMBER OF ATOMS
20
ITEM: BOX BOUNDS pp pp pp
-1.8574148512434860e+01 1.6755128733509423e+01
-2.4183379320638192e+01 1.3955971078550785e+01
-9.0222532323640863e+00 2.0394912058464875e+01
ITEM: ATOMS id type mol x y z
3746 21 78 -18.4579 -12.676 -8.79011
3642 21 12 -14.0489 5.72375 -0.771703
3733 21 69 -18.0996 5.07607 16.4111
3651 21 19 -11.9655 9.51604 3.89345
3650 21 18 -16.5291 8.70006 16.233
3743 21 75 -9.70951 -19.4086 -5.063
3738 21 72 -9.55778 -12.4594 4.10389
3718 21 60 -1.31292 -1.81479 -1.89717
3674 21 32 -7.0579 -2.87081 16.9567
3722 21 62 3.58629 -14.1937 -3.28465
3687 21 39 2.506 -11.1408 6.5183
3644 21 14 4.7053 -1.30619 1.84434
3656 21 22 7.12886 -3.31133 13.2435
3744 21 76 1.69752 3.58624 0.832987
3678 21 34 -0.625519 -1.2504 19.1238
3705 21 49 -0.505172 8.37103 16.4102
3726 21 66 11.803 -18.1283 0.283121
3737 21 71 12.2845 -15.4095 3.0295
3710 21 54 12.5746 -15.3063 16.9866
3723 21 63 8.50376 -0.503221 -2.61952
ITEM: TIMESTEP
200000
ITEM: NUMBER OF ATOMS
20
ITEM: BOX BOUNDS pp pp pp
-1.8532103822772601e+01 1.6713084043847164e+01
-2.4150016331906915e+01 1.3922608089819509e+01
-9.1115977142590978e+00 2.0484256540338084e+01
ITEM: ATOMS id type mol x y z
3746 21 78 -18.4161 -12.6627 -8.87804
3642 21 12 -14.0176 5.70479 -0.810931
3733 21 69 -18.0587 5.05825 16.4762
3651 21 19 -11.9392 9.49044 3.88256
3650 21 18 -16.492 8.67589 16.2971
3743 21 75 -9.68856 -19.3836 -5.1283
3738 21 72 -9.53719 -12.4465 4.09428
3718 21 60 -1.31196 -1.82057 -1.94323
3674 21 32 -7.04327 -2.87474 17.0252
3722 21 62 3.57559 -14.1778 -3.33915
3687 21 39 2.49787 -11.1302 6.52336
3644 21 14 4.69193 -1.31285 1.821
3656 21 22 7.10972 -3.31449 13.2894
3744 21 76 1.69132 3.57102 0.803506
3678 21 34 -0.626195 -1.25716 19.2054
3705 21 49 -0.506134 8.34744 16.4753
3726 21 66 11.7728 -18.1055 0.250301
3737 21 71 12.2531 -15.3915 3.01336
3710 21 54 12.5425 -15.2885 17.0552
3723 21 63 8.48135 -0.511287 -2.66997
ITEM: TIMESTEP
205000
ITEM: NUMBER OF ATOMS
20
ITEM: BOX BOUNDS pp pp pp
-1.8349753844339386e+01 1.6530734065413949e+01
-2.4314859465887576e+01 1.4087451223800169e+01
-9.0929071821197667e+00 2.0465566008182254e+01
ITEM: ATOMS id type mol x y z
3746 21 78 -18.235 -12.7281 -8.85965
3642 21 12 -13.882 5.79848 -0.802724
3733 21 69 -17.8812 5.14633 16.4626
3651 21 19 -11.8251 9.61691 3.88484
3650 21 18 -16.3307 8.7953 16.2837
3743 21 75 -9.59772 -19.5071 -5.11464
3738 21 72 -9.44792 -12.51 4.09629
3718 21 60 -1.3078 -1.79205 -1.9336
3674 21 32 -6.9798 -2.85535 17.0108
3753 21 81 -8.46943 5.87029 11.8506
3722 21 62 3.52918 -14.2563 -3.32775
3687 21 39 2.46261 -11.1823 6.5223
3644 21 14 4.63397 -1.27994 1.82588
3656 21 22 7.02674 -3.29891 13.2798
3678 21 34 -0.629127 -1.22376 19.1883
3705 21 49 -0.510308 8.464 16.4617
3726 21 66 11.6415 -18.218 0.257167
3737 21 71 12.1169 -15.4805 3.01673
3710 21 54 12.4033 -15.3766 17.0408
3723 21 63 8.38418 -0.471433 -2.65942
ITEM: TIMESTEP
210000
ITEM: NUMBER OF ATOMS
19
ITEM: BOX BOUNDS pp pp pp
-1.8710076315279462e+01 1.6891056536354025e+01
-2.3978981009238186e+01 1.3751572767150780e+01
-9.1102399368390898e+00 2.0482898762883085e+01
ITEM: ATOMS id type mol x y z
3746 21 78 -18.5929 -12.5949 -8.87671
3642 21 12 -14.15 5.60759 -0.810334
3733 21 69 -18.2318 4.96685 16.4752
3651 21 19 -12.0506 9.35923 3.88272
3650 21 18 -16.6493 8.552 16.2961
3743 21 75 -9.77722 -19.2553 -5.1273
3738 21 72 -9.62433 -12.3807 4.09443
3718 21 60 -1.31603 -1.85015 -1.94253
3674 21 32 -7.10522 -2.89485 17.0241
3753 21 81 -8.62562 5.67815 11.8578
3687 21 39 2.53228 -11.0762 6.52328
3644 21 14 4.7485 -1.347 1.82136
3656 21 22 7.19071 -3.33065 13.2887
3678 21 34 -0.623334 -1.29181 19.2041
3705 21 49 -0.50206 8.22649 16.4743
3726 21 66 11.9008 -17.9888 0.2508
3737 21 71 12.3861 -15.2992 3.0136
3710 21 54 12.6784 -15.1971 17.0542
3723 21 63 8.57619 -0.552638 -2.66921
ITEM: TIMESTEP
215000
ITEM: NUMBER OF ATOMS
19
ITEM: BOX BOUNDS pp pp pp
-1.8621650196460624e+01 1.6802630417535187e+01
-2.4179898798493273e+01 1.3952490556405866e+01
-9.0970599179540379e+00 2.0469718743981041e+01
ITEM: ATOMS id type mol x y z
3746 21 78 -18.5051 -12.6746 -8.86373
3642 21 12 -14.0842 5.72178 -0.804548
3733 21 69 -18.1458 5.07421 16.4656
3651 21 19 -11.9953 9.51337 3.88433
3650 21 18 -16.5711 8.69754 16.2866
3743 21 75 -9.73317 -19.406 -5.11767
3738 21 72 -9.58103 -12.4581 4.09585
3718 21 60 -1.31401 -1.8154 -1.93574
3674 21 32 -7.07444 -2.87122 17.014
3753 21 81 -8.58729 5.79308 11.8523
3687 21 39 2.51519 -11.1397 6.52253
3644 21 14 4.72039 -1.30689 1.8248
3656 21 22 7.15047 -3.31166 13.2819
3678 21 34 -0.624756 -1.2511 19.1921
3705 21 49 -0.504084 8.36857 16.4647
3726 21 66 11.8372 -18.1259 0.255641
3737 21 71 12.32 -15.4076 3.01598
3710 21 54 12.6109 -15.3045 17.044
3723 21 63 8.52907 -0.504062 -2.66176
ITEM: TIMESTEP
220000
ITEM: NUMBER OF ATOMS
20
ITEM: BOX BOUNDS pp pp pp
-1.8512023738741689e+01 1.6693003959816252e+01
-2.4349931788509256e+01 1.4122523546421849e+01
-9.0905183333745789e+00 2.0463177159384070e+01
ITEM: ATOMS id type mol x y z
3746 21 78 -18.3962 -12.742 -8.8573
3642 21 12 -14.0027 5.81841 -0.801675
3733 21 69 -18.0391 5.16507 16.4609
3651 21 19 -11.9266 9.64381 3.88513
3650 21 18 -16.4742 8.82071 16.282
3743 21 75 -9.67856 -19.5334 -5.11289
3738 21 72 -9.52736 -12.5236 4.09655
3718 21 60 -1.3115 -1.78598 -1.93236
3674 21 32 -7.03628 -2.85122 17.009
3753 21 81 -8.53977 5.89035 11.8496
3687 21 39 2.49399 -11.1934 6.52216
3644 21 14 4.68555 -1.27294 1.82651
3656 21 22 7.10059 -3.29559 13.2786
3678 21 34 -0.626518 -1.21666 19.1861
3757 21 83 0.199099 4.63868 17.7616
3705 21 49 -0.506594 8.4888 16.4599
3726 21 66 11.7583 -18.242 0.258044
3737 21 71 12.2381 -15.4994 3.01717
3710 21 54 12.5272 -15.3953 17.039
3723 21 63 8.47065 -0.462953 -2.65807
ITEM: TIMESTEP
225000
ITEM: NUMBER OF ATOMS
18
ITEM: BOX BOUNDS pp pp pp
-1.8500992482165000e+01 1.6681972703239563e+01
-2.4033386519546330e+01 1.3805978277458923e+01
-9.2631315388850943e+00 2.0635790364868004e+01
ITEM: ATOMS id type mol x y z
3642 21 12 -13.9945 5.63851 -0.877464
3733 21 69 -18.0284 4.99593 16.5867
3651 21 19 -11.9197 9.40097 3.86409
3650 21 18 -16.4644 8.59141 16.4057
3718 21 60 -1.31125 -1.84074 -2.02136
3674 21 32 -7.03244 -2.88845 17.1413
3753 21 81 -8.53499 5.70927 11.9216
3687 21 39 2.49186 -11.0934 6.53193
3644 21 14 4.68204 -1.33614 1.78142
3656 21 22 7.09557 -3.32551 13.3673
3758 21 84 6.00302 -0.0687811 -0.630652
3678 21 34 -0.626695 -1.28078 19.3438
3757 21 83 0.198404 4.4782 17.9027
3705 21 49 -0.506846 8.26497 16.5858
3726 21 66 11.7504 -18.0259 0.194635
3737 21 71 12.2299 -15.3285 2.98599
3710 21 54 12.5188 -15.2262 17.1716
3723 21 63 8.46477 -0.539485 -2.75554
ITEM: TIMESTEP
230000
ITEM: NUMBER OF ATOMS
18
ITEM: BOX BOUNDS pp pp pp
-1.8527176046722218e+01 1.6708156267796781e+01
-2.4138391091973169e+01 1.3910982849885762e+01
-9.0992269504112642e+00 2.0471885776384756e+01
ITEM: ATOMS id type mol x y z
3642 21 12 -14.0139 5.69819 -0.805499
3733 21 69 -18.0539 5.05203 16.4672
3651 21 19 -11.9361 9.48152 3.88407
3650 21 18 -16.4876 8.66747 16.2882
3718 21 60 -1.31185 -1.82258 -1.93685
3674 21 32 -7.04155 -2.8761 17.0157
3753 21 81 -8.54634 5.76934 11.8532
3687 21 39 2.49692 -11.1266 6.52266
3644 21 14 4.69036 -1.31517 1.82423
3656 21 22 7.10748 -3.31559 13.2831
3758 21 84 6.01331 -0.0407816 -0.561393
3678 21 34 -0.626274 -1.25951 19.1941
3757 21 83 0.200053 4.53144 17.7688
3705 21 49 -0.506247 8.33922 16.4663
3726 21 66 11.7692 -18.0976 0.254845
3737 21 71 12.2495 -15.3852 3.01559
3710 21 54 12.5388 -15.2823 17.0457
3723 21 63 8.47873 -0.514098 -2.66299
ITEM: TIMESTEP
235000
ITEM: NUMBER OF ATOMS
17
ITEM: BOX BOUNDS pp pp pp
-1.8357384623988214e+01 1.6538364845062777e+01
-2.4269834238774095e+01 1.4042425996686688e+01
-9.1159104071785464e+00 2.0488569233133394e+01
ITEM: ATOMS id type mol x y z
3642 21 12 -13.8876 5.77289 -0.812824
3733 21 69 -17.8886 5.12227 16.4794
3651 21 19 -11.8299 9.58236 3.88203
3650 21 18 -16.3375 8.76268 16.3002
3718 21 60 -1.30797 -1.79984 -1.94546
3674 21 32 -6.98246 -2.86064 17.0285
3753 21 81 -8.47274 5.84453 11.8602
3687 21 39 2.46409 -11.1681 6.5236
3762 21 86 2.00357 -3.61605 5.67258
3644 21 14 4.6364 -1.28893 1.81988
3656 21 22 7.03022 -3.30316 13.2916
3758 21 84 5.94659 -0.0057324 -0.568442
3678 21 34 -0.629004 -1.23288 19.2093
3726 21 66 11.647 -18.1873 0.248716
3737 21 71 12.1226 -15.4562 3.01258
3710 21 54 12.4092 -15.3525 17.0585
3723 21 63 8.38825 -0.482319 -2.67241
ITEM: TIMESTEP
240000
ITEM: NUMBER OF ATOMS
17
ITEM: BOX BOUNDS pp pp pp
-1.8442741723918491e+01 1.6623721944993054e+01
-2.4100887033609308e+01 1.3873478791521901e+01
-9.1592529635855264e+00 2.0531911789520013e+01
ITEM: ATOMS id type mol x y z
3642 21 12 -13.9511 5.67687 -0.831854
3733 21 69 -17.9717 5.03199 16.511
3651 21 19 -11.8833 9.45275 3.87675
3650 21 18 -16.4129 8.6403 16.3312
3718 21 60 -1.30992 -1.82906 -1.9678
3674 21 32 -7.01217 -2.88051 17.0617
3753 21 81 -8.50974 5.74788 11.8783
3687 21 39 2.48059 -11.1147 6.52605
3762 21 86 2.01782 -3.62925 5.67254
3644 21 14 4.66353 -1.32266 1.80855
3656 21 22 7.06906 -3.31913 13.3139
3758 21 84 5.98013 -0.0507821 -0.586757
3678 21 34 -0.627632 -1.26711 19.2489
3726 21 66 11.7084 -18.072 0.232795
3737 21 71 12.1864 -15.365 3.00475
3710 21 54 12.4743 -15.2622 17.0918
3723 21 63 8.43373 -0.523165 -2.69688
ITEM: TIMESTEP
245000
ITEM: NUMBER OF ATOMS
16
ITEM: BOX BOUNDS pp pp pp
-1.8608540415192678e+01 1.6789520636267241e+01
-2.3870078025519344e+01 1.3642669783431938e+01
-9.1503766133539379e+00 2.0523035439271229e+01
ITEM: ATOMS id type mol x y z
3768 21 90 -16.0385 -15.09 14.2105
3642 21 12 -14.0745 5.5457 -0.827957
3651 21 19 -11.9871 9.27568 3.87783
3650 21 18 -16.5595 8.47311 16.3249
3718 21 60 -1.31371 -1.86899 -1.96323
3674 21 32 -7.06987 -2.90766 17.0549
3753 21 81 -8.58161 5.61585 11.8746
3687 21 39 2.51265 -11.0418 6.52555
3762 21 86 2.0455 -3.6473 5.67254
3644 21 14 4.71623 -1.36875 1.81087
3656 21 22 7.14451 -3.34095 13.3093
3758 21 84 6.04528 -0.112327 -0.583006
3726 21 66 11.8278 -17.9145 0.236055
3737 21 71 12.3102 -15.2404 3.00635
3723 21 63 8.52208 -0.578968 -2.69187
3767 21 89 14.285 8.03414 -3.65824
ITEM: TIMESTEP
250000
ITEM: NUMBER OF ATOMS
15
ITEM: BOX BOUNDS pp pp pp
-1.8584352426443623e+01 1.6765332647518186e+01
-2.4148259996321141e+01 1.3920851754233734e+01
-9.0697381753932227e+00 2.0442397001297490e+01
ITEM: ATOMS id type mol x y z
3768 21 90 -16.0179 -15.2379 14.1641
3642 21 12 -14.0565 5.7038 -0.792552
3651 21 19 -11.9719 9.48909 3.88766
3650 21 18 -16.5382 8.67462 16.2671
3718 21 60 -1.31316 -1.82087 -1.92165
3674 21 32 -7.06146 -2.87494 16.9931
3753 21 81 -8.57113 5.77498 11.8409
3687 21 39 2.50797 -11.1297 6.52099
3762 21 86 2.04146 -3.62555 5.67262
3644 21 14 4.70854 -1.3132 1.83194
3656 21 22 7.1335 -3.31465 13.2679
3726 21 66 11.8104 -18.1043 0.265678
3737 21 71 12.2922 -15.3906 3.02092
3723 21 63 8.50919 -0.511712 -2.64634
3767 21 89 14.2642 8.22914 -3.60745
ITEM: TIMESTEP
255000
ITEM: NUMBER OF ATOMS
15
ITEM: BOX BOUNDS pp pp pp
-1.8412094935045793e+01 1.6593075156120356e+01
-2.4203039989962448e+01 1.3975631747875042e+01
-9.1866855269818544e+00 2.0559344352861665e+01
ITEM: ATOMS id type mol x y z
3768 21 90 -15.8706 -15.2671 14.2313
3642 21 12 -13.9283 5.73493 -0.843899
3650 21 18 -16.3858 8.7143 16.3509
3718 21 60 -1.30922 -1.81139 -1.98195
3674 21 32 -7.0015 -2.8685 17.0827
3753 21 81 -8.49646 5.80632 11.8897
3687 21 39 2.47467 -11.147 6.5276
3762 21 86 2.0127 -3.62127 5.67251
3644 21 14 4.65379 -1.30227 1.80139
3656 21 22 7.05511 -3.30948 13.328
3726 21 66 11.6864 -18.1417 0.222717
3737 21 71 12.1635 -15.4201 2.99979
3772 21 92 12.068 -9.00824 -7.76558
3723 21 63 8.4174 -0.498468 -2.71237
3767 21 89 14.1163 8.26754 -3.68111
ITEM: TIMESTEP
260000
ITEM: NUMBER OF ATOMS
16
ITEM: BOX BOUNDS pp pp pp
-1.8291391999344786e+01 1.6472372220419349e+01
-2.4242121397005956e+01 1.4014713154918550e+01
-9.2373921379346200e+00 2.0610050963793611e+01
ITEM: ATOMS id type mol x y z
3768 21 90 -15.7674 -15.2879 14.2605
3642 21 12 -13.8386 5.75714 -0.866163
3650 21 18 -16.2791 8.74261 16.3873
3718 21 60 -1.30647 -1.80463 -2.00809
3773 21 93 -5.6877 -8.04816 0.790369
3674 21 32 -6.95949 -2.8639 17.1216
3753 21 81 -8.44414 5.82868 11.9108
3687 21 39 2.45133 -11.1593 6.53047
3762 21 86 1.99255 -3.61821 5.67246
3644 21 14 4.61542 -1.29446 1.78814
3656 21 22 7.00019 -3.30578 13.354
3726 21 66 11.5995 -18.1684 0.20409
3737 21 71 12.0733 -15.4412 2.99064
3772 21 92 11.9785 -9.01622 -7.81144
3723 21 63 8.35308 -0.489019 -2.74101
3767 21 89 14.0127 8.29493 -3.71304
ITEM: TIMESTEP
265000
ITEM: NUMBER OF ATOMS
16
ITEM: BOX BOUNDS pp pp pp
-1.8509350449850114e+01 1.6690330670924677e+01
-2.4216027311081866e+01 1.3988619068994460e+01
-9.0440745725971468e+00 2.0416733398450265e+01
ITEM: ATOMS id type mol x y z
3768 21 90 -15.9538 -15.274 14.1494
3642 21 12 -14.0007 5.74231 -0.781284
3650 21 18 -16.4718 8.72371 16.2487
3718 21 60 -1.31144 -1.80915 -1.90842
3773 21 93 -5.74761 -8.04415 0.85379
3674 21 32 -7.03535 -2.86697 16.9734
3753 21 81 -8.53862 5.81375 11.8302
3687 21 39 2.49347 -11.1511 6.51954
3762 21 86 2.02894 -3.62025 5.67264
3644 21 14 4.6847 -1.29967 1.83864
3656 21 22 7.09937 -3.30825 13.2547
3726 21 66 11.7564 -18.1506 0.275105
3737 21 71 12.2361 -15.4271 3.02555
3772 21 92 12.1401 -9.01089 -7.6366
3723 21 63 8.46923 -0.495328 -2.63184
3767 21 89 14.1998 8.27664 -3.59129
ITEM: TIMESTEP
270000
ITEM: NUMBER OF ATOMS
16
ITEM: BOX BOUNDS pp pp pp
-1.8455727529311460e+01 1.6636707750386023e+01
-2.4045305425417620e+01 1.3817897183330214e+01
-9.1241606048208936e+00 2.0496819430651197e+01
ITEM: ATOMS id type mol x y z
3768 21 90 -15.9079 -15.1832 14.1954
3642 21 12 -13.9608 5.64529 -0.816447
3650 21 18 -16.4244 8.60004 16.3061
3718 21 60 -1.31022 -1.83868 -1.94971
3773 21 93 -5.73287 -8.01796 0.827516
3674 21 32 -7.01669 -2.88705 17.0348
3753 21 81 -8.51537 5.71609 11.8636
3687 21 39 2.4831 -11.0971 6.52407
3762 21 86 2.01999 -3.6336 5.67257
3644 21 14 4.66765 -1.33376 1.81772
3656 21 22 7.07497 -3.32438 13.2959
3726 21 66 11.7178 -18.0341 0.245686
3737 21 71 12.1961 -15.335 3.01109
3772 21 92 12.1004 -8.97606 -7.70903
3723 21 63 8.44065 -0.536603 -2.67707
3767 21 89 14.1538 8.15697 -3.64173
ITEM: TIMESTEP
275000
ITEM: NUMBER OF ATOMS
17
ITEM: BOX BOUNDS pp pp pp
-1.8485866146588432e+01 1.6666846367662995e+01
-2.4213916893935163e+01 1.3986508651847757e+01
-9.1459367129464546e+00 2.0518595538757349e+01
ITEM: ATOMS id type mol x y z
3768 21 90 -15.9337 -15.2729 14.2079
3642 21 12 -13.9832 5.74111 -0.826008
3650 21 18 -16.4511 8.72218 16.3217
3718 21 60 -1.31091 -1.80951 -1.96094
3773 21 93 -5.74116 -8.04383 0.820372
3674 21 32 -7.02718 -2.86722 17.0515
3753 21 81 -8.52844 5.81254 11.8727
3774 21 94 -2.13227 9.51529 14.6882
3687 21 39 2.48893 -11.1504 6.5253
3762 21 86 2.02502 -3.62042 5.67255
3644 21 14 4.67723 -1.3001 1.81203
3656 21 22 7.08868 -3.30845 13.3071
3726 21 66 11.7395 -18.1491 0.237686
3737 21 71 12.2186 -15.426 3.00715
3772 21 92 12.1227 -9.01046 -7.72873
3723 21 63 8.45671 -0.495838 -2.68936
3767 21 89 14.1797 8.27516 -3.65544
ITEM: TIMESTEP
280000
ITEM: NUMBER OF ATOMS
18
ITEM: BOX BOUNDS pp pp pp
-1.8452867064385632e+01 1.6633847285460195e+01
-2.4080510665285711e+01 1.3853102423198305e+01
-9.2357101266440758e+00 2.0608368952431256e+01
ITEM: ATOMS id type mol x y z
3768 21 90 -15.9055 -15.2019 14.2595
3642 21 12 -13.9587 5.66529 -0.865424
3650 21 18 -16.4219 8.62554 16.3861
3718 21 60 -1.31015 -1.83259 -2.00722
3773 21 93 -5.73208 -8.02336 0.790921
3674 21 32 -7.01569 -2.88291 17.1203
3775 21 95 -5.63758 2.25542 5.41085
3753 21 81 -8.51413 5.73623 11.9101
3774 21 94 -2.12997 9.41311 14.7427
3687 21 39 2.48255 -11.1083 6.53038
3762 21 86 2.01951 -3.63085 5.67246
3644 21 14 4.66675 -1.32673 1.78858
3656 21 22 7.07367 -3.32106 13.3532
3726 21 66 11.7157 -18.0581 0.204708
3737 21 71 12.1939 -15.354 2.99094
3772 21 92 12.0983 -8.98324 -7.80992
3723 21 63 8.43913 -0.528091 -2.74006
3767 21 89 14.1513 8.18165 -3.71198
ITEM: TIMESTEP
285000
ITEM: NUMBER OF ATOMS
19
ITEM: BOX BOUNDS pp pp pp
-1.8599123927378141e+01 1.6780104148452704e+01
-2.4347808828986999e+01 1.4120400586899592e+01
-8.9822930563029928e+00 2.0354951882089029e+01
ITEM: ATOMS id type mol x y z
3768 21 90 -16.0305 -15.3441 14.1139
3642 21 12 -14.0675 5.8172 -0.754157
3650 21 18 -16.5512 8.81917 16.2044
3777 21 97 -5.38353 -20.354 18.4464
3718 21 60 -1.31349 -1.78635 -1.87657
3773 21 93 -5.77229 -8.06437 0.874058
3674 21 32 -7.0666 -2.85147 16.9261
3775 21 95 -5.67699 2.35927 5.41553
3753 21 81 -8.57753 5.88913 11.8044
3774 21 94 -2.14015 9.61784 14.5889
3776 21 96 1.1826 -10.3632 19.6889
3687 21 39 2.51083 -11.1927 6.51604
3762 21 86 2.04393 -3.60995 5.6727
3644 21 14 4.71323 -1.27336 1.85478
3726 21 66 11.821 -18.2405 0.297801
3737 21 71 12.3032 -15.4983 3.03671
3772 21 92 12.2067 -9.03778 -7.58072
3723 21 63 8.51707 -0.463467 -2.59696
3767 21 89 14.2769 8.36902 -3.55238
ITEM: TIMESTEP
290000
ITEM: NUMBER OF ATOMS
20
ITEM: BOX BOUNDS pp pp pp
-1.8444133605537104e+01 1.6625113826611667e+01
-2.4239223733781781e+01 1.4011815491694374e+01
-9.1007587064617432e+00 2.0473417532222161e+01
ITEM: ATOMS id type mol x y z
3768 21 90 -15.898 -15.2863 14.182
3642 21 12 -13.9522 5.75549 -0.806172
3650 21 18 -16.4142 8.74051 16.2893
3777 21 97 -5.34433 -20.2679 18.5494
3718 21 60 -1.30995 -1.80513 -1.93764
3773 21 93 -5.72968 -8.04771 0.835193
3674 21 32 -7.01265 -2.86424 17.0169
3775 21 95 -5.63522 2.31709 5.41334
3753 21 81 -8.51035 5.82702 11.8539
3774 21 94 -2.12936 9.53467 14.6608
3776 21 96 1.16427 -10.3335 19.802
3687 21 39 2.48086 -11.1584 6.52274
3762 21 86 2.01805 -3.61844 5.67259
3644 21 14 4.66397 -1.29504 1.82383
3778 21 98 6.68389 0.65074 0.373452
3726 21 66 11.7094 -18.1664 0.254282
3737 21 71 12.1874 -15.4397 3.01532
3772 21 92 12.0918 -9.01562 -7.68787
3723 21 63 8.43447 -0.489719 -2.66385
3767 21 89 14.1439 8.2929 -3.62699
ITEM: TIMESTEP
295000
ITEM: NUMBER OF ATOMS
21
ITEM: BOX BOUNDS pp pp pp
-1.8445872865250521e+01 1.6626853086325085e+01
-2.4099035563154018e+01 1.3871627321066612e+01
-9.1390303501319039e+00 2.0511689175871695e+01
ITEM: ATOMS id type mol x y z
3768 21 90 -15.8995 -15.2118 14.2039
3642 21 12 -13.9535 5.67582 -0.822975
3650 21 18 -16.4157 8.63896 16.3167
3777 21 97 -5.34477 -20.1568 18.5827
3718 21 60 -1.30999 -1.82938 -1.95738
3773 21 93 -5.73016 -8.02621 0.822638
3674 21 32 -7.01326 -2.88073 17.0462
3775 21 95 -5.63569 2.26262 5.41263
3753 21 81 -8.5111 5.74682 11.8698
3774 21 94 -2.12948 9.4273 14.684
3779 21 99 2.96079 -17.7874 12.8233
3776 21 96 1.16448 -10.2953 19.8385
3687 21 39 2.4812 -11.1141 6.52491
3762 21 86 2.01834 -3.6294 5.67255
3644 21 14 4.66452 -1.32303 1.81384
3778 21 98 6.68464 0.608487 0.359701
3726 21 66 11.7107 -18.0707 0.240223
3737 21 71 12.1887 -15.364 3.0084
3772 21 92 12.0931 -8.98702 -7.72248
3723 21 63 8.4354 -0.523613 -2.68546
3767 21 89 14.1453 8.19463 -3.65109
ITEM: TIMESTEP
300000
ITEM: NUMBER OF ATOMS
20
ITEM: BOX BOUNDS pp pp pp
-1.8429889508995352e+01 1.6610869730069915e+01
-2.4217760259437586e+01 1.3990352017350180e+01
-9.2069106191882035e+00 2.0579569444905545e+01
ITEM: ATOMS id type mol x y z
3768 21 90 -15.8858 -15.2749 14.2429
3642 21 12 -13.9416 5.74329 -0.852779
3650 21 18 -16.4016 8.72496 16.3654
3718 21 60 -1.30963 -1.80885 -1.99237
3773 21 93 -5.72577 -8.04442 0.800369
3674 21 32 -7.00769 -2.86677 17.0982
3775 21 95 -5.63138 2.30875 5.41138
3753 21 81 -8.50417 5.81474 11.8981
3774 21 94 -2.12837 9.51824 14.7252
3779 21 99 2.95727 -17.8666 12.856
3776 21 96 1.16259 -10.3277 19.9033
3687 21 39 2.47811 -11.1516 6.52875
3762 21 86 2.01567 -3.62012 5.67249
3644 21 14 4.65944 -1.29933 1.79611
3778 21 98 6.67772 0.644271 0.335313
3726 21 66 11.6992 -18.1518 0.215287
3737 21 71 12.1768 -15.4281 2.99614
3772 21 92 12.0812 -9.01125 -7.78388
3723 21 63 8.42688 -0.494909 -2.7238
3767 21 89 14.1316 8.27786 -3.69385
ITEM: TIMESTEP
305000
ITEM: NUMBER OF ATOMS
21
ITEM: BOX BOUNDS pp pp pp
-1.8506707599000052e+01 1.6687687820074615e+01
-2.4268795027713402e+01 1.4041386785625996e+01
-9.1048131650751110e+00 2.0477471990781801e+01
ITEM: ATOMS id type mol x y z
3768 21 90 -15.9515 -15.302 14.1843
3642 21 12 -13.9987 5.7723 -0.807952
3650 21 18 -16.4695 8.76193 16.2922
3780 21 100 -9.14009 -24.0412 16.5539
3718 21 60 -1.31138 -1.80002 -1.93973
3773 21 93 -5.74688 -8.05225 0.833863
3674 21 32 -7.03443 -2.86077 17.02
3775 21 95 -5.65209 2.32858 5.41326
3753 21 81 -8.53747 5.84393 11.8555
3774 21 94 -2.13372 9.55732 14.6632
3779 21 99 2.97422 -17.9007 12.8068
3776 21 96 1.17167 -10.3416 19.8058
3687 21 39 2.49296 -11.1678 6.52297
3762 21 86 2.0285 -3.61613 5.67259
3644 21 14 4.68386 -1.28914 1.82277
3778 21 98 6.71099 0.659653 0.371995
3726 21 66 11.7545 -18.1866 0.252793
3737 21 71 12.2342 -15.4556 3.01458
3772 21 92 12.1382 -9.02166 -7.69153
3723 21 63 8.46782 -0.48257 -2.66614
3767 21 89 14.1976 8.31363 -3.62954
ITEM: TIMESTEP
310000
ITEM: NUMBER OF ATOMS
21
ITEM: BOX BOUNDS pp pp pp
-1.8683111628463479e+01 1.6864091849538042e+01
-2.3949251328940118e+01 1.3721843086852711e+01
-9.2071418929838806e+00 2.0579800718665503e+01
ITEM: ATOMS id type mol x y z
3768 21 90 -16.1023 -15.1321 14.2431
3642 21 12 -14.1299 5.5907 -0.852881
3650 21 18 -16.6255 8.53046 16.3656
3780 21 100 -9.2226 -23.7254 16.6291
3718 21 60 -1.31541 -1.8553 -1.99249
3773 21 93 -5.79538 -8.00323 0.800293
3674 21 32 -7.09583 -2.89835 17.0984
3775 21 95 -5.69963 2.20442 5.41138
3753 21 81 -8.61394 5.66114 11.8982
3774 21 94 -2.14599 9.31258 14.7253
3779 21 99 3.01315 -17.6874 12.8561
3776 21 96 1.19254 -10.2544 19.9035
3687 21 39 2.52707 -11.0668 6.52876
3762 21 86 2.05795 -3.64111 5.67249
3644 21 14 4.73993 -1.35294 1.79605
3778 21 98 6.78738 0.563342 0.33523
3726 21 66 11.8814 -17.9685 0.215203
3737 21 71 12.3659 -15.2831 2.9961
3772 21 92 12.269 -8.95647 -7.78408
3723 21 63 8.56182 -0.559826 -2.72393
3767 21 89 14.349 8.08964 -3.69399
ITEM: TIMESTEP
315000
ITEM: NUMBER OF ATOMS
20
ITEM: BOX BOUNDS pp pp pp
-1.8629101339573332e+01 1.6810081560647895e+01
-2.4225166558381613e+01 1.3997758316294206e+01
-8.9778840201032573e+00 2.0350542845783508e+01
ITEM: ATOMS id type mol x y z
3768 21 90 -16.0561 -15.2788 14.1114
3642 21 12 -14.0897 5.7475 -0.752222
3650 21 18 -16.5777 8.73033 16.2012
3718 21 60 -1.31418 -1.80757 -1.87429
3773 21 93 -5.78053 -8.04556 0.875504
3674 21 32 -7.07703 -2.8659 16.9227
3775 21 95 -5.68507 2.31162 5.41561
3753 21 81 -8.59052 5.81898 11.8026
3774 21 94 -2.14223 9.52391 14.5862
3779 21 99 3.00123 -17.8716 12.7457
3776 21 96 1.18615 -10.3297 19.6847
3687 21 39 2.51663 -11.154 6.51579
3762 21 86 2.04893 -3.61954 5.6727
3644 21 14 4.72276 -1.29785 1.85593
3778 21 98 6.76399 0.646503 0.4176
3726 21 66 11.8426 -18.1568 0.299421
3737 21 71 12.3256 -15.4321 3.03751
3772 21 92 12.2289 -9.01276 -7.57673
3723 21 63 8.53304 -0.493118 -2.59447
3767 21 89 14.3026 8.28305 -3.5496
ITEM: TIMESTEP
320000
ITEM: NUMBER OF ATOMS
22
ITEM: BOX BOUNDS pp pp pp
-1.8649242494061827e+01 1.6830222715136390e+01
-2.4050994679647729e+01 1.3823586437560323e+01
-9.0503213688034947e+00 2.0422980194460568e+01
ITEM: ATOMS id type mol x y z
3768 21 90 -16.0733 -15.1862 14.153
3642 21 12 -14.1047 5.64852 -0.784026
3650 21 18 -16.5955 8.60416 16.2531
3718 21 60 -1.31464 -1.8377 -1.91164
3773 21 93 -5.78607 -8.01884 0.85174
3674 21 32 -7.08404 -2.88638 16.9782
3775 21 95 -5.6905 2.24395 5.41427
3753 21 81 -8.59925 5.71934 11.8328
3774 21 94 -2.14363 9.39051 14.6302
3779 21 99 3.00568 -17.7553 12.7806
3776 21 96 1.18853 -10.2822 19.7538
3687 21 39 2.52052 -11.0989 6.51989
3762 21 86 2.0523 -3.63316 5.67264
3644 21 14 4.72916 -1.33262 1.83701
3782 21 102 6.58466 -2.54419 12.528
3726 21 66 11.8571 -18.0379 0.272811
3737 21 71 12.3406 -15.338 3.02443
3772 21 92 12.2439 -8.97722 -7.64225
3780 21 100 16.6134 -13.4876 6.58883
3723 21 63 8.54377 -0.535228 -2.63537
3767 21 89 14.3199 8.16096 -3.59522
3781 21 101 9.83222 12.7231 10.0757
ITEM: TIMESTEP
325000
ITEM: NUMBER OF ATOMS
20
ITEM: BOX BOUNDS pp pp pp
-1.8586360835305761e+01 1.6767341056380324e+01
-2.4088931677531654e+01 1.3861523435444248e+01
-9.1058995801706537e+00 2.0478558405805700e+01
ITEM: ATOMS id type mol x y z
3768 21 90 -16.0196 -15.2064 14.1849
3642 21 12 -14.058 5.67008 -0.808429
3650 21 18 -16.5399 8.63164 16.293
3718 21 60 -1.3132 -1.83113 -1.94029
3773 21 93 -5.76878 -8.02466 0.833507
3674 21 32 -7.06215 -2.88192 17.0208
3775 21 95 -5.67355 2.25869 5.41324
3753 21 81 -8.572 5.74104 11.856
3774 21 94 -2.13926 9.41956 14.6639
3779 21 99 2.9918 -17.7806 12.8073
3776 21 96 1.18109 -10.2925 19.8069
3687 21 39 2.50836 -11.1109 6.52303
3762 21 86 2.0418 -3.63019 5.67258
3644 21 14 4.70918 -1.32505 1.82249
3782 21 102 6.5581 -2.53904 12.5538
3726 21 66 11.8118 -18.0638 0.252394
3737 21 71 12.2937 -15.3585 3.01439
3772 21 92 12.1972 -8.98496 -7.69252
3780 21 100 16.5513 -13.5044 6.59223
3723 21 63 8.51026 -0.526056 -2.66676
ITEM: TIMESTEP
330000
ITEM: NUMBER OF ATOMS
18
ITEM: BOX BOUNDS pp pp pp
-1.8549409853856858e+01 1.6730390074931421e+01
-2.4321407878118887e+01 1.4093999636031480e+01
-9.1126319512056462e+00 2.0485290776822488e+01
ITEM: ATOMS id type mol x y z
3768 21 90 -15.988 -15.33 14.1888
3642 21 12 -14.0305 5.8022 -0.811385
3650 21 18 -16.5073 8.80004 16.2978
3718 21 60 -1.31236 -1.79092 -1.94377
3674 21 32 -7.04929 -2.85458 17.026
3775 21 95 -5.66359 2.34902 5.41312
3753 21 81 -8.55598 5.87403 11.8588
3774 21 94 -2.13669 9.59762 14.668
3776 21 96 1.17672 -10.356 19.8133
3687 21 39 2.50122 -11.1844 6.52342
3762 21 86 2.03563 -3.61201 5.67258
3644 21 14 4.69743 -1.27863 1.82073
3782 21 102 6.54249 -2.5075 12.5569
3726 21 66 11.7852 -18.2225 0.249921
3737 21 71 12.2661 -15.484 3.01317
3772 21 92 12.1699 -9.03239 -7.69861
3780 21 100 16.5148 -13.6072 6.59265
3723 21 63 8.49057 -0.46985 -2.67056
ITEM: TIMESTEP
335000
ITEM: NUMBER OF ATOMS
18
ITEM: BOX BOUNDS pp pp pp
-1.8391253921140152e+01 1.6572234142214715e+01
-2.4225104368784663e+01 1.3997696126697257e+01
-9.2621985620133707e+00 2.0634857387600718e+01
ITEM: ATOMS id type mol x y z
3768 21 90 -15.8528 -15.2788 14.2747
3642 21 12 -13.9128 5.74747 -0.877054
3650 21 18 -16.3674 8.73028 16.4051
3718 21 60 -1.30875 -1.80758 -2.02088
3674 21 32 -6.99425 -2.8659 17.1406
3775 21 95 -5.62097 2.3116 5.41036
3753 21 81 -8.48742 5.81894 11.9212
3774 21 94 -2.12568 9.52386 14.7588
3776 21 96 1.15802 -10.3297 19.9561
3687 21 39 2.47064 -11.154 6.53188
3762 21 86 2.00922 -3.61954 5.67244
3644 21 14 4.64716 -1.29786 1.78166
3782 21 102 6.47567 -2.52057 12.6264
3726 21 66 11.6714 -18.1568 0.194977
3737 21 71 12.1479 -15.432 2.98615
3772 21 92 12.0526 -9.01274 -7.83388
3780 21 100 16.3585 -13.5646 6.60181
3723 21 63 8.40629 -0.493133 -2.75502
ITEM: TIMESTEP
340000
ITEM: NUMBER OF ATOMS
18
ITEM: BOX BOUNDS pp pp pp
-1.8418880124648247e+01 1.6599860345722810e+01
-2.4039728290177440e+01 1.3812320048090033e+01
-9.2994430448299568e+00 2.0672101870396258e+01
ITEM: ATOMS id type mol x y z
3768 21 90 -15.8764 -15.1802 14.2961
3642 21 12 -13.9334 5.64212 -0.893407
3650 21 18 -16.3918 8.596 16.4318
3718 21 60 -1.30938 -1.83964 -2.04008
3674 21 32 -7.00386 -2.88771 17.1691
3775 21 95 -5.62842 2.23958 5.40967
3753 21 81 -8.4994 5.7129 11.9367
3774 21 94 -2.12761 9.38188 14.7814
3776 21 96 1.16128 -10.2791 19.9916
3687 21 39 2.47598 -11.0954 6.53398
3762 21 86 2.01384 -3.63404 5.67241
3644 21 14 4.65594 -1.33487 1.77194
3782 21 102 6.48734 -2.54572 12.6437
3726 21 66 11.6913 -18.0303 0.181296
3737 21 71 12.1686 -15.332 2.97943
3772 21 92 12.0731 -8.97492 -7.86757
3780 21 100 16.3858 -13.4827 6.60409
3723 21 63 8.42102 -0.537951 -2.77605
ITEM: TIMESTEP
345000
ITEM: NUMBER OF ATOMS
19
ITEM: BOX BOUNDS pp pp pp
-1.8349077364097866e+01 1.6530057585172429e+01
-2.4220784187226496e+01 1.3993375945139089e+01
-9.2160370986451561e+00 2.0588695924200533e+01
ITEM: ATOMS id type mol x y z
3768 21 90 -15.8168 -15.2765 14.2482
3642 21 12 -13.8815 5.74501 -0.856786
3650 21 18 -16.3301 8.72715 16.372
3718 21 60 -1.30778 -1.80832 -1.99708
3674 21 32 -6.97957 -2.86641 17.1052
3775 21 95 -5.6096 2.30992 5.41121
3753 21 81 -8.46914 5.81647 11.9019
3783 21 103 -9.476 -0.594916 17.9581
3774 21 94 -2.12275 9.52055 14.7307
3776 21 96 1.15303 -10.3285 19.912
3687 21 39 2.46248 -11.1526 6.52926
3762 21 86 2.00218 -3.61988 5.67248
3644 21 14 4.63375 -1.29872 1.79372
3782 21 102 6.45785 -2.52115 12.6049
3726 21 66 11.641 -18.1538 0.211935
3737 21 71 12.1164 -15.4297 2.99449
3772 21 92 12.0213 -9.01186 -7.79213
3780 21 100 16.3169 -13.5627 6.59898
3723 21 63 8.38382 -0.494178 -2.72895
ITEM: TIMESTEP
350000
ITEM: NUMBER OF ATOMS
19
ITEM: BOX BOUNDS pp pp pp
-1.8678595413954810e+01 1.6859575635029373e+01
-2.4086884504266919e+01 1.3859476262179513e+01
-9.2121381561905977e+00 2.0584796981728619e+01
ITEM: ATOMS id type mol x y z
3642 21 12 -14.1266 5.66892 -0.855074
3650 21 18 -16.6215 8.63016 16.3692
3718 21 60 -1.31531 -1.83149 -1.99507
3674 21 32 -7.09426 -2.88216 17.1022
3775 21 95 -5.69841 2.2579 5.41128
3753 21 81 -8.61198 5.73987 11.9003
3783 21 103 -9.63786 -0.626583 17.9549
3774 21 94 -2.14567 9.418 14.7284
3776 21 96 1.192 -10.292 19.9083
3687 21 39 2.5262 -11.1103 6.52904
3762 21 86 2.0572 -3.63035 5.67249
3644 21 14 4.73849 -1.32546 1.79474
3782 21 102 6.59706 -2.53932 12.6031
3726 21 66 11.8782 -18.0624 0.213367
3737 21 71 12.3625 -15.3574 2.9952
3772 21 92 12.2656 -8.98455 -7.7886
3780 21 100 16.6424 -13.5035 6.59874
3793 21 107 9.43864 -7.81069 19.5302
3723 21 63 8.55942 -0.52655 -2.72675
ITEM: TIMESTEP
355000
ITEM: NUMBER OF ATOMS
20
ITEM: BOX BOUNDS pp pp pp
-1.8701803020960746e+01 1.6882783242035309e+01
-2.4067415371661493e+01 1.3840007129574087e+01
-9.1430681703332795e+00 2.0515726995859193e+01
ITEM: ATOMS id type mol x y z
3797 21 109 -18.6038 -12.6886 -8.2049
3642 21 12 -14.1438 5.65785 -0.824748
3650 21 18 -16.642 8.61606 16.3196
3718 21 60 -1.31584 -1.83485 -1.95946
3674 21 32 -7.10234 -2.88445 17.0493
3775 21 95 -5.70467 2.25033 5.41256
3783 21 103 -9.64926 -0.631188 17.898
3753 21 81 -8.62204 5.72874 11.8715
3774 21 94 -2.14729 9.40308 14.6865
3776 21 96 1.19475 -10.2866 19.8423
3687 21 39 2.53068 -11.1041 6.52514
3762 21 86 2.06107 -3.63187 5.67255
3644 21 14 4.74587 -1.32935 1.81278
3782 21 102 6.60686 -2.54196 12.5711
3726 21 66 11.8949 -18.0491 0.23874
3737 21 71 12.3799 -15.3469 3.00767
3772 21 92 12.2828 -8.98057 -7.72613
3780 21 100 16.6653 -13.4949 6.59451
3793 21 107 9.45215 -7.80792 19.466
3723 21 63 8.57178 -0.531258 -2.68774
ITEM: TIMESTEP
360000
ITEM: NUMBER OF ATOMS
22
ITEM: BOX BOUNDS pp pp pp
-1.8609604946496855e+01 1.6790585167571418e+01
-2.4144323668189255e+01 1.3916915426101848e+01
-9.3586576817853988e+00 2.0731316507275682e+01
ITEM: ATOMS id type mol x y z
3797 21 109 -18.5121 -12.7193 -8.40685
3642 21 12 -14.0752 5.70156 -0.919406
3650 21 18 -16.5605 8.67177 16.4742
3798 21 110 -16.6488 11.9509 15.855
3718 21 60 -1.31373 -1.82155 -2.07061
3674 21 32 -7.07024 -2.87541 17.2145
3775 21 95 -5.67982 2.28021 5.40858
3783 21 103 -9.60397 -0.612999 18.0755
3753 21 81 -8.58207 5.77273 11.9614
3774 21 94 -2.14088 9.46199 14.8173
3776 21 96 1.18384 -10.3076 20.0481
3687 21 39 2.51286 -11.1284 6.53733
3762 21 86 2.04568 -3.62586 5.67235
3644 21 14 4.71657 -1.31399 1.75647
3782 21 102 6.56791 -2.53153 12.6712
3799 21 111 5.84991 1.69765 -1.98212
3726 21 66 11.8285 -18.1016 0.159543
3737 21 71 12.311 -15.3884 2.96873
3772 21 92 12.2145 -8.99626 -7.92112
3780 21 100 16.5742 -13.5289 6.60771
3793 21 107 9.39846 -7.81886 19.6663
3723 21 63 8.52265 -0.512663 -2.80949
ITEM: TIMESTEP
365000
ITEM: NUMBER OF ATOMS
22
ITEM: BOX BOUNDS pp pp pp
-1.8435365940401351e+01 1.6616346161475914e+01
-2.4172237694246089e+01 1.3944829452158682e+01
-9.2399508165060737e+00 2.0612609641988715e+01
ITEM: ATOMS id type mol x y z
3797 21 109 -18.3388 -12.7305 -8.29566
3642 21 12 -13.9456 5.71742 -0.867286
3650 21 18 -16.4064 8.69199 16.3891
3798 21 110 -16.4938 11.9759 15.7748
3718 21 60 -1.30975 -1.81672 -2.00941
3674 21 32 -7.0096 -2.87212 17.1235
3775 21 95 -5.63286 2.29106 5.41077
3783 21 103 -9.51838 -0.606397 17.9778
3803 21 113 -2.90487 4.05122 8.72376
3753 21 81 -8.50654 5.7887 11.9119
3774 21 94 -2.12875 9.48337 14.7453
3776 21 96 1.16323 -10.3152 19.9348
3687 21 39 2.47917 -11.1373 6.53062
3762 21 86 2.01659 -3.62368 5.67246
3644 21 14 4.66118 -1.30842 1.78748
3782 21 102 6.49431 -2.52774 12.616
3799 21 111 5.78337 1.70765 -1.92161
3726 21 66 11.7031 -18.1207 0.20315
3737 21 71 12.1809 -15.4035 2.99017
3780 21 100 16.4021 -13.5413 6.60044
3793 21 107 9.29699 -7.82282 19.556
3723 21 63 8.4298 -0.505915 -2.74245
ITEM: TIMESTEP
370000
ITEM: NUMBER OF ATOMS
22
ITEM: BOX BOUNDS pp pp pp
-1.8595443763849687e+01 1.6776423984924250e+01
-2.4143322157395502e+01 1.3915913915308096e+01
-9.3558084628272411e+00 2.0728467288282346e+01
ITEM: ATOMS id type mol x y z
3797 21 109 -18.498 -12.7189 -8.40419
3642 21 12 -14.0647 5.70099 -0.918155
3650 21 18 -16.548 8.67104 16.4722
3798 21 110 -16.6362 11.95 15.8531
3718 21 60 -1.31341 -1.82172 -2.06914
3674 21 32 -7.06532 -2.87552 17.2123
3775 21 95 -5.676 2.27983 5.40863
3783 21 103 -9.59701 -0.613236 18.0732
3803 21 113 -2.9231 4.03732 8.74733
3753 21 81 -8.57593 5.77216 11.9602
3774 21 94 -2.13989 9.46122 14.8156
3776 21 96 1.18217 -10.3074 20.0454
3687 21 39 2.51012 -11.1281 6.53717
3762 21 86 2.04331 -3.62594 5.67235
3644 21 14 4.71206 -1.31419 1.75721
3782 21 102 6.56193 -2.53166 12.6698
3799 21 111 5.8445 1.6973 -1.98067
3726 21 66 11.8183 -18.101 0.16059
3737 21 71 12.3004 -15.3879 2.96925
3780 21 100 16.5602 -13.5285 6.60754
3793 21 107 9.39021 -7.81871 19.6637
3723 21 63 8.5151 -0.512906 -2.80788
ITEM: TIMESTEP
375000
ITEM: NUMBER OF ATOMS
22
ITEM: BOX BOUNDS pp pp pp
-1.8490743431922255e+01 1.6671723652996818e+01
-2.4186812394823054e+01 1.3959404152735647e+01
-9.2810136582252376e+00 2.0653672483668903e+01
ITEM: ATOMS id type mol x y z
3797 21 109 -18.3939 -12.7363 -8.33412
3642 21 12 -13.9868 5.72571 -0.885315
3650 21 18 -16.4554 8.70254 16.4185
3798 21 110 -16.5431 11.989 15.8025
3807 21 115 -6.13378 -9.13099 5.88738
3718 21 60 -1.31102 -1.8142 -2.03058
3674 21 32 -7.02887 -2.87041 17.155
3775 21 95 -5.64778 2.29672 5.41001
3783 21 103 -9.54558 -0.60295 18.0116
3803 21 113 -2.91118 4.05823 8.73211
3753 21 81 -8.53055 5.79704 11.929
3774 21 94 -2.13261 9.49453 14.7702
3776 21 96 1.16978 -10.3192 19.974
3687 21 39 2.48987 -11.1419 6.53294
3762 21 86 2.02583 -3.62254 5.67242
3644 21 14 4.67878 -1.30551 1.77675
3799 21 111 5.80452 1.71286 -1.94254
3726 21 66 11.743 -18.1306 0.188066
3737 21 71 12.2222 -15.4114 2.98276
3780 21 100 16.4568 -13.5477 6.60296
3793 21 107 9.32924 -7.8249 19.5942
3723 21 63 8.45931 -0.502391 -2.76564
ITEM: TIMESTEP
380000
ITEM: NUMBER OF ATOMS
22
ITEM: BOX BOUNDS pp pp pp
-1.8562137677545998e+01 1.6743117898620561e+01
-2.3994766825975400e+01 1.3767358583887994e+01
-9.2997907843517140e+00 2.0672449609775946e+01
ITEM: ATOMS id type mol x y z
3808 21 116 -16.1442 -21.713 7.91857
3797 21 109 -18.4649 -12.6595 -8.35171
3642 21 12 -14.0399 5.61656 -0.89356
3809 21 117 -12.6008 8.80025 -1.50911
3650 21 18 -16.5185 8.56343 16.432
3798 21 110 -16.6066 11.8168 15.8152
3807 21 115 -6.155 -9.09054 5.88763
3718 21 60 -1.31265 -1.84742 -2.04026
3674 21 32 -7.05372 -2.893 17.1694
3775 21 95 -5.66702 2.22211 5.40967
3783 21 103 -9.58065 -0.648369 18.0271
3753 21 81 -8.5615 5.68718 11.9369
3774 21 94 -2.13757 9.34744 14.7816
3776 21 96 1.17823 -10.2668 19.992
3687 21 39 2.50368 -11.0812 6.534
3762 21 86 2.03775 -3.63755 5.6724
3644 21 14 4.70148 -1.34385 1.77184
3726 21 66 11.7944 -17.9996 0.181168
3737 21 71 12.2756 -15.3077 2.97936
3780 21 100 16.5273 -13.4628 6.60411
3793 21 107 9.37081 -7.7976 19.6116
3723 21 63 8.49736 -0.548822 -2.77624
ITEM: TIMESTEP
385000
ITEM: NUMBER OF ATOMS
21
ITEM: BOX BOUNDS pp pp pp
-1.8639790436428591e+01 1.6820770657503154e+01
-2.4024325403396229e+01 1.3796917161308823e+01
-9.1937985541447595e+00 2.0566457379560852e+01
ITEM: ATOMS id type mol x y z
3808 21 116 -16.2112 -21.739 7.90278
3642 21 12 -14.0977 5.63336 -0.847022
3809 21 117 -12.6523 8.82203 -1.45821
3650 21 18 -16.5872 8.58484 16.356
3798 21 110 -16.6756 11.8433 15.7436
3807 21 115 -6.17807 -9.09677 5.88621
3718 21 60 -1.31442 -1.84231 -1.98561
3674 21 32 -7.08075 -2.88952 17.0882
3775 21 95 -5.68795 2.23359 5.41162
3783 21 103 -9.6188 -0.641378 17.9398
3753 21 81 -8.59516 5.70409 11.8927
3774 21 94 -2.14298 9.37008 14.7172
3776 21 96 1.18741 -10.2749 19.8908
3687 21 39 2.51869 -11.0905 6.52801
3762 21 86 2.05072 -3.63524 5.6725
3644 21 14 4.72616 -1.33795 1.79953
3726 21 66 11.8503 -18.0197 0.220104
3737 21 71 12.3336 -15.3236 2.99851
3780 21 100 16.604 -13.4758 6.59762
3793 21 107 9.41604 -7.8018 19.5131
3723 21 63 8.53874 -0.541675 -2.71639
ITEM: TIMESTEP
390000
ITEM: NUMBER OF ATOMS
19
ITEM: BOX BOUNDS pp pp pp
-1.8585423346123392e+01 1.6766403567197955e+01
-2.4278969718017354e+01 1.4051561475929947e+01
-9.0630694327624184e+00 2.0435728258172933e+01
ITEM: ATOMS id type mol x y z
3808 21 116 -16.1643 -21.9628 7.88331
3642 21 12 -14.0573 5.77808 -0.789624
3650 21 18 -16.5391 8.7693 16.2623
3798 21 110 -16.6273 12.0716 15.6552
3807 21 115 -6.16192 -9.1504 5.88445
3718 21 60 -1.31318 -1.79826 -1.91821
3674 21 32 -7.06183 -2.85957 16.988
3775 21 95 -5.6733 2.33253 5.41404
3783 21 103 -9.59209 -0.581155 17.8321
3753 21 81 -8.57159 5.84975 11.8381
3774 21 94 -2.13919 9.56512 14.6379
3687 21 39 2.50818 -11.171 6.52061
3762 21 86 2.04164 -3.61533 5.67262
3644 21 14 4.70888 -1.28711 1.83368
3726 21 66 11.8111 -18.1935 0.268128
3737 21 71 12.293 -15.4611 3.02212
3780 21 100 16.5503 -13.5885 6.58961
3793 21 107 9.38438 -7.838 19.3916
3723 21 63 8.50977 -0.48011 -2.64257
ITEM: TIMESTEP
395000
ITEM: NUMBER OF ATOMS
17
ITEM: BOX BOUNDS pp pp pp
-1.8662485387493465e+01 1.6843465608568028e+01
-2.3918169515832197e+01 1.3690761273744791e+01
-9.3081527614339308e+00 2.0680811586803848e+01
ITEM: ATOMS id type mol x y z
3642 21 12 -14.1146 5.57303 -0.897231
3650 21 18 -16.6072 8.50794 16.438
3798 21 110 -16.6958 11.7481 15.8209
3807 21 115 -6.18482 -9.07441 5.88775
3718 21 60 -1.31494 -1.86067 -2.04457
3674 21 32 -7.08865 -2.902 17.1758
3775 21 95 -5.69407 2.19235 5.40951
3783 21 103 -9.62995 -0.666484 18.034
3753 21 81 -8.605 5.64336 11.9404
3774 21 94 -2.14455 9.28878 14.7867
3687 21 39 2.52308 -11.057 6.53448
3644 21 14 4.73337 -1.35915 1.76966
3726 21 66 11.8666 -17.9473 0.178096
3737 21 71 12.3505 -15.2663 2.97785
3780 21 100 16.6265 -13.4289 6.60462
3793 21 107 9.42925 -7.78671 19.6194
3723 21 63 8.55083 -0.567341 -2.78097
ITEM: TIMESTEP
400000
ITEM: NUMBER OF ATOMS
18
ITEM: BOX BOUNDS pp pp pp
-1.8477204617247153e+01 1.6658184838321716e+01
-2.3993869457387451e+01 1.3766461215300044e+01
-9.3572482988458674e+00 2.0729907124193286e+01
ITEM: ATOMS id type mol x y z
3642 21 12 -13.9768 5.61605 -0.918787
3650 21 18 -16.4434 8.56278 16.4732
3798 21 110 -16.531 11.816 15.8541
3807 21 115 -6.12976 -9.09035 5.88841
3718 21 60 -1.31071 -1.84758 -2.06989
3674 21 32 -7.02416 -2.8931 17.2134
3775 21 95 -5.64413 2.22176 5.4086
3783 21 103 -9.53893 -0.648581 18.0744
3753 21 81 -8.52468 5.68666 11.9608
3774 21 94 -2.13166 9.34676 14.8164
3687 21 39 2.48726 -11.0809 6.53725
3644 21 14 4.67448 -1.34403 1.75684
3726 21 66 11.7332 -17.999 0.160061
3737 21 71 12.2121 -15.3072 2.96899
3780 21 100 16.4434 -13.4624 6.60763
3793 21 107 9.32135 -7.79747 19.665
3813 21 119 9.63514 -3.99414 15.1652
3723 21 63 8.4521 -0.549039 -2.80869
ITEM: TIMESTEP
405000
ITEM: NUMBER OF ATOMS
20
ITEM: BOX BOUNDS pp pp pp
-1.8476824261344394e+01 1.6657804482418957e+01
-2.4038226950128070e+01 1.3810818708040664e+01
-9.3563901347824441e+00 2.0729048960112170e+01
ITEM: ATOMS id type mol x y z
3815 21 121 -10.8252 -14.9024 15.0562
3642 21 12 -13.9765 5.64126 -0.918411
3650 21 18 -16.4431 8.59491 16.4726
3798 21 110 -16.5307 11.8557 15.8535
3807 21 115 -6.12965 -9.0997 5.88839
3718 21 60 -1.3107 -1.8399 -2.06944
3674 21 32 -7.02403 -2.88788 17.2127
3775 21 95 -5.64403 2.23899 5.40862
3783 21 103 -9.53875 -0.638091 18.0737
3753 21 81 -8.52452 5.71204 11.9605
3774 21 94 -2.13164 9.38073 14.8159
3687 21 39 2.48718 -11.0949 6.5372
3644 21 14 4.67436 -1.33517 1.75706
3726 21 66 11.733 -18.0292 0.160376
3737 21 71 12.2118 -15.3311 2.96914
3780 21 100 16.4431 -13.482 6.60757
3793 21 107 9.32113 -7.80378 19.6642
3813 21 119 9.63491 -3.99151 15.1646
3723 21 63 8.45189 -0.538314 -2.80821
3814 21 120 14.2555 7.60704 -3.68537
ITEM: TIMESTEP
410000
ITEM: NUMBER OF ATOMS
19
ITEM: BOX BOUNDS pp pp pp
-1.8472489132463224e+01 1.6653469353537787e+01
-2.4224366921835063e+01 1.3996958679747657e+01
-9.2526230606784843e+00 2.0625281886000380e+01
ITEM: ATOMS id type mol x y z
3815 21 121 -10.8227 -14.9986 14.9916
3642 21 12 -13.9733 5.74705 -0.87285
3650 21 18 -16.4392 8.72975 16.3982
3798 21 110 -16.5268 12.0226 15.7834
3807 21 115 -6.12836 -9.1389 5.887
3718 21 60 -1.3106 -1.8077 -2.01594
3674 21 32 -7.02252 -2.86599 17.1332
3775 21 95 -5.64286 2.31131 5.41054
3753 21 81 -8.52264 5.81852 11.9172
3774 21 94 -2.13134 9.5233 14.7529
3687 21 39 2.48634 -11.1537 6.53133
3644 21 14 4.67298 -1.29801 1.78417
3726 21 66 11.7299 -18.1563 0.198495
3737 21 71 12.2086 -15.4316 2.98788
3780 21 100 16.4388 -13.5643 6.60122
3793 21 107 9.31861 -7.83023 19.5678
3813 21 119 9.63231 -3.98047 15.0993
3723 21 63 8.44958 -0.493311 -2.74961
3814 21 120 14.2518 7.73216 -3.62072
ITEM: TIMESTEP
415000
ITEM: NUMBER OF ATOMS
19
ITEM: BOX BOUNDS pp pp pp
-1.8558153069594859e+01 1.6739133290669422e+01
-2.3964809266718071e+01 1.3737401024630664e+01
-9.2571723928997933e+00 2.0629831218203538e+01
ITEM: ATOMS id type mol x y z
3815 21 121 -10.8711 -14.8644 14.9944
3642 21 12 -14.037 5.59954 -0.874847
3650 21 18 -16.515 8.54173 16.4015
3798 21 110 -16.603 11.7899 15.7864
3807 21 115 -6.15382 -9.08423 5.88706
3718 21 60 -1.31256 -1.8526 -2.01829
3674 21 32 -7.05234 -2.89652 17.1367
3775 21 95 -5.66595 2.21047 5.41045
3753 21 81 -8.55977 5.67004 11.9191
3774 21 94 -2.1373 9.3245 14.7557
3687 21 39 2.50291 -11.0717 6.53159
3644 21 14 4.70021 -1.34983 1.78298
3726 21 66 11.7915 -17.9791 0.196824
3737 21 71 12.2726 -15.2915 2.98706
3780 21 100 16.5234 -13.4495 6.6015
3793 21 107 9.36849 -7.79334 19.572
3813 21 119 9.68373 -3.99586 15.1021
3723 21 63 8.49523 -0.556065 -2.75218
3814 21 120 14.3257 7.55769 -3.62356
ITEM: TIMESTEP
420000
ITEM: NUMBER OF ATOMS
19
ITEM: BOX BOUNDS pp pp pp
-1.8625946478540637e+01 1.6806926699615200e+01
-2.4079981557115847e+01 1.3852573315028440e+01
-9.2328565810708447e+00 2.0605515406359249e+01
ITEM: ATOMS id type mol x y z
3815 21 121 -10.9093 -14.924 14.9793
3642 21 12 -14.0874 5.66499 -0.864171
3650 21 18 -16.5749 8.62516 16.384
3798 21 110 -16.6633 11.8932 15.77
3807 21 115 -6.17396 -9.10849 5.88673
3718 21 60 -1.31411 -1.83268 -2.00575
3674 21 32 -7.07593 -2.88297 17.1181
3775 21 95 -5.68422 2.25522 5.4109
3753 21 81 -8.58916 5.73592 11.909
3774 21 94 -2.14201 9.41271 14.741
3687 21 39 2.51602 -11.1081 6.53022
3644 21 14 4.72176 -1.32684 1.78933
3726 21 66 11.8403 -18.0577 0.205756
3737 21 71 12.3232 -15.3537 2.99145
3780 21 100 16.5904 -13.5005 6.60001
3793 21 107 9.40797 -7.80971 19.5494
3813 21 119 9.72442 -3.98903 15.0868
3723 21 63 8.53136 -0.528219 -2.73845
3814 21 120 14.3842 7.6351 -3.60841
ITEM: TIMESTEP
425000
ITEM: NUMBER OF ATOMS
20
ITEM: BOX BOUNDS pp pp pp
-1.8453470871179249e+01 1.6634451092253812e+01
-2.4138877895132971e+01 1.3911469653045565e+01
-9.3066160682861074e+00 2.0679274893549639e+01
ITEM: ATOMS id type mol x y z
3815 21 121 -10.812 -14.9544 15.0252
3642 21 12 -13.9591 5.69846 -0.896556
3650 21 18 -16.4224 8.66782 16.4369
3798 21 110 -16.5099 11.946 15.8199
3816 21 122 -8.00829 -16.3254 -1.45404
3807 21 115 -6.12271 -9.1209 5.88772
3718 21 60 -1.31017 -1.82249 -2.04378
3674 21 32 -7.0159 -2.87605 17.1746
3775 21 95 -5.63774 2.2781 5.40954
3753 21 81 -8.51439 5.76962 11.9397
3774 21 94 -2.13001 9.45782 14.7857
3687 21 39 2.48267 -11.1267 6.53439
3644 21 14 4.66694 -1.31508 1.77006
3726 21 66 11.7162 -18.0979 0.178661
3737 21 71 12.1944 -15.3855 2.97813
3780 21 100 16.42 -13.5265 6.60453
3793 21 107 9.30753 -7.81808 19.6179
3813 21 119 9.6209 -3.98554 15.1333
3723 21 63 8.43945 -0.51398 -2.7801
3814 21 120 14.2353 7.67469 -3.65436
ITEM: TIMESTEP
430000
ITEM: NUMBER OF ATOMS
19
ITEM: BOX BOUNDS pp pp pp
-1.8474127221781949e+01 1.6655107442856512e+01
-2.4139001305735384e+01 1.3911593063647977e+01
-9.2746169348643299e+00 2.0647275760113470e+01
ITEM: ATOMS id type mol x y z
3815 21 121 -10.8237 -14.9545 15.0053
3642 21 12 -13.9745 5.69853 -0.882507
3650 21 18 -16.4407 8.66791 16.414
3816 21 122 -8.01665 -16.3254 -1.4388
3807 21 115 -6.12885 -9.12092 5.8873
3718 21 60 -1.31064 -1.82247 -2.02728
3674 21 32 -7.02309 -2.87603 17.1501
3775 21 95 -5.6433 2.27815 5.41013
3753 21 81 -8.52335 5.76969 11.9264
3774 21 94 -2.13145 9.45791 14.7663
3687 21 39 2.48666 -11.1268 6.53258
3644 21 14 4.6735 -1.31505 1.77842
3726 21 66 11.731 -18.098 0.190416
3737 21 71 12.2098 -15.3856 2.98391
3780 21 100 16.4404 -13.5266 6.60257
3793 21 107 9.31956 -7.8181 19.5882
3813 21 119 9.63329 -3.98553 15.1131
3723 21 63 8.45046 -0.51395 -2.76203
3814 21 120 14.2532 7.67477 -3.63443
ITEM: TIMESTEP
435000
ITEM: NUMBER OF ATOMS
20
ITEM: BOX BOUNDS pp pp pp
-1.8534689670420271e+01 1.6715669891494834e+01
-2.4133707249702599e+01 1.3906299007615193e+01
-9.3157940265995229e+00 2.0688452851826916e+01
ITEM: ATOMS id type mol x y z
3815 21 121 -10.8578 -14.9518 15.0309
3642 21 12 -14.0195 5.69553 -0.900586
3650 21 18 -16.4942 8.66408 16.4435
3816 21 122 -8.04116 -16.3223 -1.45841
3807 21 115 -6.14684 -9.11981 5.88785
3718 21 60 -1.31202 -1.82339 -2.04851
3674 21 32 -7.04417 -2.87665 17.1816
3775 21 95 -5.65963 2.27609 5.40937
3753 21 81 -8.5496 5.76666 11.9435
3818 21 124 -8.16775 8.16276 1.5679
3774 21 94 -2.13566 9.45386 14.7913
3687 21 39 2.49837 -11.1251 6.53491
3644 21 14 4.69275 -1.31611 1.76766
3726 21 66 11.7746 -18.0944 0.175289
3737 21 71 12.2551 -15.3827 2.97647
3780 21 100 16.5002 -13.5242 6.60509
3793 21 107 9.35483 -7.81735 19.6265
3813 21 119 9.66965 -3.98585 15.1391
3723 21 63 8.48273 -0.51523 -2.78528
3814 21 120 14.3055 7.67122 -3.66008
ITEM: TIMESTEP
440000
ITEM: NUMBER OF ATOMS
19
ITEM: BOX BOUNDS pp pp pp
-1.8626294957364017e+01 1.6807275178438580e+01
-2.4186466202655971e+01 1.3959057960568565e+01
-9.2610907675865697e+00 2.0633749592801813e+01
ITEM: ATOMS id type mol x y z
3642 21 12 -14.0877 5.72551 -0.876568
3650 21 18 -16.5752 8.70229 16.4043
3816 21 122 -8.07822 -16.3534 -1.43236
3807 21 115 -6.17406 -9.13092 5.88711
3718 21 60 -1.31411 -1.81426 -2.02031
3674 21 32 -7.07605 -2.87045 17.1397
3775 21 95 -5.68432 2.29659 5.41038
3753 21 81 -8.58931 5.79684 11.9207
3818 21 124 -8.20547 8.19958 1.58292
3774 21 94 -2.14204 9.49427 14.7581
3687 21 39 2.51608 -11.1418 6.53181
3644 21 14 4.72187 -1.30558 1.78195
3726 21 66 11.8405 -18.1304 0.195384
3737 21 71 12.3235 -15.4112 2.98635
3780 21 100 16.5907 -13.5475 6.60174
3793 21 107 9.40818 -7.82485 19.5756
3813 21 119 9.72463 -3.98272 15.1046
3723 21 63 8.53155 -0.502475 -2.75439
3814 21 120 14.3845 7.70668 -3.626
ITEM: TIMESTEP
445000
ITEM: NUMBER OF ATOMS
19
ITEM: BOX BOUNDS pp pp pp
-1.8477210007331088e+01 1.6658190228405651e+01
-2.4012467668161506e+01 1.3785059426074099e+01
-9.3848617897554760e+00 2.0757520614939786e+01
ITEM: ATOMS id type mol x y z
3642 21 12 -13.9768 5.62662 -0.930911
3650 21 18 -16.4434 8.57625 16.493
3816 21 122 -8.0179 -16.2509 -1.49131
3807 21 115 -6.12976 -9.09427 5.88878
3718 21 60 -1.31071 -1.84436 -2.08412
3674 21 32 -7.02416 -2.89091 17.2346
3775 21 95 -5.64414 2.22899 5.40809
3753 21 81 -8.52468 5.6973 11.9724
3818 21 124 -8.14408 8.07813 1.54894
3774 21 94 -2.13166 9.361 14.8332
3687 21 39 2.48726 -11.0868 6.53881
3644 21 14 4.67448 -1.34032 1.74962
3726 21 66 11.7333 -18.0116 0.149917
3737 21 71 12.2121 -15.3172 2.964
3780 21 100 16.4434 -13.4706 6.60932
3793 21 107 9.32136 -7.80011 19.6907
3813 21 119 9.63514 -3.99304 15.1826
3723 21 63 8.4521 -0.544542 -2.82428
3814 21 120 14.2558 7.58972 -3.70311
ITEM: TIMESTEP
450000
ITEM: NUMBER OF ATOMS
19
ITEM: BOX BOUNDS pp pp pp
-1.8531545319588375e+01 1.6712525540662938e+01
-2.4152952394655774e+01 1.3925544152568367e+01
-9.2270762579446277e+00 2.0599735083127683e+01
ITEM: ATOMS id type mol x y z
3642 21 12 -14.0172 5.70646 -0.861633
3650 21 18 -16.4915 8.67802 16.3799
3816 21 122 -8.03989 -16.3337 -1.41616
3807 21 115 -6.14591 -9.12386 5.88666
3718 21 60 -1.31195 -1.82006 -2.00277
3674 21 32 -7.04308 -2.87439 17.1137
3775 21 95 -5.65878 2.28357 5.41101
3753 21 81 -8.54824 5.77767 11.9065
3818 21 124 -8.16645 8.17619 1.59226
3774 21 94 -2.13544 9.4686 14.7374
3687 21 39 2.49776 -11.1312 6.52989
3822 21 126 -0.475252 -1.81807 -5.64884
3644 21 14 4.69175 -1.31227 1.79084
3726 21 66 11.7724 -18.1075 0.20788
3737 21 71 12.2527 -15.3931 2.9925
3780 21 100 16.4971 -13.5327 6.59965
3813 21 119 9.66776 -3.98471 15.0832
3723 21 63 8.48105 -0.510577 -2.73518
3814 21 120 14.3027 7.68415 -3.60481
ITEM: TIMESTEP
455000
ITEM: NUMBER OF ATOMS
18
ITEM: BOX BOUNDS pp pp pp
-1.8570719476450837e+01 1.6751699697525400e+01
-2.4036070393831928e+01 1.3808662151744521e+01
-9.4321971354798286e+00 2.0804855960623396e+01
ITEM: ATOMS id type mol x y z
3642 21 12 -14.0463 5.64004 -0.951695
3650 21 18 -16.5261 8.59335 16.527
3816 21 122 -8.05574 -16.2648 -1.51385
3807 21 115 -6.15755 -9.09924 5.88941
3718 21 60 -1.31284 -1.84028 -2.10853
3775 21 95 -5.66934 2.23816 5.40722
3753 21 81 -8.56522 5.7108 11.9921
3818 21 124 -8.18258 8.0946 1.53595
3774 21 94 -2.13817 9.37908 14.8619
3687 21 39 2.50534 -11.0942 6.54149
3822 21 126 -0.474287 -1.8383 -5.80475
3644 21 14 4.70421 -1.3356 1.73726
3726 21 66 11.8005 -18.0278 0.132528
3737 21 71 12.282 -15.33 2.95545
3780 21 100 16.5358 -13.481 6.61222
3813 21 119 9.69127 -3.99164 15.2124
3723 21 63 8.50193 -0.538836 -2.85101
3814 21 120 14.3366 7.60559 -3.7326
ITEM: TIMESTEP
460000
ITEM: NUMBER OF ATOMS
18
ITEM: BOX BOUNDS pp pp pp
-1.8439311354632817e+01 1.6620291575707380e+01
-2.4168576098764927e+01 1.3941167856677520e+01
-9.3908295289195003e+00 2.0763488354050033e+01
ITEM: ATOMS id type mol x y z
3642 21 12 -13.9486 5.71534 -0.933532
3650 21 18 -16.4099 8.68933 16.4973
3816 21 122 -8.00257 -16.3429 -1.49415
3807 21 115 -6.1185 -9.12715 5.88886
3718 21 60 -1.30984 -1.81735 -2.0872
3823 21 127 -7.22789 -2.40322 16.6704
3775 21 95 -5.63392 2.28964 5.40798
3753 21 81 -8.50825 5.7866 11.9748
3818 21 124 -8.12847 8.18709 1.54731
3774 21 94 -2.12903 9.48056 14.8368
3687 21 39 2.47993 -11.1361 6.53915
3822 21 126 -0.477525 -1.81536 -5.77331
3644 21 14 4.66244 -1.30915 1.74806
3726 21 66 11.706 -18.1182 0.147725
3737 21 71 12.1838 -15.4015 2.96292
3780 21 100 16.406 -13.5396 6.60968
3723 21 63 8.4319 -0.5068 -2.82765
3814 21 120 14.2231 7.69465 -3.70683
ITEM: TIMESTEP
465000
ITEM: NUMBER OF ATOMS
19
ITEM: BOX BOUNDS pp pp pp
-1.8510486192741460e+01 1.6691466413816023e+01
-2.4110965622074882e+01 1.3883557379987476e+01
-9.2916522423958803e+00 2.0664311067519421e+01
ITEM: ATOMS id type mol x y z
3825 21 129 -11.4997 -14.2618 15.4176
3642 21 12 -14.0015 5.6826 -0.889986
3650 21 18 -16.4728 8.6476 16.4262
3816 21 122 -8.03136 -16.3089 -1.44692
3807 21 115 -6.13965 -9.11502 5.88752
3718 21 60 -1.31147 -1.82732 -2.03607
3823 21 127 -7.25355 -2.41142 16.5981
3775 21 95 -5.6531 2.26725 5.40982
3753 21 81 -8.53911 5.75365 11.9335
3818 21 124 -8.15778 8.14688 1.57453
3774 21 94 -2.13398 9.43644 14.7766
3687 21 39 2.49369 -11.1179 6.53354
3822 21 126 -0.475771 -1.82534 -5.69792
3644 21 14 4.68506 -1.32065 1.77397
3726 21 66 11.7572 -18.0789 0.184158
3737 21 71 12.237 -15.3704 2.98083
3824 21 128 13.2112 -10.1763 -7.77082
3723 21 63 8.46983 -0.520728 -2.77165
3814 21 120 14.2846 7.65593 -3.64504
ITEM: TIMESTEP
470000
ITEM: NUMBER OF ATOMS
19
ITEM: BOX BOUNDS pp pp pp
-1.8697168629467981e+01 1.6878148850542544e+01
-2.4012230834220837e+01 1.3784822592133430e+01
-9.3592833848126027e+00 2.0731942209910830e+01
ITEM: ATOMS id type mol x y z
3825 21 129 -11.612 -14.2142 15.4615
3642 21 12 -14.1404 5.62649 -0.919681
3650 21 18 -16.6379 8.57608 16.4747
3816 21 122 -8.1069 -16.2507 -1.47912
3807 21 115 -6.19512 -9.09422 5.88843
3718 21 60 -1.31573 -1.8444 -2.07094
3823 21 127 -7.32083 -2.42546 16.6474
3775 21 95 -5.70342 2.22889 5.40857
3753 21 81 -8.62003 5.69717 11.9617
3818 21 124 -8.23466 8.07796 1.55597
3774 21 94 -2.14697 9.36082 14.8177
3687 21 39 2.52979 -11.0867 6.53737
3822 21 126 -0.471171 -1.84243 -5.74933
3644 21 14 4.7444 -1.34036 1.75631
3726 21 66 11.8915 -18.0115 0.159313
3737 21 71 12.3764 -15.3171 2.96862
3824 21 128 13.361 -10.15 -7.83159
3723 21 63 8.56931 -0.5446 -2.80984
3814 21 120 14.4457 7.58956 -3.68717
ITEM: TIMESTEP
475000
ITEM: NUMBER OF ATOMS
17
ITEM: BOX BOUNDS pp pp pp
-1.8510722990743488e+01 1.6691703211818051e+01
-2.4124885419287271e+01 1.3897477177199864e+01
-9.3244861268396235e+00 2.0697144951923949e+01
ITEM: ATOMS id type mol x y z
3825 21 129 -11.4999 -14.2685 15.4389
3642 21 12 -14.0017 5.69051 -0.904403
3650 21 18 -16.4731 8.65769 16.4497
3807 21 115 -6.13972 -9.11795 5.88796
3718 21 60 -1.31147 -1.82491 -2.05299
3823 21 127 -7.25363 -2.40944 16.6221
3775 21 95 -5.65317 2.27266 5.40921
3753 21 81 -8.53921 5.76161 11.9472
3818 21 124 -8.15788 8.1566 1.56552
3774 21 94 -2.134 9.4471 14.7966
3687 21 39 2.49374 -11.1223 6.5354
3644 21 14 4.68513 -1.31787 1.76539
3726 21 66 11.7574 -18.0884 0.172096
3737 21 71 12.2372 -15.3779 2.9749
3824 21 128 13.2114 -10.18 -7.80032
3723 21 63 8.46996 -0.517363 -2.79019
3814 21 120 14.2848 7.66529 -3.66549
ITEM: TIMESTEP
480000
ITEM: NUMBER OF ATOMS
16
ITEM: BOX BOUNDS pp pp pp
-1.8516368651020784e+01 1.6697348872095347e+01
-2.4061815973041561e+01 1.3834407730954155e+01
-9.2645671276271813e+00 2.0637225952700362e+01
ITEM: ATOMS id type mol x y z
3825 21 129 -11.5033 -14.2381 15.4
3642 21 12 -14.0059 5.65467 -0.878094
3807 21 115 -6.1414 -9.10466 5.88716
3718 21 60 -1.3116 -1.83582 -2.0221
3823 21 127 -7.25567 -2.41841 16.5784
3775 21 95 -5.65469 2.24816 5.41032
3753 21 81 -8.54166 5.72553 11.9222
3818 21 124 -8.1602 8.11257 1.58197
3774 21 94 -2.13439 9.3988 14.7602
3687 21 39 2.49483 -11.1024 6.53201
3644 21 14 4.68693 -1.33046 1.78105
3726 21 66 11.7614 -18.0453 0.194107
3737 21 71 12.2414 -15.3439 2.98573
3824 21 128 13.2159 -10.1632 -7.74649
3723 21 63 8.47297 -0.532611 -2.75635
3814 21 120 14.2896 7.62289 -3.62816
ITEM: TIMESTEP
485000
ITEM: NUMBER OF ATOMS
16
ITEM: BOX BOUNDS pp pp pp
-1.8386164202357524e+01 1.6567144423432087e+01
-2.4155631529769387e+01 1.3928223287681980e+01
-9.2548234068820108e+00 2.0627482231938583e+01
ITEM: ATOMS id type mol x y z
3825 21 129 -11.4249 -14.2833 15.3937
3642 21 12 -13.909 5.70799 -0.873816
3807 21 115 -6.10271 -9.12442 5.88703
3718 21 60 -1.30863 -1.81959 -2.01708
3823 21 127 -7.20874 -2.40507 16.5713
3775 21 95 -5.6196 2.28461 5.4105
3753 21 81 -8.48522 5.7792 11.9181
3818 21 124 -8.10658 8.17806 1.58464
3774 21 94 -2.12533 9.47065 14.7543
3687 21 39 2.46965 -11.132 6.53146
3644 21 14 4.64554 -1.31173 1.78359
3726 21 66 11.6677 -18.1094 0.197687
3737 21 71 12.1441 -15.3945 2.98749
3824 21 128 13.1115 -10.1882 -7.73773
3723 21 63 8.40358 -0.509929 -2.75085
3814 21 120 14.1772 7.68595 -3.62209
ITEM: TIMESTEP
490000
ITEM: NUMBER OF ATOMS
17
ITEM: BOX BOUNDS pp pp pp
-1.8544344847600247e+01 1.6725325068674810e+01
-2.4310145030153727e+01 1.4082736788066320e+01
-9.1483544708381466e+00 2.0521013295889055e+01
ITEM: ATOMS id type mol x y z
3825 21 129 -11.5201 -14.3577 15.3245
3642 21 12 -14.0267 5.7958 -0.827069
3807 21 115 -6.14971 -9.15697 5.8856
3718 21 60 -1.31224 -1.79286 -1.96218
3823 21 127 -7.26575 -2.38309 16.4937
3775 21 95 -5.66223 2.34464 5.41246
3829 21 131 -9.22747 4.64981 8.87966
3753 21 81 -8.55378 5.86759 11.8737
3818 21 124 -8.17172 8.28591 1.61387
3774 21 94 -2.13634 9.58899 14.6897
3687 21 39 2.50024 -11.1808 6.52544
3644 21 14 4.69582 -1.28088 1.8114
3726 21 66 11.7816 -18.2148 0.236798
3737 21 71 12.2623 -15.478 3.00672
3824 21 128 13.2384 -10.2294 -7.64208
3723 21 63 8.48787 -0.472573 -2.69073
3814 21 120 14.3138 7.78981 -3.55576
ITEM: TIMESTEP
495000
ITEM: NUMBER OF ATOMS
19
ITEM: BOX BOUNDS pp pp pp
-1.8392572455190926e+01 1.6573552676265489e+01
-2.4112011445487703e+01 1.3884603203400296e+01
-9.5419746393817100e+00 2.0914633464369558e+01
ITEM: ATOMS id type mol x y z
3825 21 129 -11.4288 -14.2623 15.5802
3642 21 12 -13.9138 5.6832 -0.999894
3807 21 115 -6.10461 -9.11524 5.89089
3718 21 60 -1.30878 -1.82714 -2.16513
3823 21 127 -7.21105 -2.41127 16.7805
3775 21 95 -5.62133 2.26766 5.40519
3829 21 131 -9.15589 4.54903 8.96439
3753 21 81 -8.48799 5.75425 12.0379
3818 21 124 -8.10922 8.14761 1.50581
3831 21 133 -5.07574 11.5856 -7.46353
3774 21 94 -2.12578 9.43724 14.9286
3687 21 39 2.47089 -11.1182 6.5477
3644 21 14 4.64758 -1.32044 1.70858
3726 21 66 11.6723 -18.0796 0.0922015
3737 21 71 12.1489 -15.371 2.93562
3824 21 128 13.1166 -10.1766 -7.99573
3830 21 132 8.09201 -15.8604 17.989
3723 21 63 8.407 -0.520476 -2.913
3814 21 120 14.1828 7.65663 -3.80099
ITEM: TIMESTEP
500000
ITEM: NUMBER OF ATOMS
19
ITEM: BOX BOUNDS pp pp pp
-1.8301641089644598e+01 1.6482621310719161e+01
-2.4264379028295714e+01 1.4036970786208308e+01
-9.3255528093427280e+00 2.0698211634338094e+01
ITEM: ATOMS id type mol x y z
3825 21 129 -11.3741 -14.3356 15.4396
3642 21 12 -13.8462 5.76979 -0.904871
3807 21 115 -6.07759 -9.14733 5.88798
3718 21 60 -1.3067 -1.80078 -2.05354
3823 21 127 -7.17827 -2.3896 16.6228
3775 21 95 -5.59682 2.32686 5.40919
3829 21 131 -9.11299 4.62653 8.91781
3753 21 81 -8.44858 5.84141 11.9476
3818 21 124 -8.07178 8.25397 1.56523
3831 21 133 -5.05407 11.7195 -7.27664
3774 21 94 -2.11945 9.55394 14.7972
3687 21 39 2.45331 -11.1664 6.53546
3644 21 14 4.61868 -1.29002 1.76512
3726 21 66 11.6069 -18.1836 0.171704
3737 21 71 12.081 -15.4532 2.97471
3824 21 128 13.0437 -10.2172 -7.80128
3830 21 132 8.04519 -15.9466 17.8141
3723 21 63 8.35854 -0.483638 -2.79079
3814 21 120 14.1043 7.75905 -3.66616
ITEM: TIMESTEP
505000
ITEM: NUMBER OF ATOMS
19
ITEM: BOX BOUNDS pp pp pp
-1.8438350243956116e+01 1.6619330465030679e+01
-2.4118862193732195e+01 1.3891453951644788e+01
-9.4452872286822789e+00 2.0817946053645734e+01
ITEM: ATOMS id type mol x y z
3825 21 129 -11.4563 -14.2656 15.5174
3642 21 12 -13.9479 5.68709 -0.957442
3807 21 115 -6.11822 -9.11668 5.88959
3718 21 60 -1.30982 -1.82595 -2.11528
3823 21 127 -7.22755 -2.4103 16.7101
3829 21 131 -9.17748 4.55252 8.94358
3753 21 81 -8.50784 5.75817 11.9976
3818 21 124 -8.12807 8.15239 1.53236
3831 21 133 -5.08665 11.5916 -7.38004
3774 21 94 -2.12896 9.44249 14.8699
3687 21 39 2.47974 -11.1204 6.54223
3644 21 14 4.66213 -1.31907 1.73384
3832 21 134 -0.0121237 3.09145 7.73398
3726 21 66 11.7053 -18.0843 0.12772
3737 21 71 12.1831 -15.3747 2.95308
3824 21 128 13.1533 -10.1784 -7.90886
3830 21 132 8.11558 -15.8643 17.9109
3723 21 63 8.43139 -0.518819 -2.85841
3814 21 120 14.2223 7.66124 -3.74075
ITEM: TIMESTEP
510000
ITEM: NUMBER OF ATOMS
20
ITEM: BOX BOUNDS pp pp pp
-1.8566023347798115e+01 1.6747003568872678e+01
-2.4016466060635537e+01 1.3789057818548130e+01
-9.3834239974822822e+00 2.0756082822435300e+01
ITEM: ATOMS id type mol x y z
3825 21 129 -11.5331 -14.2163 15.4772
3642 21 12 -14.0428 5.6289 -0.93028
3807 21 115 -6.15615 -9.09511 5.88876
3718 21 60 -1.31274 -1.84367 -2.08338
3823 21 127 -7.27356 -2.42486 16.665
3829 21 131 -9.2377 4.50044 8.93026
3753 21 81 -8.56318 5.69959 11.9718
3818 21 124 -8.18065 8.08092 1.54934
3831 21 133 -5.11707 11.5016 -7.32662
3774 21 94 -2.13784 9.36406 14.8323
3833 21 135 -8.8737 13.6336 17.4659
3687 21 39 2.50443 -11.088 6.53873
3644 21 14 4.70271 -1.33952 1.75
3832 21 134 -0.00558745 3.04724 7.72561
3726 21 66 11.7972 -18.0144 0.150445
3737 21 71 12.2785 -15.3194 2.96426
3824 21 128 13.2558 -10.1511 -7.85328
3830 21 132 8.18131 -15.8064 17.8609
3723 21 63 8.49943 -0.543576 -2.82347
3814 21 120 14.3325 7.59241 -3.70221
ITEM: TIMESTEP
515000
ITEM: NUMBER OF ATOMS
21
ITEM: BOX BOUNDS pp pp pp
-1.8480753201727733e+01 1.6661733422802296e+01
-2.4150331422265765e+01 1.3922923180178358e+01
-9.2304377138570501e+00 2.0603096538810771e+01
ITEM: ATOMS id type mol x y z
3825 21 129 -11.4818 -14.2807 15.3778
3642 21 12 -13.9794 5.70497 -0.863109
3834 21 136 -10.1449 -0.138165 17.4544
3807 21 115 -6.13082 -9.12331 5.8867
3718 21 60 -1.31079 -1.82051 -2.0045
3823 21 127 -7.24283 -2.40582 16.5535
3829 21 131 -9.19748 4.56852 8.89733
3753 21 81 -8.52622 5.77617 11.9079
3818 21 124 -8.14554 8.17436 1.59134
3831 21 133 -5.09675 11.6192 -7.19451
3774 21 94 -2.13191 9.46659 14.7395
3833 21 135 -8.83524 13.7664 17.3463
3687 21 39 2.48794 -11.1303 6.53008
3644 21 14 4.67561 -1.31279 1.78996
3832 21 134 -0.00995284 3.10503 7.70491
3726 21 66 11.7358 -18.1057 0.206645
3737 21 71 12.2148 -15.3917 2.99189
3824 21 128 13.1874 -10.1868 -7.71582
3830 21 132 8.13741 -15.8821 17.7373
3723 21 63 8.45399 -0.511211 -2.73708
3814 21 120 14.2589 7.68239 -3.6069
ITEM: TIMESTEP
520000
ITEM: NUMBER OF ATOMS
21
ITEM: BOX BOUNDS pp pp pp
-1.8263471339124308e+01 1.6444451560198871e+01
-2.4353097706399200e+01 1.4125689464311794e+01
-9.2914910852696444e+00 2.0664149910198304e+01
ITEM: ATOMS id type mol x y z
3825 21 129 -11.3511 -14.3784 15.4175
3642 21 12 -13.8178 5.82021 -0.889916
3834 21 136 -10.0307 -0.0851687 17.5025
3807 21 115 -6.06625 -9.16602 5.88752
3718 21 60 -1.30583 -1.78543 -2.03598
3823 21 127 -7.16451 -2.37698 16.598
3835 21 137 -5.79719 2.01477 -5.73928
3829 21 131 -9.09499 4.67165 8.91047
3753 21 81 -8.43203 5.89216 11.9334
3818 21 124 -8.05606 8.3159 1.57458
3831 21 133 -5.04497 11.7975 -7.24723
3774 21 94 -2.1168 9.62189 14.7765
3833 21 135 -8.73723 13.9675 17.394
3687 21 39 2.44593 -11.1944 6.53353
3644 21 14 4.60654 -1.27231 1.77401
3832 21 134 -0.0210766 3.19258 7.71317
3726 21 66 11.5794 -18.2441 0.184217
3824 21 128 13.013 -10.2408 -7.77068
3830 21 132 8.02554 -15.9968 17.7866
3723 21 63 8.3382 -0.462188 -2.77156
3814 21 120 14.0713 7.81869 -3.64494
ITEM: TIMESTEP
525000
ITEM: NUMBER OF ATOMS
20
ITEM: BOX BOUNDS pp pp pp
-1.8490852002518221e+01 1.6671832223592784e+01
-2.3997452702096588e+01 1.3770044460009181e+01
-9.4870957362816775e+00 2.0859754561168476e+01
ITEM: ATOMS id type mol x y z
3825 21 129 -11.4879 -14.2071 15.5446
3642 21 12 -13.9869 5.61809 -0.975799
3834 21 136 -10.1502 -0.178122 17.6568
3807 21 115 -6.13382 -9.09111 5.89015
3718 21 60 -1.31102 -1.84696 -2.13683
3823 21 127 -7.24647 -2.42757 16.7405
3835 21 137 -5.86123 1.883 -5.8885
3829 21 131 -9.20224 4.49077 8.95258
3753 21 81 -8.5306 5.68871 12.015
3818 21 124 -8.14969 8.06765 1.52088
3831 21 133 -5.09916 11.4849 -7.41614
3774 21 94 -2.13261 9.3495 14.8953
3833 21 135 -8.83979 13.6147 17.5469
3687 21 39 2.4899 -11.082 6.5446
3644 21 14 4.67882 -1.34332 1.72292
3832 21 134 -0.00943583 3.03903 7.73964
3726 21 66 11.7431 -18.0014 0.112361
3824 21 128 13.1955 -10.146 -7.94642
3723 21 63 8.45937 -0.548172 -2.88201
3814 21 120 14.2676 7.57963 -3.7668
ITEM: TIMESTEP
530000
ITEM: NUMBER OF ATOMS
19
ITEM: BOX BOUNDS pp pp pp
-1.8420343776766600e+01 1.6601323997841163e+01
-2.4140245157431984e+01 1.3912836915344577e+01
-9.2648563532546433e+00 2.0637515178151101e+01
ITEM: ATOMS id type mol x y z
3825 21 129 -11.4455 -14.2759 15.4002
3642 21 12 -13.9345 5.69924 -0.878221
3834 21 136 -10.1132 -0.140801 17.4815
3807 21 115 -6.11287 -9.12118 5.88716
3718 21 60 -1.30941 -1.82226 -2.02225
3823 21 127 -7.22106 -2.40725 16.5786
3835 21 137 -5.84137 1.93591 -5.71897
3829 21 131 -9.16898 4.56339 8.90474
3818 21 124 -8.12066 8.16732 1.58189
3831 21 133 -5.08236 11.6104 -7.22423
3774 21 94 -2.12771 9.45887 14.7604
3833 21 135 -8.80799 13.7564 17.3732
3687 21 39 2.47626 -11.1271 6.53203
3644 21 14 4.65641 -1.3148 1.78097
3832 21 134 -0.0130455 3.10068 7.70957
3726 21 66 11.6923 -18.0989 0.194001
3824 21 128 13.1389 -10.1841 -7.74675
3723 21 63 8.4218 -0.513649 -2.75652
3814 21 120 14.2067 7.67561 -3.62834
ITEM: TIMESTEP
535000
ITEM: NUMBER OF ATOMS
19
ITEM: BOX BOUNDS pp pp pp
-1.8669025230578651e+01 1.6850005451653214e+01
-2.4150037251119361e+01 1.3922629009031954e+01
-9.3299424626943726e+00 2.0702601287564942e+01
ITEM: ATOMS id type mol x y z
3825 21 129 -11.5951 -14.2806 15.4425
3642 21 12 -14.1194 5.70481 -0.906798
3834 21 136 -10.2439 -0.138242 17.5329
3807 21 115 -6.18676 -9.12325 5.88804
3718 21 60 -1.31509 -1.82056 -2.05581
3823 21 127 -7.31069 -2.40586 16.626
3835 21 137 -5.91141 1.93953 -5.76862
3829 21 131 -9.28628 4.56837 8.91875
3818 21 124 -8.22307 8.17415 1.56402
3831 21 133 -5.14162 11.619 -7.28044
3774 21 94 -2.14501 9.46637 14.7999
3833 21 135 -8.92016 13.7661 17.4241
3687 21 39 2.52435 -11.1302 6.53571
3644 21 14 4.73545 -1.31285 1.76397
3832 21 134 -0.000314283 3.10491 7.71837
3726 21 66 11.8713 -18.1055 0.170092
3824 21 128 13.3384 -10.1867 -7.80523
3723 21 63 8.55432 -0.511282 -2.79327
3814 21 120 14.4214 7.68219 -3.66889
ITEM: TIMESTEP
540000
ITEM: NUMBER OF ATOMS
19
ITEM: BOX BOUNDS pp pp pp
-1.8436602203608999e+01 1.6617582424683562e+01
-2.4063170103111162e+01 1.3835761861023755e+01
-9.4122156749260917e+00 2.0784874499768488e+01
ITEM: ATOMS id type mol x y z
3825 21 129 -11.4553 -14.2388 15.4959
3642 21 12 -13.9466 5.65544 -0.942922
3834 21 136 -10.1217 -0.160946 17.5978
3807 21 115 -6.1177 -9.10495 5.88914
3718 21 60 -1.30978 -1.83559 -2.09823
3823 21 127 -7.22692 -2.41822 16.686
3835 21 137 -5.84595 1.90735 -5.83138
3829 21 131 -9.17665 4.52419 8.93646
3818 21 124 -8.12735 8.11352 1.54143
3831 21 133 -5.08623 11.5426 -7.35148
3774 21 94 -2.12884 9.39983 14.8498
3833 21 135 -8.81532 13.6799 17.4884
3687 21 39 2.47941 -11.1028 6.54036
3644 21 14 4.66158 -1.33019 1.74248
3832 21 134 -0.0122131 3.0674 7.72951
3726 21 66 11.704 -18.0463 0.139869
3824 21 128 13.1519 -10.1635 -7.87915
3723 21 63 8.43046 -0.532284 -2.83973
3814 21 120 14.2208 7.6238 -3.72015
ITEM: TIMESTEP
545000
ITEM: NUMBER OF ATOMS
19
ITEM: BOX BOUNDS pp pp pp
-1.8585172204153938e+01 1.6766152425228501e+01
-2.3977085038556023e+01 1.3749676796468616e+01
-9.3777384212546409e+00 2.0750397246083718e+01
ITEM: ATOMS id type mol x y z
3825 21 129 -11.5447 -14.1973 15.4735
3642 21 12 -14.0571 5.60652 -0.927784
3834 21 136 -10.1998 -0.183446 17.5706
3807 21 115 -6.16184 -9.08682 5.88868
3718 21 60 -1.31317 -1.85048 -2.08045
3823 21 127 -7.28047 -2.43046 16.6609
3835 21 137 -5.88779 1.87545 -5.80508
3829 21 131 -9.24673 4.48041 8.92904
3818 21 124 -8.18854 8.05343 1.5509
3831 21 133 -5.12163 11.467 -7.32171
3774 21 94 -2.13918 9.3339 14.8289
3833 21 135 -8.88234 13.5945 17.4615
3687 21 39 2.50813 -11.0756 6.53841
3644 21 14 4.7088 -1.34738 1.75148
3832 21 134 -0.00460713 3.03024 7.72484
3726 21 66 11.8109 -17.9875 0.152534
3824 21 128 13.2711 -10.1406 -7.84817
3723 21 63 8.50963 -0.553097 -2.82026
3814 21 120 14.349 7.56594 -3.69867
ITEM: TIMESTEP
550000
ITEM: NUMBER OF ATOMS
19
ITEM: BOX BOUNDS pp pp pp
-1.8542857085804968e+01 1.6723837306879531e+01
-2.4223482330893631e+01 1.3996074088806225e+01
-9.3101457259391864e+00 2.0682804550759052e+01
ITEM: ATOMS id type mol x y z
3825 21 129 -11.5192 -14.3159 15.4296
3642 21 12 -14.0256 5.74655 -0.898106
3834 21 136 -10.1776 -0.119046 17.5172
3807 21 115 -6.14927 -9.13872 5.88777
3718 21 60 -1.31221 -1.80786 -2.0456
3823 21 127 -7.26521 -2.39541 16.6116
3835 21 137 -5.87588 1.96675 -5.75351
3829 21 131 -9.22677 4.60573 8.91449
3818 21 124 -8.17111 8.22542 1.56946
3831 21 133 -5.11155 11.6835 -7.26334
3774 21 94 -2.13623 9.52262 14.7879
3833 21 135 -8.86325 13.8389 17.4086
3687 21 39 2.49995 -11.1535 6.53459
3644 21 14 4.69535 -1.29819 1.76914
3832 21 134 -0.00677344 3.13662 7.7157
3726 21 66 11.7805 -18.1557 0.177364
3824 21 128 13.2372 -10.2063 -7.78744
3723 21 63 8.48708 -0.493525 -2.78209
3814 21 120 14.3125 7.73156 -3.65656
ITEM: TIMESTEP
555000
ITEM: NUMBER OF ATOMS
17
ITEM: BOX BOUNDS pp pp pp
-1.8632951381133001e+01 1.6813931602207564e+01
-2.3957339232781603e+01 1.3729930990694196e+01
-9.3072162399342027e+00 2.0679875064736621e+01
ITEM: ATOMS id type mol x y z
3825 21 129 -11.5734 -14.1878 15.4277
3642 21 12 -14.0926 5.59529 -0.89682
3834 21 136 -10.2249 -0.188607 17.5149
3807 21 115 -6.17604 -9.08266 5.88773
3718 21 60 -1.31427 -1.8539 -2.04409
3823 21 127 -7.29769 -2.43327 16.6095
3835 21 137 -5.90125 1.86814 -5.75128
3829 21 131 -9.26927 4.47036 8.91386
3818 21 124 -8.20821 8.03965 1.57026
3774 21 94 -2.1425 9.31878 14.7861
3833 21 135 -8.90389 13.575 17.4063
3687 21 39 2.51737 -11.0693 6.53442
3644 21 14 4.72399 -1.35132 1.76991
3726 21 66 11.8453 -17.974 0.17844
3824 21 128 13.3095 -10.1353 -7.78481
3723 21 63 8.53509 -0.557871 -2.78044
3814 21 120 14.3903 7.55266 -3.65474
ITEM: TIMESTEP
560000
ITEM: NUMBER OF ATOMS
17
ITEM: BOX BOUNDS pp pp pp
-1.8734757052013421e+01 1.6915737273087984e+01
-2.4062230817875133e+01 1.3834822575787726e+01
-9.1719385500970638e+00 2.0544597374899720e+01
ITEM: ATOMS id type mol x y z
3825 21 129 -11.6347 -14.2383 15.3398
3642 21 12 -14.1683 5.6549 -0.837424
3834 21 136 -10.2784 -0.161192 17.4082
3807 21 115 -6.20629 -9.10475 5.88592
3718 21 60 -1.31659 -1.83575 -1.97434
3823 21 127 -7.33438 -2.41835 16.5109
3835 21 137 -5.92992 1.907 -5.64808
3829 21 131 -9.31729 4.52371 8.88474
3818 21 124 -8.25014 8.11286 1.6074
3774 21 94 -2.14958 9.39911 14.704
3833 21 135 -8.94981 13.679 17.3006
3687 21 39 2.53706 -11.1025 6.52677
3644 21 14 4.75635 -1.33038 1.80524
3726 21 66 11.9186 -18.0456 0.228134
3824 21 128 13.3911 -10.1633 -7.66327
3723 21 63 8.58934 -0.532511 -2.70405
3814 21 120 14.4782 7.62317 -3.57046
ITEM: TIMESTEP
565000
ITEM: NUMBER OF ATOMS
17
ITEM: BOX BOUNDS pp pp pp
-1.8455312285945553e+01 1.6636292507020116e+01
-2.4308148689461344e+01 1.4080740447373937e+01
-9.2593673354530175e+00 2.0632026160226463e+01
ITEM: ATOMS id type mol x y z
3825 21 129 -11.4665 -14.3567 15.3966
3642 21 12 -13.9605 5.79466 -0.875811
3834 21 136 -10.1316 -0.0969169 17.4772
3807 21 115 -6.12326 -9.15655 5.88709
3718 21 60 -1.31021 -1.79321 -2.01942
3823 21 127 -7.23366 -2.38337 16.5746
3835 21 137 -5.85122 1.99812 -5.71478
3829 21 131 -9.18548 4.64879 8.90356
3818 21 124 -8.13506 8.28452 1.58339
3774 21 94 -2.13014 9.58746 14.757
3833 21 135 -8.82376 13.9229 17.3689
3687 21 39 2.48302 -11.1802 6.53172
3644 21 14 4.66752 -1.28128 1.7824
3726 21 66 11.7175 -18.2134 0.196017
3824 21 128 13.1669 -10.2288 -7.74182
3723 21 63 8.44043 -0.473055 -2.75342
3814 21 120 14.2369 7.78847 -3.62493
ITEM: TIMESTEP
570000
ITEM: NUMBER OF ATOMS
17
ITEM: BOX BOUNDS pp pp pp
-1.8437243296305994e+01 1.6618223517380557e+01
-2.4116897989734536e+01 1.3889489747647129e+01
-9.2973735725101676e+00 2.0670032397260890e+01
ITEM: ATOMS id type mol x y z
3825 21 129 -11.4556 -14.2646 15.4213
3642 21 12 -13.947 5.68597 -0.892498
3834 21 136 -10.1221 -0.146903 17.5072
3807 21 115 -6.11789 -9.11627 5.8876
3718 21 60 -1.3098 -1.82629 -2.03902
3823 21 127 -7.22715 -2.41058 16.6023
3829 21 131 -9.17696 4.55152 8.91174
3818 21 124 -8.12762 8.15102 1.57296
3774 21 94 -2.12888 9.44098 14.7801
3833 21 135 -8.81561 13.7332 17.3986
3687 21 39 2.47953 -11.1198 6.53387
3644 21 14 4.66178 -1.31947 1.77248
3726 21 66 11.7045 -18.0829 0.182056
3839 21 139 12.4658 -17.6658 14.2648
3824 21 128 13.1524 -10.1779 -7.77596
3723 21 63 8.4308 -0.519294 -2.77488
3814 21 120 14.2213 7.65992 -3.6486
ITEM: TIMESTEP
575000
ITEM: NUMBER OF ATOMS
18
ITEM: BOX BOUNDS pp pp pp
-1.8427021719900267e+01 1.6608001940974830e+01
-2.4100637736887645e+01 1.3873229494800238e+01
-9.4568233008165308e+00 2.0829482125528109e+01
ITEM: ATOMS id type mol x y z
3825 21 129 -11.4495 -14.2568 15.5249
3642 21 12 -13.9394 5.67673 -0.962507
3834 21 136 -10.1167 -0.151153 17.633
3840 21 140 -10.2122 6.7283 11.7397
3807 21 115 -6.11485 -9.11284 5.88974
3718 21 60 -1.30956 -1.82911 -2.12123
3823 21 127 -7.22346 -2.41289 16.7185
3829 21 131 -9.17213 4.54325 8.94606
3818 21 124 -8.12341 8.13967 1.52919
3774 21 94 -2.12817 9.42853 14.8769
3833 21 135 -8.811 13.7171 17.5233
3687 21 39 2.47755 -11.1146 6.54288
3644 21 14 4.65853 -1.32271 1.73083
3726 21 66 11.6971 -18.0718 0.123482
3839 21 139 12.458 -17.655 14.356
3824 21 128 13.1442 -10.1735 -7.91922
3723 21 63 8.42535 -0.523225 -2.86492
3814 21 120 14.2125 7.64899 -3.74794
ITEM: TIMESTEP
580000
ITEM: NUMBER OF ATOMS
17
ITEM: BOX BOUNDS pp pp pp
-1.8386953070865729e+01 1.6567933291940292e+01
-2.4113326659326351e+01 1.3885918417238944e+01
-9.4105210720529193e+00 2.0783179896752586e+01
ITEM: ATOMS id type mol x y z
3825 21 129 -11.4254 -14.2629 15.4948
3642 21 12 -13.9096 5.68394 -0.942178
3834 21 136 -10.0956 -0.147837 17.5964
3840 21 140 -10.1909 6.73622 11.7212
3807 21 115 -6.10294 -9.11551 5.88912
3718 21 60 -1.30865 -1.82691 -2.09735
3823 21 127 -7.20902 -2.41108 16.6847
3829 21 131 -9.15323 4.5497 8.9361
3818 21 124 -8.10691 8.14853 1.5419
3774 21 94 -2.12539 9.43825 14.8488
3833 21 135 -8.79293 13.7297 17.4871
3687 21 39 2.46981 -11.1186 6.54027
3644 21 14 4.64579 -1.32018 1.74292
3726 21 66 11.6683 -18.0805 0.140491
3839 21 139 12.4274 -17.6634 14.3295
3824 21 128 13.1121 -10.1769 -7.87762
3723 21 63 8.404 -0.520158 -2.83877
ITEM: TIMESTEP
585000
ITEM: NUMBER OF ATOMS
17
ITEM: BOX BOUNDS pp pp pp
-1.8500893700263354e+01 1.6681873921337917e+01
-2.4140860517766932e+01 1.3913452275679525e+01
-9.3677475492473228e+00 2.0740406373935013e+01
ITEM: ATOMS id type mol x y z
3825 21 129 -11.4939 -14.2762 15.467
3642 21 12 -13.9944 5.69959 -0.923397
3834 21 136 -10.1555 -0.14064 17.5627
3840 21 140 -10.2514 6.75339 11.7041
3807 21 115 -6.1368 -9.12131 5.88855
3718 21 60 -1.31125 -1.82215 -2.0753
3823 21 127 -7.25009 -2.40717 16.6536
3829 21 131 -9.20698 4.56371 8.92689
3818 21 124 -8.15383 8.16775 1.55364
3774 21 94 -2.13331 9.45934 14.8228
3833 21 135 -8.84432 13.757 17.4536
3687 21 39 2.49184 -11.1273 6.53785
3644 21 14 4.68201 -1.31468 1.75409
3726 21 66 11.7503 -18.0993 0.156204
3839 21 139 12.5144 -17.6816 14.305
3824 21 128 13.2035 -10.1843 -7.83919
3723 21 63 8.46472 -0.513501 -2.81462
ITEM: TIMESTEP
590000
ITEM: NUMBER OF ATOMS
17
ITEM: BOX BOUNDS pp pp pp
-1.8424060679527582e+01 1.6605040900602145e+01
-2.4211038543712800e+01 1.3983630301625393e+01
-9.3662673379403749e+00 2.0738926162610248e+01
ITEM: ATOMS id type mol x y z
3825 21 129 -11.4477 -14.31 15.4661
3642 21 12 -13.9372 5.73947 -0.922747
3834 21 136 -10.1151 -0.122298 17.5615
3840 21 140 -10.2106 6.79716 11.7035
3807 21 115 -6.11397 -9.13609 5.88853
3718 21 60 -1.3095 -1.81001 -2.07454
3823 21 127 -7.22239 -2.39718 16.6525
3829 21 131 -9.17074 4.5994 8.92657
3818 21 124 -8.12219 8.21673 1.55405
3774 21 94 -2.12797 9.51309 14.8219
3833 21 135 -8.80967 13.8266 17.4525
3687 21 39 2.47698 -11.1495 6.53776
3644 21 14 4.65759 -1.30067 1.75448
3726 21 66 11.695 -18.1472 0.156748
3839 21 139 12.4558 -17.728 14.3042
3824 21 128 13.1419 -10.203 -7.83786
3723 21 63 8.42378 -0.496534 -2.81378
ITEM: TIMESTEP
595000
ITEM: NUMBER OF ATOMS
17
ITEM: BOX BOUNDS pp pp pp
-1.8359287582574773e+01 1.6540267803649336e+01
-2.4211065062012761e+01 1.3983656819925354e+01
-9.3734328332965298e+00 2.0746091657947527e+01
ITEM: ATOMS id type mol x y z
3825 21 129 -11.4087 -14.31 15.4707
3642 21 12 -13.8891 5.73949 -0.925893
3834 21 136 -10.0811 -0.122291 17.5672
3840 21 140 -10.1762 6.79718 11.7063
3807 21 115 -6.09472 -9.1361 5.88862
3718 21 60 -1.30802 -1.81 -2.07823
3823 21 127 -7.19905 -2.39718 16.6577
3829 21 131 -9.14019 4.59941 8.92811
3818 21 124 -8.09551 8.21675 1.55208
3774 21 94 -2.12346 9.51311 14.8263
3833 21 135 -8.78045 13.8266 17.4581
3687 21 39 2.46446 -11.1495 6.53817
3644 21 14 4.637 -1.30066 1.75261
3726 21 66 11.6484 -18.1472 0.154115
3839 21 139 12.4063 -17.728 14.3083
3824 21 128 13.0899 -10.203 -7.8443
3723 21 63 8.38926 -0.496527 -2.81783
ITEM: TIMESTEP
600000
ITEM: NUMBER OF ATOMS
18
ITEM: BOX BOUNDS pp pp pp
-1.8311817386625552e+01 1.6492797607700115e+01
-2.4288962325496097e+01 1.4061554083408691e+01
-9.4142156493976970e+00 2.0786874474025140e+01
ITEM: ATOMS id type mol x y z
3825 21 129 -11.3802 -14.3475 15.4972
3642 21 12 -13.8537 5.78376 -0.9438
3834 21 136 -10.0561 -0.101932 17.5993
3847 21 143 -11.5736 8.20269 1.82643
3840 21 140 -10.151 6.84576 11.7226
3807 21 115 -6.08062 -9.15251 5.88917
3718 21 60 -1.30693 -1.79653 -2.09926
3823 21 127 -7.18194 -2.3861 16.6874
3829 21 131 -9.11779 4.63903 8.93689
3818 21 124 -8.07597 8.27113 1.54089
3774 21 94 -2.12016 9.57277 14.851
3833 21 135 -8.75904 13.9039 17.49
3687 21 39 2.45528 -11.1741 6.54047
3644 21 14 4.62191 -1.28511 1.74196
3726 21 66 11.6142 -18.2003 0.139134
3839 21 139 12.3701 -17.7794 14.3317
3824 21 128 13.0518 -10.2237 -7.88094
3723 21 63 8.36396 -0.477694 -2.84086
ITEM: TIMESTEP
605000
ITEM: NUMBER OF ATOMS
20
ITEM: BOX BOUNDS pp pp pp
-1.8461740213463145e+01 1.6642720434537708e+01
-2.4302263975682411e+01 1.4074855733595005e+01
-9.3226669631842789e+00 2.0695325787806915e+01
ITEM: ATOMS id type mol x y z
3825 21 129 -11.4704 -14.3539 15.4377
3642 21 12 -13.9653 5.79132 -0.903604
3834 21 136 -10.1349 -0.0984549 17.5271
3847 21 143 -11.6655 8.21193 1.84983
3840 21 140 -10.2306 6.85406 11.6861
3807 21 115 -6.12517 -9.15531 5.88794
3718 21 60 -1.31036 -1.79423 -2.05206
3823 21 127 -7.23598 -2.38421 16.6207
3829 21 131 -9.18851 4.6458 8.91719
3818 21 124 -8.13771 8.28041 1.56602
3774 21 94 -2.13059 9.58296 14.7955
3833 21 135 -8.82666 13.9171 17.4184
3687 21 39 2.48427 -11.1784 6.5353
3644 21 14 4.66957 -1.28246 1.76587
3726 21 66 11.7221 -18.2094 0.172764
3839 21 139 12.4845 -17.7882 14.2792
3848 21 144 9.70909 -9.82967 -4.02459
3824 21 128 13.1721 -10.2273 -7.79869
3723 21 63 8.44386 -0.474478 -2.78916
3849 21 145 14.42 7.78682 -3.44803
ITEM: TIMESTEP
610000
ITEM: NUMBER OF ATOMS
19
ITEM: BOX BOUNDS pp pp pp
-1.8659855882056792e+01 1.6840836103131355e+01
-2.4129861887796121e+01 1.3902453645708714e+01
-9.3445939585717106e+00 2.0717252783173560e+01
ITEM: ATOMS id type mol x y z
3825 21 129 -11.5896 -14.2709 15.452
3642 21 12 -14.1126 5.69334 -0.913231
3834 21 136 -10.2391 -0.143515 17.5444
3847 21 143 -11.7869 8.09221 1.84423
3840 21 140 -10.3359 6.74653 11.6948
3807 21 115 -6.18404 -9.119 5.88824
3718 21 60 -1.31488 -1.82405 -2.06336
3823 21 127 -7.30738 -2.40873 16.6367
3829 21 131 -9.28196 4.55811 8.92191
3818 21 124 -8.21929 8.16007 1.56
3774 21 94 -2.14437 9.45091 14.8088
3833 21 135 -8.91603 13.7461 17.4356
3687 21 39 2.52257 -11.1239 6.53654
3644 21 14 4.73254 -1.31688 1.76014
3726 21 66 11.8647 -18.0918 0.164709
3839 21 139 12.6357 -17.6743 14.2918
3848 21 144 9.82894 -9.78729 -4.03878
3824 21 128 13.331 -10.1813 -7.81839
3723 21 63 8.54943 -0.51616 -2.80154
ITEM: TIMESTEP
615000
ITEM: NUMBER OF ATOMS
17
ITEM: BOX BOUNDS pp pp pp
-1.8452062671348653e+01 1.6633042892423216e+01
-2.4201780736506578e+01 1.3974372494419171e+01
-9.3984570868280919e+00 2.0771115911404443e+01
ITEM: ATOMS id type mol x y z
3825 21 129 -11.4646 -14.3055 15.487
3642 21 12 -13.9581 5.73421 -0.936881
3834 21 136 -10.1299 -0.124718 17.5869
3847 21 143 -11.6596 8.14215 1.83046
3840 21 140 -10.2255 6.79139 11.7163
3718 21 60 -1.31013 -1.81161 -2.09113
3823 21 127 -7.23249 -2.3985 16.6759
3829 21 131 -9.18395 4.59469 8.9335
3818 21 124 -8.13372 8.21027 1.54521
3774 21 94 -2.12992 9.506 14.8415
3833 21 135 -8.8223 13.8174 17.4777
3687 21 39 2.4824 -11.1466 6.53958
3644 21 14 4.66649 -1.30252 1.74607
3726 21 66 11.7152 -18.1409 0.144923
3839 21 139 12.4771 -17.7218 14.3226
3848 21 144 9.70323 -9.80497 -4.07363
3723 21 63 8.4387 -0.498772 -2.83196
ITEM: TIMESTEP
620000
ITEM: NUMBER OF ATOMS
17
ITEM: BOX BOUNDS pp pp pp
-1.8474379816527115e+01 1.6655360037601678e+01
-2.4246618971904713e+01 1.4019210729817306e+01
-9.3495312387184661e+00 2.0722190063284259e+01
ITEM: ATOMS id type mol x y z
3825 21 129 -11.478 -14.3271 15.4552
3642 21 12 -13.9747 5.75969 -0.915399
3834 21 136 -10.1416 -0.112999 17.5483
3847 21 143 -11.6732 8.17329 1.84296
3840 21 140 -10.2374 6.81935 11.6968
3718 21 60 -1.31064 -1.80385 -2.06591
3823 21 127 -7.24053 -2.39212 16.6403
3829 21 131 -9.19447 4.6175 8.92297
3818 21 124 -8.14291 8.24157 1.55864
3774 21 94 -2.13147 9.54034 14.8118
3833 21 135 -8.83236 13.8619 17.4394
3687 21 39 2.48671 -11.1608 6.53682
3644 21 14 4.67358 -1.29357 1.75885
3854 21 148 0.574849 0.876454 5.04701
3839 21 139 12.4942 -17.7515 14.2946
3848 21 144 9.71673 -9.81599 -4.04197
3723 21 63 8.45059 -0.487931 -2.80433
ITEM: TIMESTEP
625000
ITEM: NUMBER OF ATOMS
17
ITEM: BOX BOUNDS pp pp pp
-1.8241496101173812e+01 1.6422476322248375e+01
-2.4206603770212325e+01 1.3979195528124919e+01
-9.5607391297367634e+00 2.0933397954253710e+01
ITEM: ATOMS id type mol x y z
3825 21 129 -11.3379 -14.3078 15.5924
3642 21 12 -13.8014 5.73695 -1.00813
3834 21 136 -10.0192 -0.123457 17.7149
3847 21 143 -11.5305 8.1455 1.78898
3840 21 140 -10.1137 6.79439 11.7812
3718 21 60 -1.30533 -1.81078 -2.1748
3823 21 127 -7.15659 -2.39782 16.7942
3829 21 131 -9.08463 4.59714 8.96843
3818 21 124 -8.04701 8.21364 1.50066
3774 21 94 -2.11527 9.50969 14.9399
3833 21 135 -8.72732 13.8222 17.6045
3687 21 39 2.44168 -11.1481 6.54876
3644 21 14 4.59956 -1.30156 1.70368
3854 21 148 0.555168 0.863926 5.03803
3839 21 139 12.3164 -17.725 14.4155
3848 21 144 9.57585 -9.80616 -4.17863
3723 21 63 8.32649 -0.497606 -2.9236
ITEM: TIMESTEP
630000
ITEM: NUMBER OF ATOMS
18
ITEM: BOX BOUNDS pp pp pp
-1.8536018192448751e+01 1.6716998413523314e+01
-2.4050972122777836e+01 1.3823563880690429e+01
-9.3639804374040239e+00 2.0736639261931767e+01
ITEM: ATOMS id type mol x y z
3825 21 129 -11.5151 -14.2329 15.4646
3642 21 12 -14.0205 5.64851 -0.921743
3834 21 136 -10.174 -0.164134 17.5597
3847 21 143 -11.711 8.03742 1.83927
3840 21 140 -10.2701 6.69733 11.7026
3718 21 60 -1.31205 -1.8377 -2.07336
3823 21 127 -7.26275 -2.41995 16.6508
3829 21 131 -9.22355 4.51799 8.92608
3818 21 124 -8.16829 8.105 1.55468
3774 21 94 -2.13576 9.39049 14.8205
3833 21 135 -8.86017 13.6678 17.4507
3687 21 39 2.49863 -11.0989 6.53763
3644 21 14 4.69318 -1.33263 1.75508
3858 21 150 1.21936 -7.15656 19.8871
3854 21 148 0.580058 0.8152 5.04639
3839 21 139 12.5412 -17.6222 14.3029
3848 21 144 9.75402 -9.76791 -4.05132
3723 21 63 8.48344 -0.535233 -2.81249
ITEM: TIMESTEP
635000
ITEM: NUMBER OF ATOMS
18
ITEM: BOX BOUNDS pp pp pp
-1.8561568791410263e+01 1.6742549012484826e+01
-2.4098674456068924e+01 1.3871266213981517e+01
-9.3469112249079629e+00 2.0719570049420412e+01
ITEM: ATOMS id type mol x y z
3825 21 129 -11.5304 -14.2558 15.4535
3642 21 12 -14.0395 5.67562 -0.914249
3834 21 136 -10.1874 -0.151666 17.5462
3847 21 143 -11.7267 8.07055 1.84363
3840 21 140 -10.2837 6.72708 11.6957
3718 21 60 -1.31264 -1.82945 -2.06456
3823 21 127 -7.27196 -2.41317 16.6384
3829 21 131 -9.2356 4.54225 8.9224
3818 21 124 -8.17882 8.1383 1.55936
3774 21 94 -2.13753 9.42703 14.8102
3833 21 135 -8.87169 13.7151 17.4374
3687 21 39 2.50357 -11.114 6.53667
3644 21 14 4.7013 -1.3231 1.75954
3858 21 150 1.22245 -7.16171 19.871
3854 21 148 0.582217 0.830135 5.04712
3839 21 139 12.5607 -17.6537 14.2931
3723 21 63 8.49705 -0.5237 -2.80285
3859 21 151 13.3162 7.52563 -4.2303
ITEM: TIMESTEP
640000
ITEM: NUMBER OF ATOMS
17
ITEM: BOX BOUNDS pp pp pp
-1.8515015867225259e+01 1.6695996088299822e+01
-2.4149929370281839e+01 1.3922521128194433e+01
-9.2409757531466994e+00 2.0613634577656740e+01
ITEM: ATOMS id type mol x y z
3825 21 129 -11.5024 -14.2805 15.3847
3642 21 12 -14.0049 5.70474 -0.867736
3834 21 136 -10.1629 -0.13827 17.4627
3847 21 143 -11.6981 8.10614 1.87071
3840 21 140 -10.2589 6.75905 11.6534
3718 21 60 -1.31157 -1.82058 -2.00994
3823 21 127 -7.25518 -2.40588 16.5612
3829 21 131 -9.21364 4.56832 8.8996
3818 21 124 -8.15965 8.17408 1.58844
3774 21 94 -2.13429 9.46628 14.7459
3833 21 135 -8.85069 13.766 17.3546
3687 21 39 2.49457 -11.1302 6.53068
3644 21 14 4.6865 -1.31287 1.78721
3854 21 148 0.578283 0.846182 5.05162
3839 21 139 12.5252 -17.6876 14.2325
3723 21 63 8.47225 -0.511308 -2.74303
3859 21 151 13.2787 7.55975 -4.16042
ITEM: TIMESTEP
645000
ITEM: NUMBER OF ATOMS
18
ITEM: BOX BOUNDS pp pp pp
-1.8398896564437294e+01 1.6579876785511857e+01
-2.4240060102088577e+01 1.4012651860001171e+01
-9.3052966018961882e+00 2.0677955426378876e+01
ITEM: ATOMS id type mol x y z
3825 21 129 -11.4326 -14.3239 15.4265
3642 21 12 -13.9185 5.75597 -0.895977
3863 21 153 -16.4141 1.5842 0.98677
3834 21 136 -10.1019 -0.114713 17.5134
3847 21 143 -11.627 8.16873 1.85427
3840 21 140 -10.1973 6.81526 11.6791
3718 21 60 -1.30892 -1.80499 -2.0431
3823 21 127 -7.21332 -2.39306 16.6081
3829 21 131 -9.15887 4.61416 8.91345
3818 21 124 -8.11183 8.23699 1.57079
3774 21 94 -2.12622 9.53531 14.7849
3833 21 135 -8.79832 13.8554 17.4048
3687 21 39 2.47212 -11.1587 6.53431
3644 21 14 4.64959 -1.29488 1.77041
3854 21 148 0.56847 0.8744 5.04889
3839 21 139 12.4366 -17.7471 14.2693
3723 21 63 8.41037 -0.489517 -2.77935
3859 21 151 13.1851 7.61976 -4.20285
ITEM: TIMESTEP
650000
ITEM: NUMBER OF ATOMS
17
ITEM: BOX BOUNDS pp pp pp
-1.8501848405317919e+01 1.6682828626392482e+01
-2.4069528239136762e+01 1.3842119997049355e+01
-9.3565580299923603e+00 2.0729216854449465e+01
ITEM: ATOMS id type mol x y z
3825 21 129 -11.4945 -14.2418 15.4598
3642 21 12 -13.9951 5.65905 -0.918484
3863 21 153 -16.5054 1.52448 0.970701
3834 21 136 -10.156 -0.159284 17.5539
3847 21 143 -11.6901 8.05031 1.84117
3840 21 140 -10.2519 6.7089 11.6996
3718 21 60 -1.31127 -1.83449 -2.06953
3823 21 127 -7.25043 -2.41731 16.6454
3829 21 131 -9.20743 4.52743 8.92448
3818 21 124 -8.15422 8.11796 1.55671
3774 21 94 -2.13338 9.4047 14.816
3687 21 39 2.49202 -11.1048 6.53721
3644 21 14 4.68231 -1.32892 1.75702
3854 21 148 0.57717 0.82101 5.04671
3839 21 139 12.5151 -17.6345 14.2986
3723 21 63 8.46523 -0.530747 -2.8083
3859 21 151 13.2681 7.50623 -4.23667
ITEM: TIMESTEP
655000
ITEM: NUMBER OF ATOMS
18
ITEM: BOX BOUNDS pp pp pp
-1.8327562152721608e+01 1.6508542373796171e+01
-2.4228185109505009e+01 1.4000776867417603e+01
-9.3674029783018078e+00 2.0740061802739302e+01
ITEM: ATOMS id type mol x y z
3825 21 129 -11.3897 -14.3182 15.4668
3642 21 12 -13.8655 5.74922 -0.923246
3863 21 153 -16.3509 1.58005 0.967301
3834 21 136 -10.0644 -0.117817 17.5624
3847 21 143 -11.5833 8.16049 1.83839
3840 21 140 -10.1594 6.80785 11.7039
3718 21 60 -1.30729 -1.80704 -2.07512
3823 21 127 -7.18761 -2.39475 16.6533
3829 21 131 -9.12522 4.60812 8.92682
3818 21 124 -8.08245 8.2287 1.55374
3774 21 94 -2.12125 9.52622 14.8226
3864 21 154 6.01857 -23.5619 18.7298
3687 21 39 2.45832 -11.1549 6.53783
3644 21 14 4.62692 -1.29725 1.75418
3854 21 148 0.562442 0.870683 5.04625
3839 21 139 12.3821 -17.7393 14.3049
3723 21 63 8.37235 -0.492388 -2.81442
3859 21 151 13.1276 7.61185 -4.24382
ITEM: TIMESTEP
660000
ITEM: NUMBER OF ATOMS
18
ITEM: BOX BOUNDS pp pp pp
-1.8291753564331529e+01 1.6472733785406092e+01
-2.4049499576578437e+01 1.3822091334491031e+01
-9.5524183675334449e+00 2.0925077191924558e+01
ITEM: ATOMS id type mol x y z
3825 21 129 -11.3681 -14.2322 15.587
3642 21 12 -13.8388 5.64767 -1.00448
3863 21 153 -16.3191 1.51747 0.909303
3834 21 136 -10.0456 -0.164519 17.7084
3847 21 143 -11.5613 8.0364 1.7911
3840 21 140 -10.1404 6.69641 11.7779
3718 21 60 -1.30647 -1.83795 -2.17051
3823 21 127 -7.17471 -2.42016 16.7881
3829 21 131 -9.10833 4.51724 8.96664
3818 21 124 -8.0677 8.10398 1.50295
3774 21 94 -2.11876 9.38936 14.9349
3864 21 154 6.00433 -23.3894 18.8901
3687 21 39 2.4514 -11.0985 6.54829
3644 21 14 4.61553 -1.33292 1.70586
3854 21 148 0.559415 0.814739 5.03838
3839 21 139 12.3548 -17.6213 14.4108
3723 21 63 8.35327 -0.535589 -2.9189
3859 21 151 13.0987 7.49289 -4.36587
ITEM: TIMESTEP
665000
ITEM: NUMBER OF ATOMS
19
ITEM: BOX BOUNDS pp pp pp
-1.8463559633107756e+01 1.6644539854182320e+01
-2.4169864964595050e+01 1.3942456722507643e+01
-9.3342433719142228e+00 2.0706902196321654e+01
ITEM: ATOMS id type mol x y z
3825 21 129 -11.4715 -14.2901 15.4453
3642 21 12 -13.9666 5.71607 -0.908687
3863 21 153 -16.4714 1.55962 0.977696
3834 21 136 -10.1359 -0.13306 17.5363
3847 21 143 -11.6666 8.11999 1.84687
3840 21 140 -10.2316 6.77148 11.6907
3718 21 60 -1.3104 -1.81713 -2.05802
3823 21 127 -7.23663 -2.40304 16.6292
3829 21 131 -9.18937 4.57846 8.91968
3818 21 124 -8.13845 8.18799 1.56284
3774 21 94 -2.13071 9.48155 14.8025
3864 21 154 6.07267 -23.5056 18.701
3687 21 39 2.48462 -11.1365 6.53595
3644 21 14 4.67014 -1.30889 1.76285
3854 21 148 0.573934 0.852424 5.04766
3865 21 155 6.65047 -0.422389 -0.191644
3839 21 139 12.4859 -17.7008 14.2859
3723 21 63 8.44483 -0.506488 -2.7957
3859 21 151 13.2372 7.57303 -4.22195
ITEM: TIMESTEP
670000
ITEM: NUMBER OF ATOMS
20
ITEM: BOX BOUNDS pp pp pp
-1.8434398807082868e+01 1.6615379028157431e+01
-2.4091282638691677e+01 1.3863874396604270e+01
-9.4139006455406964e+00 2.0786559469917947e+01
ITEM: ATOMS id type mol x y z
3825 21 129 -11.4539 -14.2523 15.497
3642 21 12 -13.9449 5.67142 -0.943661
3863 21 153 -16.4456 1.5321 0.952725
3834 21 136 -10.1206 -0.153598 17.5991
3847 21 143 -11.6487 8.06541 1.82651
3840 21 140 -10.2161 6.72247 11.7225
3718 21 60 -1.30973 -1.83073 -2.09909
3823 21 127 -7.22612 -2.41422 16.6872
3829 21 131 -9.17561 4.53849 8.93682
3818 21 124 -8.12645 8.13314 1.54097
3774 21 94 -2.12869 9.42137 14.8508
3864 21 154 6.06107 -23.4298 18.7701
3687 21 39 2.47898 -11.1117 6.54046
3644 21 14 4.66087 -1.32458 1.74204
3866 21 156 7.18414 -3.14407 11.0468
3854 21 148 0.57147 0.827821 5.04427
3865 21 155 6.63791 -0.441734 -0.222816
3839 21 139 12.4636 -17.6489 14.3315
3723 21 63 8.42929 -0.525487 -2.84068
3859 21 151 13.2137 7.52071 -4.27449
ITEM: TIMESTEP
675000
ITEM: NUMBER OF ATOMS
19
ITEM: BOX BOUNDS pp pp pp
-1.8502948363320382e+01 1.6683928584394945e+01
-2.3951316826244007e+01 1.3723908584156600e+01
-9.4627076592604702e+00 2.0835366483612226e+01
ITEM: ATOMS id type mol x y z
3825 21 129 -11.4952 -14.1849 15.5287
3642 21 12 -13.9959 5.59187 -0.965091
3863 21 153 -16.5063 1.48309 0.937425
3834 21 136 -10.1566 -0.190181 17.6376
3847 21 143 -11.6907 7.96821 1.81403
3840 21 140 -10.2525 6.63517 11.742
3718 21 60 -1.3113 -1.85494 -2.12426
3823 21 127 -7.25083 -2.43413 16.7228
3829 21 131 -9.20795 4.4673 8.94733
3818 21 124 -8.15468 8.03544 1.52757
3774 21 94 -2.13346 9.31416 14.8805
3864 21 154 6.08833 -23.2947 18.8124
3687 21 39 2.49223 -11.0674 6.54322
3644 21 14 4.68266 -1.35253 1.72929
3866 21 156 7.2158 -3.1586 11.0641
3854 21 148 0.577263 0.784 5.04219
3839 21 139 12.516 -17.5564 14.3594
3723 21 63 8.46582 -0.559327 -2.86824
3859 21 151 13.2689 7.42753 -4.30669
ITEM: TIMESTEP
680000
ITEM: NUMBER OF ATOMS
20
ITEM: BOX BOUNDS pp pp pp
-1.8468117952475001e+01 1.6649098173549564e+01
-2.4172515385253760e+01 1.3945107143166354e+01
-9.3838762512205633e+00 2.0756535075567339e+01
ITEM: ATOMS id type mol x y z
3825 21 129 -11.4742 -14.2914 15.4775
3642 21 12 -13.97 5.71758 -0.930479
3863 21 153 -16.4755 1.56055 0.962137
3834 21 136 -10.1383 -0.132367 17.5754
3847 21 143 -11.6694 8.12183 1.83418
3840 21 140 -10.234 6.77313 11.7105
3718 21 60 -1.3105 -1.81667 -2.08361
3823 21 127 -7.23827 -2.40266 16.6653
3829 21 131 -9.19152 4.57981 8.93036
3818 21 124 -8.14033 8.18984 1.54921
3774 21 94 -2.13103 9.48358 14.8326
3864 21 154 6.07448 -23.5082 18.7441
3687 21 39 2.4855 -11.1373 6.53876
3644 21 14 4.67159 -1.30836 1.74988
3866 21 156 7.19971 -3.13564 11.0362
3854 21 148 0.57432 0.853253 5.04555
3873 21 159 4.07051 11.0692 19.2718
3839 21 139 12.4894 -17.7025 14.3143
3723 21 63 8.44725 -0.505847 -2.82373
3859 21 151 13.2409 7.57479 -4.25469
ITEM: TIMESTEP
685000
ITEM: NUMBER OF ATOMS
20
ITEM: BOX BOUNDS pp pp pp
-1.8407537948929487e+01 1.6588518170004050e+01
-2.4107595523549286e+01 1.3880187281461879e+01
-9.4557919223395963e+00 2.0828450746657044e+01
ITEM: ATOMS id type mol x y z
3825 21 129 -11.4378 -14.2601 15.5242
3642 21 12 -13.9249 5.68069 -0.962054
3863 21 153 -16.4218 1.53782 0.939593
3834 21 136 -10.1065 -0.149335 17.6321
3847 21 143 -11.6323 8.07674 1.8158
3840 21 140 -10.2019 6.73264 11.7393
3718 21 60 -1.30912 -1.8279 -2.12069
3823 21 127 -7.21644 -2.4119 16.7177
3829 21 131 -9.16294 4.54679 8.94584
3818 21 124 -8.11538 8.14453 1.52947
3774 21 94 -2.12682 9.43386 14.8763
3864 21 154 6.05038 -23.4455 18.8064
3687 21 39 2.47379 -11.1168 6.54283
3644 21 14 4.65234 -1.32132 1.7311
3866 21 156 7.17174 -3.14238 11.0617
3854 21 148 0.5692 0.832928 5.04249
3873 21 159 4.05333 11.0141 19.3367
3839 21 139 12.4431 -17.6596 14.3555
3723 21 63 8.41497 -0.521543 -2.86434
3859 21 151 13.1921 7.53157 -4.30213
ITEM: TIMESTEP
690000
ITEM: NUMBER OF ATOMS
20
ITEM: BOX BOUNDS pp pp pp
-1.8622101252530275e+01 1.6803081473604838e+01
-2.4112724518243105e+01 1.3885316276155699e+01
-9.3517777571166150e+00 2.0724436581433224e+01
ITEM: ATOMS id type mol x y z
3874 21 160 -13.401 -21.6492 10.6
3825 21 129 -11.5669 -14.2626 15.4567
3642 21 12 -14.0845 5.6836 -0.916385
3863 21 153 -16.612 1.53961 0.972199
3834 21 136 -10.2192 -0.147994 17.5501
3847 21 143 -11.7638 8.0803 1.84239
3840 21 140 -10.3158 6.73584 11.6977
3718 21 60 -1.31402 -1.82702 -2.06707
3823 21 127 -7.29378 -2.41117 16.6419
3829 21 131 -9.26415 4.5494 8.92345
3818 21 124 -8.20374 8.14811 1.55803
3774 21 94 -2.14174 9.43779 14.8131
3864 21 154 6.13573 -23.4504 18.7162
3687 21 39 2.51527 -11.1184 6.53694
3866 21 156 7.27083 -3.14185 11.0248
3854 21 148 0.587332 0.834534 5.04691
3873 21 159 4.11419 11.0185 19.2429
3839 21 139 12.6069 -17.663 14.2959
3723 21 63 8.52931 -0.520303 -2.8056
3859 21 151 13.365 7.53498 -4.23351
ITEM: TIMESTEP
695000
ITEM: NUMBER OF ATOMS
21
ITEM: BOX BOUNDS pp pp pp
-1.8671853758372851e+01 1.6852833979447414e+01
-2.3926968292973655e+01 1.3699560050886248e+01
-9.4340475039632601e+00 2.0806706328248783e+01
ITEM: ATOMS id type mol x y z
3874 21 160 -13.4361 -21.4875 10.6268
3825 21 129 -11.5968 -14.1732 15.5101
3642 21 12 -14.1215 5.57803 -0.952507
3863 21 153 -16.6561 1.47456 0.94641
3834 21 136 -10.2454 -0.196545 17.615
3875 21 161 -13.5505 11.0004 0.95943
3847 21 143 -11.7942 7.95131 1.82136
3840 21 140 -10.3422 6.61999 11.7306
3718 21 60 -1.31515 -1.85915 -2.10948
3823 21 127 -7.31171 -2.43759 16.7019
3829 21 131 -9.28762 4.45492 8.94116
3818 21 124 -8.22423 8.01845 1.53544
3774 21 94 -2.14521 9.29552 14.8631
3864 21 154 6.15552 -23.2712 18.7875
3687 21 39 2.52489 -11.0597 6.5416
3866 21 156 7.29381 -3.16112 11.054
3854 21 148 0.591537 0.776377 5.04341
3873 21 159 4.1283 10.8607 19.3171
3839 21 139 12.6448 -17.5403 14.343
3723 21 63 8.55582 -0.565214 -2.85206
3859 21 151 13.4051 7.41132 -4.28778
ITEM: TIMESTEP
700000
ITEM: NUMBER OF ATOMS
23
ITEM: BOX BOUNDS pp pp pp
-1.8390718330253755e+01 1.6571698551328318e+01
-2.4251710782242199e+01 1.4024302540154792e+01
-9.5214589123024531e+00 2.0894117736555717e+01
ITEM: ATOMS id type mol x y z
3874 21 160 -13.2379 -21.7701 10.6554
3880 21 164 -9.84877 -14.4877 1.52819
3825 21 129 -11.4277 -14.3295 15.5669
3642 21 12 -13.9124 5.76259 -0.990887
3863 21 153 -16.4069 1.58828 0.919008
3834 21 136 -10.0976 -0.111668 17.6839
3875 21 161 -13.3505 11.2786 0.932104
3847 21 143 -11.622 8.17682 1.79902
3840 21 140 -10.1929 6.82253 11.7655
3718 21 60 -1.30873 -1.80297 -2.15455
3823 21 127 -7.21038 -2.3914 16.7656
3829 21 131 -9.15501 4.62009 8.95998
3818 21 124 -8.10846 8.24512 1.51144
3774 21 94 -2.12565 9.54424 14.9161
3864 21 154 6.04369 -23.5846 18.8633
3687 21 39 2.47053 -11.1624 6.54654
3866 21 156 7.16397 -3.12742 11.085
3879 21 163 5.24611 -1.08543 0.0604086
3854 21 148 0.567779 0.878048 5.0397
3873 21 159 4.04856 11.1365 19.3959
3839 21 139 12.4303 -17.7548 14.3931
3723 21 63 8.40601 -0.4867 -2.90142
3859 21 151 13.1785 7.62752 -4.34544
ITEM: TIMESTEP
705000
ITEM: NUMBER OF ATOMS
24
ITEM: BOX BOUNDS pp pp pp
-1.8482890077811685e+01 1.6663870298886248e+01
-2.4329826209046434e+01 1.4102417966959027e+01
-9.2872402793146058e+00 2.0659899103588806e+01
ITEM: ATOMS id type mol x y z
3874 21 160 -13.3029 -21.8381 10.5789
3880 21 164 -9.8959 -14.526 1.59223
3825 21 129 -11.4831 -14.3672 15.4147
3642 21 12 -13.981 5.80698 -0.888049
3863 21 153 -16.4886 1.61564 0.99243
3834 21 136 -10.1461 -0.0912511 17.4992
3875 21 161 -13.4161 11.3455 1.00532
3847 21 143 -11.6785 8.23107 1.85889
3840 21 140 -10.2419 6.87125 11.6719
3718 21 60 -1.31084 -1.78946 -2.03379
3823 21 127 -7.2436 -2.38029 16.5949
3829 21 131 -9.19849 4.65982 8.90956
3818 21 124 -8.14642 8.29965 1.57574
3774 21 94 -2.13206 9.60407 14.774
3864 21 154 6.08035 -23.66 18.6603
3882 21 166 7.5426 -14.4265 17.2758
3687 21 39 2.48836 -11.1871 6.53329
3866 21 156 7.20654 -3.11931 11.0019
3879 21 163 5.27856 -1.06899 0.147055
3854 21 148 0.575568 0.902504 5.04965
3873 21 159 4.0747 11.2028 19.1847
3839 21 139 12.5007 -17.8064 14.259
3723 21 63 8.45513 -0.467814 -2.76916
3859 21 151 13.2528 7.67952 -4.19094
ITEM: TIMESTEP
710000
ITEM: NUMBER OF ATOMS
23
ITEM: BOX BOUNDS pp pp pp
-1.8482205646187651e+01 1.6663185867262214e+01
-2.4299259048162959e+01 1.4071850806075552e+01
-9.2738526900407088e+00 2.0646511514299526e+01
ITEM: ATOMS id type mol x y z
3874 21 160 -13.3024 -21.8115 10.5745
3880 21 164 -9.89555 -14.511 1.59589
3642 21 12 -13.9805 5.78961 -0.882171
3863 21 153 -16.488 1.60493 0.996627
3834 21 136 -10.1457 -0.0992403 17.4886
3875 21 161 -13.4156 11.3193 1.00951
3847 21 143 -11.678 8.20985 1.86231
3840 21 140 -10.2415 6.85218 11.6665
3718 21 60 -1.31082 -1.79475 -2.02689
3823 21 127 -7.24335 -2.38464 16.5852
3829 21 131 -9.19816 4.64427 8.90668
3818 21 124 -8.14613 8.27831 1.57942
3774 21 94 -2.13201 9.58066 14.7658
3864 21 154 6.08008 -23.6305 18.6487
3882 21 166 7.54228 -14.4117 17.2654
3687 21 39 2.48822 -11.1774 6.53253
3866 21 156 7.20622 -3.12249 10.9971
3879 21 163 5.27832 -1.07542 0.152007
3854 21 148 0.57551 0.892934 5.05022
3873 21 159 4.07451 11.1768 19.1727
3839 21 139 12.5001 -17.7862 14.2513
3723 21 63 8.45476 -0.475205 -2.7616
3859 21 151 13.2522 7.65917 -4.18211
ITEM: TIMESTEP
715000
ITEM: NUMBER OF ATOMS
23
ITEM: BOX BOUNDS pp pp pp
-1.8524436433089182e+01 1.6705416654163745e+01
-2.4152494896790639e+01 1.3925086654703232e+01
-9.3976043828261631e+00 2.0770263207046504e+01
ITEM: ATOMS id type mol x y z
3874 21 160 -13.3322 -21.6838 10.6149
3642 21 12 -14.0119 5.7062 -0.936506
3863 21 153 -16.5254 1.55354 0.957834
3834 21 136 -10.1679 -0.1376 17.5862
3875 21 161 -13.4456 11.1936 0.970823
3847 21 143 -11.7039 8.10792 1.83067
3840 21 140 -10.2639 6.76065 11.716
3886 21 168 -8.20884 -15.3002 -0.893405
3718 21 60 -1.31179 -1.82014 -2.09069
3823 21 127 -7.25857 -2.40551 16.6753
3829 21 131 -9.21808 4.56962 8.93332
3818 21 124 -8.16352 8.17587 1.54545
3774 21 94 -2.13495 9.46825 14.8409
3864 21 154 6.09688 -23.4888 18.7559
3882 21 166 7.56259 -14.3405 17.3612
3687 21 39 2.49639 -11.131 6.53953
3866 21 156 7.22572 -3.13772 11.041
3879 21 163 5.29319 -1.10631 0.106227
3854 21 148 0.579079 0.846985 5.04496
3873 21 159 4.08649 11.0522 19.2842
3839 21 139 12.5324 -17.6893 14.3221
3723 21 63 8.47727 -0.510688 -2.83148
3859 21 151 13.2863 7.56146 -4.26374
ITEM: TIMESTEP
720000
ITEM: NUMBER OF ATOMS
23
ITEM: BOX BOUNDS pp pp pp
-1.8717082823588651e+01 1.6898063044663214e+01
-2.3995326590894273e+01 1.3767918348806866e+01
-9.3192515023977549e+00 2.0691910326613598e+01
ITEM: ATOMS id type mol x y z
3874 21 160 -13.468 -21.547 10.5893
3642 21 12 -14.1552 5.61688 -0.902104
3863 21 153 -16.6962 1.4985 0.982396
3834 21 136 -10.2691 -0.178678 17.5244
3875 21 161 -13.5827 11.059 0.995317
3847 21 143 -11.822 7.99878 1.8507
3840 21 140 -10.3662 6.66262 11.6847
3886 21 168 -8.28867 -15.2161 -0.859227
3718 21 60 -1.31619 -1.84733 -2.0503
3823 21 127 -7.32801 -2.42787 16.6182
3829 21 131 -9.30895 4.48969 8.91645
3818 21 124 -8.24286 8.06616 1.56696
3774 21 94 -2.14835 9.34787 14.7934
3864 21 154 6.17351 -23.3371 18.6881
3882 21 166 7.65524 -14.2644 17.3005
3687 21 39 2.53364 -11.0813 6.5351
3866 21 156 7.3147 -3.15403 11.0132
3879 21 163 5.36103 -1.1394 0.135213
3854 21 148 0.595359 0.797779 5.04829
3873 21 159 4.14112 10.9188 19.2136
3839 21 139 12.6794 -17.5855 14.2773
3723 21 63 8.57992 -0.548686 -2.78723
3859 21 151 13.4415 7.45683 -4.21206
ITEM: TIMESTEP
725000
ITEM: NUMBER OF ATOMS
22
ITEM: BOX BOUNDS pp pp pp
-1.8470452086237511e+01 1.6651432307312074e+01
-2.4269131887268948e+01 1.4041723645181541e+01
-9.3332481920318493e+00 2.0705907016227311e+01
ITEM: ATOMS id type mol x y z
3874 21 160 -13.2941 -21.7853 10.5939
3642 21 12 -13.9717 5.77249 -0.90825
3863 21 153 -16.4775 1.59438 0.978008
3834 21 136 -10.1395 -0.107115 17.5355
3847 21 143 -11.6708 8.18892 1.84713
3840 21 140 -10.2353 6.83339 11.6903
3886 21 168 -8.18647 -15.3626 -0.865333
3718 21 60 -1.31055 -1.79996 -2.05751
3823 21 127 -7.23912 -2.38892 16.6284
3829 21 131 -9.19262 4.62895 8.91946
3818 21 124 -8.14129 8.25729 1.56311
3774 21 94 -2.13119 9.55758 14.8019
3864 21 154 6.07541 -23.6014 18.7002
3882 21 166 7.53662 -14.3971 17.3114
3687 21 39 2.48595 -11.1679 6.53589
3866 21 156 7.20079 -3.12561 11.0182
3879 21 163 5.27418 -1.08176 0.130035
3854 21 148 0.574517 0.883502 5.0477
3873 21 159 4.07117 11.1513 19.2262
3839 21 139 12.4912 -17.7663 14.2853
3723 21 63 8.4485 -0.482488 -2.79514
3859 21 151 13.2428 7.63911 -4.22129
ITEM: TIMESTEP
730000
ITEM: NUMBER OF ATOMS
22
ITEM: BOX BOUNDS pp pp pp
-1.8531245149331735e+01 1.6712225370406298e+01
-2.4085888656356985e+01 1.3858480414269579e+01
-9.3930086259997090e+00 2.0765667450167030e+01
ITEM: ATOMS id type mol x y z
3874 21 160 -13.337 -21.6258 10.6134
3642 21 12 -14.017 5.66835 -0.934488
3863 21 153 -16.5314 1.53021 0.959274
3834 21 136 -10.1715 -0.155008 17.5826
3847 21 143 -11.7081 8.06167 1.83185
3840 21 140 -10.2676 6.7191 11.7142
3886 21 168 -8.21166 -15.2646 -0.891401
3718 21 60 -1.31194 -1.83166 -2.08832
3823 21 127 -7.26103 -2.41499 16.672
3829 21 131 -9.22129 4.53575 8.93233
3818 21 124 -8.16633 8.12938 1.54671
3774 21 94 -2.13542 9.41723 14.8382
3864 21 154 6.09959 -23.4245 18.752
3882 21 166 7.56586 -14.3082 17.3576
3687 21 39 2.49771 -11.11 6.53927
3866 21 156 7.22887 -3.14463 11.0394
3879 21 163 5.29559 -1.12033 0.107927
3854 21 148 0.579654 0.826132 5.04516
3873 21 159 4.08842 10.9957 19.2801
3839 21 139 12.5376 -17.6453 14.3195
3723 21 63 8.48089 -0.526791 -2.82888
3859 21 151 13.2917 7.51712 -4.26071
ITEM: TIMESTEP
735000
ITEM: NUMBER OF ATOMS
22
ITEM: BOX BOUNDS pp pp pp
-1.8492037828273890e+01 1.6673018049348453e+01
-2.4185063784134652e+01 1.3957655542047245e+01
-9.4215851171986422e+00 2.0794243941343311e+01
ITEM: ATOMS id type mol x y z
3874 21 160 -13.3093 -21.7121 10.6228
3642 21 12 -13.9878 5.72471 -0.947035
3863 21 153 -16.4967 1.56494 0.950316
3834 21 136 -10.1509 -0.129087 17.6052
3847 21 143 -11.6841 8.13054 1.82455
3840 21 140 -10.2467 6.78096 11.7256
3886 21 168 -8.19541 -15.3177 -0.903866
3718 21 60 -1.31105 -1.8145 -2.10306
3823 21 127 -7.2469 -2.40088 16.6928
3829 21 131 -9.2028 4.58619 8.93848
3818 21 124 -8.15018 8.1986 1.53886
3774 21 94 -2.1327 9.49319 14.8555
3864 21 154 6.08399 -23.5203 18.7767
3882 21 166 7.547 -14.3563 17.3798
3687 21 39 2.49012 -11.1413 6.54089
3866 21 156 7.21076 -3.13434 11.0495
3879 21 163 5.28179 -1.09946 0.0973556
3854 21 148 0.576341 0.857182 5.04394
3873 21 159 4.0773 11.0799 19.3058
3839 21 139 12.5076 -17.7108 14.3359
3723 21 63 8.46 -0.502814 -2.84502
3859 21 151 13.2601 7.58314 -4.27956
ITEM: TIMESTEP
740000
ITEM: NUMBER OF ATOMS
21
ITEM: BOX BOUNDS pp pp pp
-1.8556441023910175e+01 1.6737421244984738e+01
-2.4140293968719789e+01 1.3912885726632382e+01
-9.3429805423488226e+00 2.0715639366489338e+01
ITEM: ATOMS id type mol x y z
3874 21 160 -13.3547 -21.6732 10.5971
3642 21 12 -14.0357 5.69927 -0.912523
3863 21 153 -16.5538 1.54927 0.974957
3834 21 136 -10.1847 -0.140788 17.5431
3847 21 143 -11.7235 8.09945 1.84464
3840 21 140 -10.2809 6.75304 11.6942
3886 21 168 -8.2221 -15.2937 -0.869578
3718 21 60 -1.31252 -1.82225 -2.06253
3823 21 127 -7.27011 -2.40725 16.6355
3829 21 131 -9.23318 4.56342 8.92156
3818 21 124 -8.1767 8.16735 1.56044
3774 21 94 -2.13718 9.4589 14.8078
3864 21 154 6.10961 -23.4771 18.7086
3882 21 166 7.57798 -14.3346 17.3189
3866 21 156 7.24051 -3.13898 11.0216
3879 21 163 5.30446 -1.10888 0.126434
3854 21 148 0.581783 0.843165 5.04728
3873 21 159 4.09556 11.0419 19.235
3839 21 139 12.5568 -17.6812 14.2909
3723 21 63 8.49432 -0.513638 -2.80063
3859 21 151 13.3121 7.55334 -4.22771
ITEM: TIMESTEP
745000
ITEM: NUMBER OF ATOMS
21
ITEM: BOX BOUNDS pp pp pp
-1.8465868831203363e+01 1.6646849052277926e+01
-2.4305432144147392e+01 1.4078023902059986e+01
-9.5029052774721947e+00 2.0875564101566997e+01
ITEM: ATOMS id type mol x y z
3874 21 160 -13.2909 -21.8169 10.6493
3642 21 12 -13.9683 5.79312 -0.98274
3863 21 153 -16.4735 1.6071 0.924824
3834 21 136 -10.1371 -0.0976269 17.6693
3847 21 143 -11.668 8.21413 1.80376
3840 21 140 -10.2328 6.85603 11.7581
3886 21 168 -8.18457 -15.3821 -0.939338
3718 21 60 -1.31045 -1.79368 -2.14498
3823 21 127 -7.23746 -2.38376 16.752
3829 21 131 -9.19046 4.64741 8.95598
3818 21 124 -8.13941 8.28262 1.51654
3774 21 94 -2.13088 9.58538 14.9048
3864 21 154 6.07358 -23.6364 18.8472
3882 21 166 7.53442 -14.4146 17.4427
3866 21 156 7.19868 -3.12184 11.0784
3879 21 163 5.27257 -1.07412 0.0672723
3854 21 148 0.574129 0.894867 5.04048
3873 21 159 4.06987 11.1821 19.3791
3839 21 139 12.4877 -17.7903 14.3824
3723 21 63 8.44606 -0.473712 -2.89094
3859 21 151 13.2391 7.66328 -4.3332
ITEM: TIMESTEP
750000
ITEM: NUMBER OF ATOMS
20
ITEM: BOX BOUNDS pp pp pp
-1.8365460112621733e+01 1.6546440333696296e+01
-2.4111398766033108e+01 1.3883990523945702e+01
-9.5839351844863749e+00 2.0956594008548837e+01
ITEM: ATOMS id type mol x y z
3874 21 160 -13.22 -21.648 10.6758
3887 21 169 -12.046 -14.6463 15.0842
3642 21 12 -13.8936 5.68285 -1.01832
3863 21 153 -16.3845 1.53915 0.899423
3834 21 136 -10.0843 -0.148341 17.7332
3847 21 143 -11.6065 8.07938 1.78305
3840 21 140 -10.1795 6.73502 11.7905
3718 21 60 -1.30816 -1.82725 -2.18676
3823 21 127 -7.20127 -2.41136 16.8111
3829 21 131 -9.1431 4.54872 8.97343
3818 21 124 -8.09806 8.14718 1.49429
3774 21 94 -2.12389 9.43677 14.954
3864 21 154 6.03365 -23.4492 18.9174
3882 21 166 7.48613 -14.3206 17.5054
3866 21 156 7.1523 -3.14198 11.1072
3854 21 148 0.565644 0.834119 5.03704
3873 21 159 4.0414 11.0173 19.4522
3839 21 139 12.411 -17.6621 14.4288
3723 21 63 8.39255 -0.520624 -2.9367
3859 21 151 13.1581 7.5341 -4.38666
ITEM: TIMESTEP
755000
ITEM: NUMBER OF ATOMS
20
ITEM: BOX BOUNDS pp pp pp
-1.8512078463124510e+01 1.6693058684199073e+01
-2.4244087389575490e+01 1.4016679147488084e+01
-9.2583292204028140e+00 2.0630988044504910e+01
ITEM: ATOMS id type mol x y z
3874 21 160 -13.3234 -21.7635 10.5694
3887 21 169 -12.1396 -14.7129 14.8838
3642 21 12 -14.0027 5.75826 -0.875355
3863 21 153 -16.5144 1.58561 1.00149
3834 21 136 -10.1614 -0.11366 17.4764
3847 21 143 -11.6963 8.17153 1.86628
3840 21 140 -10.2574 6.81777 11.6603
3718 21 60 -1.31151 -1.80429 -2.01888
3823 21 127 -7.25412 -2.39248 16.5739
3829 21 131 -9.21225 4.61621 8.90334
3818 21 124 -8.15844 8.2398 1.58368
3774 21 94 -2.13409 9.5384 14.7564
3864 21 154 6.09196 -23.5772 18.6353
3882 21 166 7.55664 -14.3849 17.2534
3866 21 156 7.22002 -3.12821 10.9916
3854 21 148 0.578034 0.875661 5.05088
3888 21 170 5.25604 11.8446 16.6398
3839 21 139 12.5229 -17.7498 14.2424
3723 21 63 8.47068 -0.488543 -2.75283
3859 21 151 13.2763 7.62244 -4.17187
ITEM: TIMESTEP
760000
ITEM: NUMBER OF ATOMS
20
ITEM: BOX BOUNDS pp pp pp
-1.8625941801116518e+01 1.6806922022191081e+01
-2.4011860648001935e+01 1.3784452405914529e+01
-9.4531276993661777e+00 2.0825786523415982e+01
ITEM: ATOMS id type mol x y z
3874 21 160 -13.4037 -21.5614 10.6331
3887 21 169 -12.2122 -14.5964 15.0037
3642 21 12 -14.0874 5.62628 -0.960885
3834 21 136 -10.2212 -0.174357 17.63
3847 21 143 -11.7661 8.01026 1.81648
3840 21 140 -10.3178 6.67293 11.7382
3718 21 60 -1.31411 -1.84447 -2.11932
3823 21 127 -7.29516 -2.42552 16.7158
3829 21 131 -9.26596 4.4981 8.94527
3818 21 124 -8.20533 8.0777 1.5302
3774 21 94 -2.14201 9.36054 14.8746
3864 21 154 6.13725 -23.3531 18.8041
3882 21 166 7.61141 -14.2724 17.4042
3866 21 156 7.2726 -3.15231 11.0607
3854 21 148 0.587657 0.802955 5.0426
3888 21 170 5.29592 11.6388 16.7825
3839 21 139 12.6098 -17.5964 14.3539
3889 21 171 8.99924 -3.06097 -0.469202
3723 21 63 8.53136 -0.544689 -2.86283
3859 21 151 13.3681 7.46783 -4.30037
ITEM: TIMESTEP
765000
ITEM: NUMBER OF ATOMS
18
ITEM: BOX BOUNDS pp pp pp
-1.8566786731594906e+01 1.6747766952669469e+01
-2.4184451871168019e+01 1.3957043629080612e+01
-9.3018789423084343e+00 2.0674537766367305e+01
ITEM: ATOMS id type mol x y z
3874 21 160 -13.362 -21.7116 10.5837
3887 21 169 -12.1745 -14.683 14.9106
3642 21 12 -14.0434 5.72436 -0.894477
3834 21 136 -10.1902 -0.129247 17.5107
3847 21 143 -11.7299 8.13012 1.85514
3840 21 140 -10.2864 6.78058 11.6777
3718 21 60 -1.31275 -1.81461 -2.04134
3823 21 127 -7.27384 -2.40097 16.6056
3829 21 131 -9.23806 4.58588 8.91271
3818 21 124 -8.18096 8.19818 1.57172
3774 21 94 -2.1379 9.49272 14.7828
3882 21 166 7.58296 -14.356 17.2871
3866 21 156 7.24528 -3.1344 11.0071
3854 21 148 0.582658 0.85699 5.04903
3839 21 139 12.5647 -17.7104 14.2673
3889 21 171 8.96616 -3.04222 -0.407706
3723 21 63 8.49983 -0.502962 -2.77742
3859 21 151 13.3204 7.58274 -4.2006
ITEM: TIMESTEP
770000
ITEM: NUMBER OF ATOMS
18
ITEM: BOX BOUNDS pp pp pp
-1.8742226765073923e+01 1.6923206986148486e+01
-2.4148634633721532e+01 1.3921226391634125e+01
-9.2549457204219365e+00 2.0627604544471652e+01
ITEM: ATOMS id type mol x y z
3874 21 160 -13.4858 -21.6804 10.5683
3887 21 169 -12.2864 -14.665 14.8817
3642 21 12 -14.1739 5.70401 -0.87387
3834 21 136 -10.2824 -0.138609 17.4737
3847 21 143 -11.8374 8.10524 1.86714
3840 21 140 -10.3796 6.75824 11.659
3718 21 60 -1.31676 -1.8208 -2.01714
3823 21 127 -7.33707 -2.40606 16.5714
3829 21 131 -9.32081 4.56766 8.90261
3818 21 124 -8.25321 8.17318 1.58461
3774 21 94 -2.1501 9.46529 14.7544
3882 21 166 7.66734 -14.3387 17.2508
3866 21 156 7.32631 -3.13812 10.9904
3854 21 148 0.597484 0.845777 5.05103
3839 21 139 12.6985 -17.6867 14.2405
3889 21 171 9.06428 -3.04611 -0.388623
3723 21 63 8.59332 -0.511621 -2.75092
3859 21 151 13.4618 7.55889 -4.16964
ITEM: TIMESTEP
775000
ITEM: NUMBER OF ATOMS
18
ITEM: BOX BOUNDS pp pp pp
-1.8401019180215570e+01 1.6581999401290133e+01
-2.3955665268630550e+01 1.3728257026543144e+01
-9.5911912377205510e+00 2.0963850061691446e+01
ITEM: ATOMS id type mol x y z
3874 21 160 -13.2451 -21.5125 10.6782
3887 21 169 -12.0687 -14.5682 15.0887
3642 21 12 -13.9201 5.59434 -1.0215
3834 21 136 -10.103 -0.189044 17.739
3847 21 143 -11.6283 7.97123 1.78119
3840 21 140 -10.1984 6.63789 11.7934
3718 21 60 -1.30897 -1.85419 -2.1905
3823 21 127 -7.21409 -2.43351 16.8164
3829 21 131 -9.15987 4.46951 8.97499
3818 21 124 -8.1127 8.03848 1.4923
3774 21 94 -2.12636 9.31749 14.9584
3890 21 172 3.07549 -23.0299 17.6144
3882 21 166 7.50323 -14.2451 17.511
3866 21 156 7.16873 -3.15815 11.1098
3854 21 148 0.568649 0.785362 5.03673
3839 21 139 12.4382 -17.5593 14.433
3723 21 63 8.4115 -0.558275 -2.9408
3859 21 151 13.1868 7.43042 -4.39144
ITEM: TIMESTEP
780000
ITEM: NUMBER OF ATOMS
19
ITEM: BOX BOUNDS pp pp pp
-1.8600295755406805e+01 1.6781275976481368e+01
-2.4172722202048359e+01 1.3945313959960952e+01
-9.2906374345454239e+00 2.0663296258553366e+01
ITEM: ATOMS id type mol x y z
3874 21 160 -13.3857 -21.7014 10.58
3887 21 169 -12.1958 -14.6771 14.9037
3642 21 12 -14.0683 5.7177 -0.889541
3834 21 136 -10.2078 -0.132313 17.5019
3847 21 143 -11.7504 8.12197 1.85802
3840 21 140 -10.3042 6.77326 11.6732
3718 21 60 -1.31352 -1.81664 -2.03554
3823 21 127 -7.28592 -2.40264 16.5974
3829 21 131 -9.25386 4.57991 8.91029
3818 21 124 -8.19476 8.18999 1.57481
3774 21 94 -2.14023 9.48374 14.776
3890 21 172 3.12089 -23.2363 17.3797
3882 21 166 7.59907 -14.3503 17.2784
3891 21 173 2.54737 -1.67328 4.19946
3866 21 156 7.26076 -3.13562 11.0031
3854 21 148 0.585489 0.853318 5.04951
3839 21 139 12.5902 -17.7026 14.2609
3723 21 63 8.51769 -0.505797 -2.77108
3859 21 151 13.3474 7.57493 -4.19318
ITEM: TIMESTEP
785000
ITEM: NUMBER OF ATOMS
19
ITEM: BOX BOUNDS pp pp pp
-1.8509350063788474e+01 1.6690330284863037e+01
-2.4045971908605594e+01 1.3818563666518187e+01
-9.4882013484535612e+00 2.0860860172407648e+01
ITEM: ATOMS id type mol x y z
3874 21 160 -13.3215 -21.5911 10.6445
3887 21 169 -12.1378 -14.6135 15.0253
3642 21 12 -14.0007 5.64566 -0.976284
3834 21 136 -10.16 -0.165441 17.6577
3895 21 175 -12.5469 10.5347 1.9559
3840 21 140 -10.2559 6.69421 11.7522
3718 21 60 -1.31144 -1.83856 -2.1374
3823 21 127 -7.25314 -2.42066 16.7413
3829 21 131 -9.21097 4.51544 8.95282
3818 21 124 -8.15731 8.10151 1.52057
3774 21 94 -2.1339 9.38666 14.8959
3890 21 172 3.10017 -23.1158 17.5339
3882 21 166 7.55533 -14.2889 17.4313
3891 21 173 2.5296 -1.69616 4.17985
3866 21 156 7.21876 -3.14877 11.0732
3854 21 148 0.577804 0.813635 5.04111
3839 21 139 12.5208 -17.6189 14.374
3723 21 63 8.46923 -0.536442 -2.88264
3859 21 151 13.2741 7.49054 -4.3235
ITEM: TIMESTEP
790000
ITEM: NUMBER OF ATOMS
20
ITEM: BOX BOUNDS pp pp pp
-1.8587830347646808e+01 1.6768810568721371e+01
-2.4201787994096460e+01 1.3974379752009053e+01
-9.3768704918312089e+00 2.0749529315788067e+01
ITEM: ATOMS id type mol x y z
3874 21 160 -13.3769 -21.7267 10.6082
3887 21 169 -12.1879 -14.6917 14.9568
3642 21 12 -14.059 5.73422 -0.927403
3834 21 136 -10.2012 -0.124716 17.5699
3895 21 175 -12.5988 10.6635 1.98327
3840 21 140 -10.2976 6.79139 11.7077
3718 21 60 -1.31324 -1.81161 -2.08
3823 21 127 -7.28142 -2.3985 16.6602
3829 21 131 -9.24798 4.59469 8.92885
3818 21 124 -8.18963 8.21028 1.55114
3774 21 94 -2.13936 9.506 14.8284
3890 21 172 3.11805 -23.2639 17.447
3882 21 166 7.59308 -14.3644 17.3451
3891 21 173 2.54493 -1.66804 4.1909
3866 21 156 7.255 -3.1326 11.0337
3854 21 148 0.584436 0.862418 5.04584
3896 21 176 3.03332 4.44408 -0.354258
3839 21 139 12.5807 -17.7218 14.3103
3723 21 63 8.51105 -0.49877 -2.81977
3859 21 151 13.3373 7.59428 -4.25007
ITEM: TIMESTEP
795000
ITEM: NUMBER OF ATOMS
20
ITEM: BOX BOUNDS pp pp pp
-1.8532164457490875e+01 1.6713144678565438e+01
-2.4276718384884568e+01 1.4049310142797161e+01
-9.3338782086168699e+00 2.0706537032564114e+01
ITEM: ATOMS id type mol x y z
3874 21 160 -13.3376 -21.7919 10.5941
3887 21 169 -12.1524 -14.7293 14.9303
3642 21 12 -14.0176 5.7768 -0.908526
3834 21 136 -10.172 -0.105132 17.536
3895 21 175 -12.562 10.7254 1.99384
3840 21 140 -10.268 6.83812 11.6905
3718 21 60 -1.31196 -1.79865 -2.05784
3823 21 127 -7.26136 -2.38784 16.6289
3829 21 131 -9.22173 4.6328 8.9196
3818 21 124 -8.16671 8.26258 1.56294
3774 21 94 -2.13549 9.56339 14.8023
3890 21 172 3.10537 -23.3352 17.4135
3882 21 166 7.5663 -14.4007 17.3119
3891 21 173 2.53405 -1.65451 4.19517
3866 21 156 7.22929 -3.12482 11.0184
3854 21 148 0.579732 0.885877 5.04767
3896 21 176 3.02091 4.4816 -0.337017
3839 21 139 12.5383 -17.7713 14.2857
3723 21 63 8.48138 -0.480654 -2.79549
3859 21 151 13.2925 7.64416 -4.22171
ITEM: TIMESTEP
800000
ITEM: NUMBER OF ATOMS
20
ITEM: BOX BOUNDS pp pp pp
-1.8520567866025928e+01 1.6701548087100491e+01
-2.4230469594989479e+01 1.4003061352902073e+01
-9.4265624396290661e+00 2.0799221263541025e+01
ITEM: ATOMS id type mol x y z
3874 21 160 -13.3294 -21.7516 10.6244
3887 21 169 -12.145 -14.7061 14.9873
3642 21 12 -14.009 5.75052 -0.949221
3834 21 136 -10.1659 -0.11722 17.6091
3895 21 175 -12.5543 10.6872 1.97105
3840 21 140 -10.2619 6.80928 11.7276
3718 21 60 -1.3117 -1.80665 -2.10562
3823 21 127 -7.25718 -2.39442 16.6964
3829 21 131 -9.21626 4.60928 8.93955
3818 21 124 -8.16193 8.2303 1.5375
3774 21 94 -2.13468 9.52797 14.8585
3890 21 172 3.10272 -23.2912 17.4858
3882 21 166 7.56073 -14.3783 17.3836
3891 21 173 2.53179 -1.66286 4.18596
3866 21 156 7.22394 -3.12962 11.0513
3854 21 148 0.578752 0.871398 5.04373
3896 21 176 3.01832 4.45844 -0.374185
3839 21 139 12.5294 -17.7408 14.3387
3723 21 63 8.4752 -0.491836 -2.84783
3859 21 151 13.2831 7.61337 -4.28284
ITEM: TIMESTEP
805000
ITEM: NUMBER OF ATOMS
20
ITEM: BOX BOUNDS pp pp pp
-1.8451996065604064e+01 1.6632976286678627e+01
-2.4328750437901249e+01 1.4101342195813842e+01
-9.3074005933748154e+00 2.0680059417291666e+01
ITEM: ATOMS id type mol x y z
3874 21 160 -13.2811 -21.8372 10.5855
3887 21 169 -12.1012 -14.7554 14.914
3642 21 12 -13.958 5.80637 -0.896901
3834 21 136 -10.1298 -0.0915323 17.5151
3895 21 175 -12.509 10.7684 2.00034
3840 21 140 -10.2255 6.87058 11.6799
3718 21 60 -1.31013 -1.78965 -2.04419
3823 21 127 -7.23246 -2.38044 16.6096
3829 21 131 -9.18391 4.65927 8.9139
3818 21 124 -8.13369 8.2989 1.57021
3774 21 94 -2.12991 9.60324 14.7862
3890 21 172 3.0871 -23.3847 17.3928
3882 21 166 7.52775 -14.4259 17.2914
3891 21 173 2.51839 -1.64512 4.19779
3866 21 156 7.19227 -3.11942 11.009
3854 21 148 0.572957 0.902168 5.0488
3896 21 176 3.00303 4.50765 -0.326399
3839 21 139 12.4771 -17.8057 14.2705
3723 21 63 8.43866 -0.468074 -2.78054
3859 21 151 13.2279 7.6788 -4.20424
ITEM: TIMESTEP
810000
ITEM: NUMBER OF ATOMS
19
ITEM: BOX BOUNDS pp pp pp
-1.8456535810236034e+01 1.6637516031310597e+01
-2.4186201865573661e+01 1.3958793623486255e+01
-9.4357213897057335e+00 2.0808380213580477e+01
ITEM: ATOMS id type mol x y z
3874 21 160 -13.2843 -21.7131 10.6274
3887 21 169 -12.1041 -14.6839 14.993
3642 21 12 -13.9614 5.72536 -0.953242
3834 21 136 -10.1322 -0.12879 17.6163
3895 21 175 -12.512 10.6506 1.9688
3840 21 140 -10.2279 6.78167 11.7312
3718 21 60 -1.31024 -1.81431 -2.11035
3823 21 127 -7.2341 -2.40072 16.7031
3829 21 131 -9.18606 4.58677 8.94152
3818 21 124 -8.13556 8.1994 1.53498
3774 21 94 -2.13023 9.49406 14.8641
3890 21 172 3.08814 -23.2491 17.493
3891 21 173 2.51928 -1.67085 4.18506
3866 21 156 7.19437 -3.13422 11.0546
3854 21 148 0.573341 0.857538 5.04334
3896 21 176 3.00404 4.43627 -0.377858
3839 21 139 12.4805 -17.7115 14.344
3723 21 63 8.44108 -0.502538 -2.853
3859 21 151 13.2315 7.5839 -4.28889
ITEM: TIMESTEP
815000
ITEM: NUMBER OF ATOMS
18
ITEM: BOX BOUNDS pp pp pp
-1.8384650521832999e+01 1.6565630742907562e+01
-2.4500957650401450e+01 1.4273549408314043e+01
-9.2771108197049656e+00 2.0649769643592265e+01
ITEM: ATOMS id type mol x y z
3874 21 160 -13.2336 -21.9871 10.5756
3642 21 12 -13.9079 5.90424 -0.883602
3834 21 136 -10.0944 -0.046523 17.4912
3895 21 175 -12.4645 10.9107 2.00779
3840 21 140 -10.1897 6.97798 11.6678
3718 21 60 -1.3086 -1.75986 -2.02857
3823 21 127 -7.20819 -2.35594 16.5875
3829 21 131 -9.15215 4.74685 8.90738
3818 21 124 -8.10596 8.41911 1.57852
3774 21 94 -2.12523 9.73514 14.7678
3897 21 177 0.747913 -4.08253 4.70942
3891 21 173 2.50523 -1.61403 4.2008
3866 21 156 7.16117 -3.10155 10.9983
3854 21 148 0.567266 0.956082 5.05009
3896 21 176 2.98801 4.59388 -0.314252
3839 21 139 12.4257 -17.9195 14.2532
3723 21 63 8.40278 -0.42644 -2.76344
3859 21 151 13.1736 7.79345 -4.18426
ITEM: TIMESTEP
820000
ITEM: NUMBER OF ATOMS
17
ITEM: BOX BOUNDS pp pp pp
-1.8632389598302769e+01 1.6813369819377332e+01
-2.4285534073246737e+01 1.4058125831159330e+01
-9.2889348775185496e+00 2.0661593701386042e+01
ITEM: ATOMS id type mol x y z
3874 21 160 -13.4083 -21.7996 10.5794
3834 21 136 -10.2246 -0.102828 17.5005
3895 21 175 -12.6283 10.7327 2.00488
3840 21 140 -10.3213 6.84362 11.6726
3718 21 60 -1.31425 -1.79712 -2.03466
3823 21 127 -7.29748 -2.38659 16.5962
3829 21 131 -9.269 4.63729 8.90992
3818 21 124 -8.20798 8.26873 1.57528
3774 21 94 -2.14246 9.57014 14.775
3897 21 177 0.77141 -4.09399 4.70865
3891 21 173 2.55364 -1.65292 4.19963
3866 21 156 7.27558 -3.12391 11.0025
3854 21 148 0.588202 0.888637 5.04958
3896 21 176 3.04326 4.48601 -0.318994
3839 21 139 12.6147 -17.7772 14.2599
3723 21 63 8.53479 -0.478523 -2.77011
3859 21 151 13.3733 7.65003 -4.19206
ITEM: TIMESTEP
825000
ITEM: NUMBER OF ATOMS
15
ITEM: BOX BOUNDS pp pp pp
-1.8477691018402698e+01 1.6658671239477261e+01
-2.4329163108997133e+01 1.4101754866909726e+01
-9.3052921708631224e+00 2.0677950994709519e+01
ITEM: ATOMS id type mol x y z
3874 21 160 -13.2992 -21.8375 10.5848
3834 21 136 -10.1433 -0.0914244 17.5134
3895 21 175 -12.526 10.7688 2.00086
3840 21 140 -10.2391 6.87083 11.6791
3718 21 60 -1.31072 -1.78957 -2.0431
3823 21 127 -7.24173 -2.38038 16.6081
3829 21 131 -9.19603 4.65948 8.91345
3818 21 124 -8.14427 8.29919 1.57079
3774 21 94 -2.1317 9.60356 14.7849
3891 21 173 2.52341 -1.64504 4.198
3854 21 148 0.575129 0.902297 5.04889
3896 21 176 3.00876 4.50786 -0.325554
3839 21 139 12.4967 -17.806 14.2693
3723 21 63 8.45236 -0.467975 -2.77935
3859 21 151 13.2486 7.67908 -4.20285
ITEM: TIMESTEP
830000
ITEM: NUMBER OF ATOMS
15
ITEM: BOX BOUNDS pp pp pp
-1.8530354803928663e+01 1.6711335025003226e+01
-2.4248697097961355e+01 1.4021288855873948e+01
-9.2578356477706336e+00 2.0630494471608721e+01
ITEM: ATOMS id type mol x y z
3874 21 160 -13.3363 -21.7675 10.5693
3834 21 136 -10.171 -0.112456 17.476
3895 21 175 -12.5608 10.7022 2.01253
3840 21 140 -10.2671 6.82065 11.6601
3897 21 177 -1.98783 -14.9919 -0.807796
3718 21 60 -1.31192 -1.80349 -2.01863
3823 21 127 -7.26071 -2.39183 16.5735
3829 21 131 -9.22087 4.61855 8.90323
3818 21 124 -8.16596 8.24302 1.58382
3774 21 94 -2.13536 9.54193 14.7561
3891 21 173 2.5337 -1.65957 4.20272
3854 21 148 0.579579 0.877104 5.0509
3896 21 176 3.0205 4.46757 -0.306523
3839 21 139 12.5369 -17.7528 14.2421
3859 21 151 13.291 7.62551 -4.17154
ITEM: TIMESTEP
835000
ITEM: NUMBER OF ATOMS
16
ITEM: BOX BOUNDS pp pp pp
-1.8578204929951649e+01 1.6759185151026212e+01
-2.4271589302559239e+01 1.4044181060471832e+01
-9.2680004310130997e+00 2.0640659254831593e+01
ITEM: ATOMS id type mol x y z
3874 21 160 -13.3701 -21.7874 10.5726
3834 21 136 -10.1962 -0.106472 17.484
3895 21 175 -12.5925 10.7212 2.01003
3840 21 140 -10.2925 6.83493 11.6642
3897 21 177 -1.99076 -15.0038 -0.812214
3718 21 60 -1.31302 -1.79953 -2.02387
3823 21 127 -7.27795 -2.38857 16.5809
3829 21 131 -9.24344 4.6302 8.90542
3818 21 124 -8.18567 8.259 1.58102
3774 21 94 -2.13869 9.55946 14.7623
3891 21 173 2.54305 -1.65544 4.20171
3854 21 148 0.583623 0.884272 5.05047
3896 21 176 3.03118 4.47903 -0.310599
3898 21 178 0.93305 8.28514 15.5545
3839 21 139 12.5734 -17.7679 14.2479
3859 21 151 13.3296 7.64075 -4.17825
ITEM: TIMESTEP
840000
ITEM: NUMBER OF ATOMS
16
ITEM: BOX BOUNDS pp pp pp
-1.8682782114957185e+01 1.6863762336031748e+01
-2.4180475090321725e+01 1.3953066848234318e+01
-9.2644268035168089e+00 2.0637085627318154e+01
ITEM: ATOMS id type mol x y z
3874 21 160 -13.4438 -21.7081 10.5714
3834 21 136 -10.2511 -0.130286 17.4812
3895 21 175 -12.6616 10.6459 2.01091
3840 21 140 -10.348 6.7781 11.6628
3897 21 177 -1.99716 -14.9567 -0.810661
3718 21 60 -1.3154 -1.8153 -2.02203
3823 21 127 -7.31565 -2.40153 16.5783
3829 21 131 -9.29277 4.58385 8.90465
3818 21 124 -8.22873 8.1954 1.58201
3774 21 94 -2.14597 9.48968 14.7601
3891 21 173 2.56349 -1.67188 4.20206
3854 21 148 0.59246 0.855745 5.05062
3896 21 176 3.0545 4.43341 -0.309166
3898 21 178 0.943956 8.22142 15.5521
3839 21 139 12.6532 -17.7078 14.2459
3859 21 151 13.4139 7.58009 -4.17589
ITEM: TIMESTEP
845000
ITEM: NUMBER OF ATOMS
16
ITEM: BOX BOUNDS pp pp pp
-1.8732169348874788e+01 1.6913149569949351e+01
-2.4188498523025888e+01 1.3961090280938482e+01
-9.2337594931612514e+00 2.0606418316950830e+01
ITEM: ATOMS id type mol x y z
3874 21 160 -13.4787 -21.7151 10.5614
3834 21 136 -10.2771 -0.128189 17.457
3895 21 175 -12.6943 10.6525 2.01845
3840 21 140 -10.3743 6.7831 11.6505
3897 21 177 -2.00018 -14.9609 -0.797334
3718 21 60 -1.31653 -1.81391 -2.00622
3823 21 127 -7.33345 -2.40039 16.556
3829 21 131 -9.31607 4.58793 8.89805
3818 21 124 -8.24907 8.201 1.59042
3774 21 94 -2.1494 9.49582 14.7415
3891 21 173 2.57314 -1.67043 4.20511
3854 21 148 0.596634 0.858257 5.05193
3896 21 176 3.06552 4.43742 -0.296868
3898 21 178 0.949106 8.22703 15.5319
3839 21 139 12.6909 -17.7131 14.2283
3859 21 151 13.4537 7.58543 -4.15566
ITEM: TIMESTEP
850000
ITEM: NUMBER OF ATOMS
14
ITEM: BOX BOUNDS pp pp pp
-1.8420075415318092e+01 1.6601055636392655e+01
-2.4274174637433305e+01 1.4046766395345898e+01
-9.3159949235194475e+00 2.0688653747275008e+01
ITEM: ATOMS id type mol x y z
3874 21 160 -13.2586 -21.7897 10.5883
3902 21 180 -17.147 12.064 2.40302
3895 21 175 -12.4879 10.7233 1.99823
3840 21 140 -10.2085 6.83654 11.6834
3897 21 177 -1.98108 -15.0051 -0.83307
3718 21 60 -1.3094 -1.79909 -2.04862
3823 21 127 -7.22096 -2.3882 16.6159
3829 21 131 -9.16886 4.63151 8.91575
3818 21 124 -8.12055 8.26081 1.56785
3774 21 94 -2.12769 9.56144 14.7914
3854 21 148 0.57026 0.885081 5.04843
3898 21 178 0.91656 8.28695 15.5861
3839 21 139 12.4527 -17.7697 14.2754
3859 21 151 13.2022 7.64247 -4.20991
ITEM: TIMESTEP
855000
ITEM: NUMBER OF ATOMS
15
ITEM: BOX BOUNDS pp pp pp
-1.8618722873489624e+01 1.6799703094564187e+01
-2.4349286106837980e+01 1.4121877864750573e+01
-9.2892852194460858e+00 2.0661944043189461e+01
ITEM: ATOMS id type mol x y z
3874 21 160 -13.3987 -21.8551 10.5795
3902 21 180 -17.3312 12.1313 2.40887
3895 21 175 -12.6192 10.7854 2.0048
3840 21 140 -10.314 6.88338 11.6727
3906 21 182 -1.10829 -17.7588 -2.59451
3897 21 177 -1.99324 -15.0439 -0.821463
3718 21 60 -1.31394 -1.78609 -2.03485
3823 21 127 -7.29256 -2.37752 16.5964
3829 21 131 -9.26256 4.66971 8.91
3818 21 124 -8.20235 8.31324 1.57518
3774 21 94 -2.14151 9.61897 14.7752
3854 21 148 0.587047 0.908597 5.04957
3898 21 178 0.937276 8.33948 15.5685
3839 21 139 12.6043 -17.8193 14.2601
3859 21 151 13.3622 7.69248 -4.19229
ITEM: TIMESTEP
860000
ITEM: NUMBER OF ATOMS
16
ITEM: BOX BOUNDS pp pp pp
-1.8462955195914532e+01 1.6643935416989095e+01
-2.4156519322437191e+01 1.3929111080349784e+01
-9.4488857182279418e+00 2.0821544541921416e+01
ITEM: ATOMS id type mol x y z
3874 21 160 -13.2888 -21.6873 10.6317
3902 21 180 -17.1868 11.9585 2.37394
3895 21 175 -12.5163 10.6261 1.96556
3840 21 140 -10.2313 6.76316 11.7365
3906 21 182 -1.10655 -17.632 -2.68276
3897 21 177 -1.98371 -14.9444 -0.890819
3718 21 60 -1.31038 -1.81944 -2.11713
3823 21 127 -7.23641 -2.40494 16.7127
3818 21 124 -8.13821 8.17868 1.53137
3774 21 94 -2.13067 9.47133 14.8721
3908 21 184 -0.243432 -9.80307 -6.28873
3907 21 183 2.10056 -3.88554 5.12037
3854 21 148 0.573883 0.848245 5.04278
3898 21 178 0.921032 8.20466 15.6738
3839 21 139 12.4854 -17.6919 14.3515
3859 21 151 13.2367 7.56414 -4.29757
ITEM: TIMESTEP
865000
ITEM: NUMBER OF ATOMS
17
ITEM: BOX BOUNDS pp pp pp
-1.8353383320270900e+01 1.6534363541345463e+01
-2.4358016460762460e+01 1.4130608218675054e+01
-9.3077833365332197e+00 2.0680442160237767e+01
ITEM: ATOMS id type mol x y z
3874 21 160 -13.2115 -21.8626 10.5856
3908 21 184 -16.0893 3.14576 -3.33858
3902 21 180 -17.0852 12.1392 2.40482
3895 21 175 -12.4438 10.7926 2.00025
3840 21 140 -10.1731 6.88883 11.6801
3906 21 182 -1.10532 -17.7645 -2.60474
3897 21 177 -1.977 -15.0484 -0.829502
3718 21 60 -1.30788 -1.78458 -2.04438
3823 21 127 -7.19692 -2.37628 16.6099
3818 21 124 -8.09308 8.31933 1.5701
3774 21 94 -2.12305 9.62566 14.7864
3907 21 183 2.08177 -3.87255 5.12564
3854 21 148 0.564624 0.91133 5.04878
3898 21 178 0.909605 8.34559 15.5807
3839 21 139 12.4018 -17.825 14.2707
3909 21 185 13.0165 -12.4566 -7.51702
3859 21 151 13.1484 7.69829 -4.20449
ITEM: TIMESTEP
870000
ITEM: NUMBER OF ATOMS
16
ITEM: BOX BOUNDS pp pp pp
-1.8365150277361739e+01 1.6546130498436302e+01
-2.4468564339041666e+01 1.4241156096954260e+01
-9.2828054530326263e+00 2.0655464276724675e+01
ITEM: ATOMS id type mol x y z
3874 21 160 -13.2198 -21.9589 10.5774
3908 21 184 -16.0995 3.19321 -3.32355
3895 21 175 -12.4516 10.884 2.00639
3840 21 140 -10.1793 6.95778 11.6701
3906 21 182 -1.10545 -17.8372 -2.59092
3897 21 177 -1.97772 -15.1054 -0.818647
3718 21 60 -1.30815 -1.76546 -2.0315
3823 21 127 -7.20116 -2.36055 16.5917
3818 21 124 -8.09793 8.39649 1.57696
3774 21 94 -2.12387 9.71033 14.7713
3907 21 183 2.08378 -3.86542 5.12658
3854 21 148 0.565618 0.945941 5.04984
3898 21 178 0.910832 8.42291 15.5642
3839 21 139 12.4108 -17.8981 14.2564
3909 21 185 13.0259 -12.4987 -7.49502
3859 21 151 13.1579 7.77189 -4.18802
ITEM: TIMESTEP
875000
ITEM: NUMBER OF ATOMS
16
ITEM: BOX BOUNDS pp pp pp
-1.8161680565599720e+01 1.6342660786674283e+01
-2.4435632564831561e+01 1.4208224322744154e+01
-9.4521694266646037e+00 2.0824828250304048e+01
ITEM: ATOMS id type mol x y z
3874 21 160 -13.0763 -21.9302 10.6328
3908 21 184 -15.9225 3.17908 -3.42549
3895 21 175 -12.317 10.8568 1.96476
3840 21 140 -10.0713 6.93724 11.7378
3906 21 182 -1.10316 -17.8155 -2.68457
3897 21 177 -1.96527 -15.0884 -0.892246
3718 21 60 -1.3035 -1.77116 -2.11883
3823 21 127 -7.12782 -2.36524 16.7151
3818 21 124 -8.01414 8.37351 1.53047
3774 21 94 -2.10971 9.68511 14.8741
3907 21 183 2.04889 -3.86754 5.12024
3854 21 148 0.548423 0.93563 5.04264
3898 21 178 0.889614 8.39987 15.676
3839 21 139 12.2555 -17.8763 14.3534
3909 21 185 12.8635 -12.4862 -7.64416
3859 21 151 12.9939 7.74996 -4.29974
ITEM: TIMESTEP
880000
ITEM: NUMBER OF ATOMS
17
ITEM: BOX BOUNDS pp pp pp
-1.8311518021345307e+01 1.6492498242419870e+01
-2.4346228837581947e+01 1.4118820595494540e+01
-9.3893307023987873e+00 2.0761989526033471e+01
ITEM: ATOMS id type mol x y z
3874 21 160 -13.182 -21.8524 10.6122
3910 21 186 -17.905 -12.6719 -8.61031
3908 21 184 -16.0529 3.14071 -3.38766
3895 21 175 -12.4161 10.7829 1.9802
3840 21 140 -10.1509 6.88148 11.7127
3906 21 182 -1.10485 -17.7567 -2.64983
3897 21 177 -1.97444 -15.0423 -0.864939
3718 21 60 -1.30693 -1.78662 -2.08643
3823 21 127 -7.18183 -2.37795 16.6693
3818 21 124 -8.07584 8.3111 1.54772
3774 21 94 -2.12014 9.61663 14.8359
3907 21 183 2.07459 -3.87331 5.12259
3854 21 148 0.561086 0.90764 5.04531
3898 21 178 0.905239 8.33735 15.6345
3839 21 139 12.3699 -17.8172 14.3174
3909 21 185 12.9831 -12.4521 -7.58882
3859 21 151 13.1147 7.69044 -4.25829
ITEM: TIMESTEP
885000
ITEM: NUMBER OF ATOMS
18
ITEM: BOX BOUNDS pp pp pp
-1.8443377340353063e+01 1.6624357561427626e+01
-2.4437107468985630e+01 1.4209699226898223e+01
-9.3726620203600639e+00 2.0745320843980430e+01
ITEM: ATOMS id type mol x y z
3874 21 160 -13.275 -21.9315 10.6068
3910 21 186 -18.0338 -12.7076 -8.59451
3908 21 184 -16.1676 3.17971 -3.37763
3895 21 175 -12.5033 10.858 1.9843
3840 21 140 -10.2209 6.93816 11.706
3897 21 177 -1.98251 -15.0892 -0.857695
3718 21 60 -1.30994 -1.7709 -2.07783
3823 21 127 -7.22936 -2.36503 16.6572
3818 21 124 -8.13014 8.37454 1.55229
3774 21 94 -2.12931 9.68623 14.8258
3911 21 187 6.48668 -13.2069 16.3447
3907 21 183 2.0972 -3.86745 5.12322
3854 21 148 0.572229 0.936092 5.04602
3912 21 188 2.28548 5.26329 0.250514
3898 21 178 0.91899 8.4009 15.6235
3839 21 139 12.4705 -17.8773 14.3079
3909 21 185 13.0884 -12.4867 -7.57415
3859 21 151 13.2209 7.75094 -4.24729
ITEM: TIMESTEP
890000
ITEM: NUMBER OF ATOMS
17
ITEM: BOX BOUNDS pp pp pp
-1.8241888435543007e+01 1.6422868656617570e+01
-2.4551327893950162e+01 1.4323919651862756e+01
-9.3185642830262800e+00 2.0691223106640201e+01
ITEM: ATOMS id type mol x y z
3910 21 186 -17.837 -12.7525 -8.5432
3908 21 184 -15.9923 3.22873 -3.34507
3895 21 175 -12.3701 10.9524 1.9976
3840 21 140 -10.1139 7.0094 11.6844
3897 21 177 -1.97018 -15.1482 -0.834187
3718 21 60 -1.30534 -1.75114 -2.04994
3823 21 127 -7.15673 -2.34878 16.6177
3818 21 124 -8.04717 8.45427 1.56714
3774 21 94 -2.11529 9.77372 14.793
3911 21 187 6.40169 -13.2548 16.3064
3907 21 183 2.06265 -3.86008 5.12524
3854 21 148 0.555201 0.971852 5.04832
3912 21 188 2.24876 5.32462 0.270041
3898 21 178 0.897978 8.48079 15.5878
3839 21 139 12.3167 -17.9527 14.2769
3909 21 185 12.9275 -12.5303 -7.52651
3859 21 151 13.0586 7.82699 -4.2116
ITEM: TIMESTEP
895000
ITEM: NUMBER OF ATOMS
19
ITEM: BOX BOUNDS pp pp pp
-1.8399016076014128e+01 1.6579996297088691e+01
-2.4629717594154883e+01 1.4402309352067476e+01
-9.1302336878947088e+00 2.0502892511530405e+01
ITEM: ATOMS id type mol x y z
3910 21 186 -17.9905 -12.7833 -8.36461
3908 21 184 -16.129 3.26238 -3.23172
3895 21 175 -12.474 11.0172 2.0439
3840 21 140 -10.1973 7.05829 11.6091
3897 21 177 -1.97979 -15.1886 -0.752346
3718 21 60 -1.30892 -1.73758 -1.95284
3823 21 127 -7.21337 -2.33763 16.4805
3818 21 124 -8.11188 8.50898 1.61884
3774 21 94 -2.12622 9.83376 14.6787
3917 21 191 1.24223 -9.63662 19.1581
3911 21 187 6.46797 -13.2876 16.1732
3907 21 183 2.08959 -3.85502 5.13228
3854 21 148 0.56848 0.996395 5.05633
3912 21 188 2.27739 5.36672 0.338023
3898 21 178 0.914364 8.53561 15.4636
3916 21 190 10.3117 -18.301 -6.1593
3839 21 139 12.4366 -18.0045 14.1691
3909 21 185 13.053 -12.5602 -7.36067
3859 21 151 13.1852 7.87917 -4.08737
ITEM: TIMESTEP
900000
ITEM: NUMBER OF ATOMS
17
ITEM: BOX BOUNDS pp pp pp
-1.8438715531056324e+01 1.6619695752130887e+01
-2.4444060990334446e+01 1.4216652748247039e+01
-9.2540503471079454e+00 2.0626709170699648e+01
ITEM: ATOMS id type mol x y z
3910 21 186 -18.0292 -12.7103 -8.48202
3908 21 184 -16.1635 3.18269 -3.30624
3840 21 140 -10.2184 6.94249 11.6586
3897 21 177 -1.98222 -15.0928 -0.806152
3718 21 60 -1.30983 -1.7697 -2.01668
3823 21 127 -7.22768 -2.36404 16.5707
3818 21 124 -8.12822 8.37939 1.58485
3774 21 94 -2.12899 9.69156 14.7538
3917 21 191 1.24711 -9.59359 19.2707
3911 21 187 6.48471 -13.2099 16.2608
3854 21 148 0.571835 0.938269 5.05107
3912 21 188 2.28463 5.26702 0.293329
3898 21 178 0.918504 8.40577 15.5453
3916 21 190 10.3372 -18.1756 -6.25829
3839 21 139 12.4669 -17.8819 14.24
3909 21 185 13.0847 -12.4894 -7.4697
3859 21 151 13.2172 7.75557 -4.16905
ITEM: TIMESTEP
905000
ITEM: NUMBER OF ATOMS
16
ITEM: BOX BOUNDS pp pp pp
-1.8349631360845308e+01 1.6530611581919871e+01
-2.4352019146820489e+01 1.4124610904733082e+01
-9.3579873532184834e+00 2.0730646176770172e+01
ITEM: ATOMS id type mol x y z
3910 21 186 -17.9422 -12.6741 -8.58059
3908 21 184 -16.086 3.14319 -3.3688
3840 21 140 -10.1711 6.88509 11.7002
3897 21 177 -1.97677 -15.0453 -0.851318
3718 21 60 -1.3078 -1.78562 -2.07027
3823 21 127 -7.19557 -2.37713 16.6465
3818 21 124 -8.09154 8.31514 1.55632
3774 21 94 -2.12279 9.62107 14.8169
3917 21 191 1.23615 -9.57226 19.3652
3911 21 187 6.44714 -13.1713 16.3344
3854 21 148 0.564307 0.909453 5.04665
3912 21 188 2.26839 5.21759 0.255811
3898 21 178 0.909214 8.34139 15.6139
3839 21 139 12.399 -17.8211 14.2995
3909 21 185 13.0136 -12.4543 -7.56122
3859 21 151 13.1454 7.6943 -4.23761
ITEM: TIMESTEP
910000
ITEM: NUMBER OF ATOMS
15
ITEM: BOX BOUNDS pp pp pp
-1.8373803595644446e+01 1.6554783816719009e+01
-2.4461594909817002e+01 1.4234186667729595e+01
-9.4314303120220053e+00 2.0804089135540451e+01
ITEM: ATOMS id type mol x y z
3910 21 186 -17.9658 -12.7172 -8.65024
3840 21 140 -10.1839 6.95343 11.7295
3897 21 177 -1.97825 -15.1018 -0.883234
3718 21 60 -1.30835 -1.76666 -2.10813
3823 21 127 -7.20428 -2.36154 16.7
3818 21 124 -8.10149 8.39163 1.53616
3774 21 94 -2.12447 9.70499 14.8615
3917 21 191 1.23913 -9.59766 19.432
3911 21 187 6.45733 -13.2172 16.3863
3854 21 148 0.566349 0.943759 5.04352
3912 21 188 2.2728 5.27644 0.2293
3898 21 178 0.911735 8.41803 15.6623
3839 21 139 12.4174 -17.8935 14.3415
3909 21 185 13.0328 -12.4961 -7.6259
3859 21 151 13.1649 7.76725 -4.28606
ITEM: TIMESTEP
915000
ITEM: NUMBER OF ATOMS
15
ITEM: BOX BOUNDS pp pp pp
-1.8277858367738073e+01 1.6458838588812636e+01
-2.4620086026688703e+01 1.4392677784601297e+01
-9.2557324349932948e+00 2.0628391258531948e+01
ITEM: ATOMS id type mol x y z
3910 21 186 -17.8721 -12.7795 -8.48362
3840 21 140 -10.133 7.05228 11.6593
3897 21 177 -1.97238 -15.1837 -0.806883
3718 21 60 -1.30616 -1.73925 -2.01755
3823 21 127 -7.1697 -2.339 16.572
3818 21 124 -8.06198 8.50226 1.58439
3774 21 94 -2.1178 9.82638 14.7548
3917 21 191 1.22732 -9.63439 19.2722
3911 21 187 6.41686 -13.2836 16.262
3854 21 148 0.558241 0.993379 5.05099
3912 21 188 2.25531 5.36155 0.292721
3898 21 178 0.901729 8.52888 15.5464
3839 21 139 12.3442 -17.9981 14.2409
3909 21 185 12.9563 -12.5566 -7.47118
3859 21 151 13.0875 7.87276 -4.17016
ITEM: TIMESTEP
920000
ITEM: NUMBER OF ATOMS
14
ITEM: BOX BOUNDS pp pp pp
-1.8344611921959437e+01 1.6525592143034000e+01
-2.4434695570844919e+01 1.4207287328757513e+01
-9.3013247075461045e+00 2.0673983531057345e+01
ITEM: ATOMS id type mol x y z
3910 21 186 -17.9373 -12.7066 -8.52686
3840 21 140 -10.1684 6.93665 11.6775
3897 21 177 -1.97646 -15.088 -0.826695
3718 21 60 -1.30768 -1.77132 -2.04105
3823 21 127 -7.19376 -2.36537 16.6052
3818 21 124 -8.08947 8.37285 1.57188
3774 21 94 -2.12244 9.68439 14.7825
3917 21 191 1.23553 -9.59142 19.3137
3911 21 187 6.44502 -13.2059 16.2942
3854 21 148 0.563882 0.935337 5.04906
3912 21 188 2.26748 5.26199 0.276264
3898 21 178 0.90869 8.39922 15.5765
3839 21 139 12.3951 -17.8757 14.267
3859 21 151 13.1413 7.74934 -4.20023
ITEM: TIMESTEP
925000
ITEM: NUMBER OF ATOMS
13
ITEM: BOX BOUNDS pp pp pp
-1.8255508469471014e+01 1.6436488690545577e+01
-2.4442309223524365e+01 1.4214900981436958e+01
-9.3435116042168147e+00 2.0716170427700941e+01
ITEM: ATOMS id type mol x y z
3840 21 140 -10.1211 6.9414 11.6944
3897 21 177 -1.97101 -15.0919 -0.845028
3718 21 60 -1.30565 -1.77 -2.0628
3823 21 127 -7.16164 -2.36429 16.6359
3818 21 124 -8.05278 8.37817 1.5603
3774 21 94 -2.11624 9.69022 14.8081
3917 21 191 1.22457 -9.59319 19.3521
3911 21 187 6.40743 -13.2091 16.3241
3854 21 148 0.556352 0.937721 5.04726
3912 21 188 2.25124 5.26608 0.261036
3898 21 178 0.899398 8.40454 15.6043
3839 21 139 12.3271 -17.8807 14.2912
3859 21 151 13.0695 7.75441 -4.22806
ITEM: TIMESTEP
930000
ITEM: NUMBER OF ATOMS
14
ITEM: BOX BOUNDS pp pp pp
-1.8190720231630159e+01 1.6371700452704722e+01
-2.4284452162557184e+01 1.4057043920469777e+01
-9.4685258482862444e+00 2.0841184671725205e+01
ITEM: ATOMS id type mol x y z
3840 21 140 -10.0867 6.84295 11.7444
3897 21 177 -1.96705 -15.0104 -0.899354
3718 21 60 -1.30417 -1.79731 -2.12726
3823 21 127 -7.13829 -2.38674 16.727
3818 21 124 -8.0261 8.26798 1.52598
3774 21 94 -2.11173 9.56932 14.884
3917 21 191 1.2166 -9.5566 19.4657
3911 21 187 6.3801 -13.143 16.4126
3854 21 148 0.550877 0.888299 5.04195
3912 21 188 2.23944 5.18131 0.21591
3898 21 178 0.892642 8.29414 15.6868
3839 21 139 12.2777 -17.7764 14.3627
3918 21 192 14.2033 -3.32213 15.9274
3859 21 151 13.0173 7.64931 -4.31053
ITEM: TIMESTEP
935000
ITEM: NUMBER OF ATOMS
15
ITEM: BOX BOUNDS pp pp pp
-1.8405821752626096e+01 1.6586801973700659e+01
-2.4235581093017732e+01 1.4008172850930325e+01
-9.3955186651680158e+00 2.0768177488605126e+01
ITEM: ATOMS id type mol x y z
3920 21 194 -11.3119 -15.4469 1.40156
3840 21 140 -10.2009 6.81247 11.7152
3897 21 177 -1.98021 -14.9852 -0.867628
3718 21 60 -1.30908 -1.80576 -2.08962
3823 21 127 -7.21582 -2.39369 16.6738
3818 21 124 -8.11468 8.23387 1.54602
3774 21 94 -2.1267 9.53188 14.8397
3917 21 191 1.24306 -9.54528 19.3993
3911 21 187 6.47084 -13.1225 16.3609
3854 21 148 0.569055 0.872998 5.04505
3912 21 188 2.27863 5.15506 0.242263
3839 21 139 12.4418 -17.7442 14.3209
3919 21 193 9.89111 -22.3545 10.8436
3918 21 192 14.2201 -14.7325 -0.168554
3859 21 151 13.1907 7.61678 -4.26237
ITEM: TIMESTEP
940000
ITEM: NUMBER OF ATOMS
14
ITEM: BOX BOUNDS pp pp pp
-1.8231398115440616e+01 1.6412378336515179e+01
-2.4357570639933108e+01 1.4130162397845702e+01
-9.4562732055892553e+00 2.0828932028995006e+01
ITEM: ATOMS id type mol x y z
3840 21 140 -10.1083 6.88855 11.7395
3897 21 177 -1.96954 -15.0481 -0.894029
3718 21 60 -1.3051 -1.78466 -2.12094
3823 21 127 -7.15295 -2.37634 16.7181
3818 21 124 -8.04285 8.31902 1.52934
3774 21 94 -2.11456 9.62532 14.8765
3917 21 191 1.22161 -9.57355 19.4546
3911 21 187 6.39726 -13.1736 16.4039
3854 21 148 0.554315 0.911191 5.04247
3912 21 188 2.24685 5.22057 0.220333
3839 21 139 12.3087 -17.8247 14.3557
3919 21 193 9.78343 -22.4645 10.8643
3918 21 192 14.0692 -14.7939 -0.19214
3859 21 151 13.0501 7.69799 -4.30244
ITEM: TIMESTEP
945000
ITEM: NUMBER OF ATOMS
15
ITEM: BOX BOUNDS pp pp pp
-1.8145589040452723e+01 1.6326569261527286e+01
-2.4476508806476065e+01 1.4249100564388659e+01
-9.4146067554061901e+00 2.0787265578803105e+01
ITEM: ATOMS id type mol x y z
3840 21 140 -10.0627 6.96273 11.7228
3897 21 177 -1.96428 -15.1095 -0.875923
3718 21 60 -1.30314 -1.76408 -2.09946
3823 21 127 -7.12202 -2.35942 16.6877
3818 21 124 -8.00751 8.40204 1.54078
3774 21 94 -2.10859 9.71641 14.8513
3917 21 191 1.21105 -9.60111 19.4167
3911 21 187 6.36107 -13.2234 16.3744
3854 21 148 0.547063 0.948428 5.04424
3912 21 188 2.23121 5.28444 0.235373
3920 21 194 16.0704 -20.9368 -2.1063
3839 21 139 12.2433 -17.9033 14.3319
3919 21 193 9.73046 -22.5717 10.8501
3918 21 192 13.995 -14.8537 -0.175964
3859 21 151 12.9809 7.77718 -4.27496
ITEM: TIMESTEP
950000
ITEM: NUMBER OF ATOMS
15
ITEM: BOX BOUNDS pp pp pp
-1.8361675222251520e+01 1.6542655443326083e+01
-2.4363281775185971e+01 1.4135873533098565e+01
-9.3124582060849974e+00 2.0685117029486818e+01
ITEM: ATOMS id type mol x y z
3840 21 140 -10.1775 6.89211 11.682
3897 21 177 -1.97751 -15.0511 -0.831533
3718 21 60 -1.30807 -1.78367 -2.04679
3823 21 127 -7.19991 -2.37553 16.6133
3818 21 124 -8.0965 8.323 1.56882
3924 21 196 -2.3335 7.43497 11.3204
3774 21 94 -2.12363 9.62969 14.7893
3917 21 191 1.23763 -9.57487 19.3238
3911 21 187 6.45222 -13.176 16.3021
3854 21 148 0.565324 0.912979 5.04858
3920 21 194 16.2832 -20.8443 -2.05358
3839 21 139 12.4082 -17.8285 14.2734
3919 21 193 9.86385 -22.4697 10.8152
3918 21 192 14.1819 -14.7968 -0.13631
3859 21 151 13.1551 7.70179 -4.20758
ITEM: TIMESTEP
955000
ITEM: NUMBER OF ATOMS
14
ITEM: BOX BOUNDS pp pp pp
-1.8253768143715849e+01 1.6434748364790412e+01
-2.4531525213014440e+01 1.4304116970927033e+01
-9.2182529928111485e+00 2.0590911816216270e+01
ITEM: ATOMS id type mol x y z
3840 21 140 -10.1202 6.99705 11.6443
3897 21 177 -1.9709 -15.1379 -0.790595
3718 21 60 -1.30561 -1.75457 -1.99822
3823 21 127 -7.16102 -2.3516 16.5447
3818 21 124 -8.05206 8.44044 1.59468
3924 21 196 -2.32469 7.54465 11.285
3774 21 94 -2.11612 9.75855 14.7321
3911 21 187 6.4067 -13.2465 16.2355
3854 21 148 0.556205 0.965653 5.05259
3920 21 194 16.1769 -20.9818 -2.00497
3839 21 139 12.3258 -17.9396 14.2195
3919 21 193 9.79724 -22.6214 10.783
3918 21 192 14.0886 -14.8814 -0.0997385
3859 21 151 13.0681 7.8138 -4.14543
ITEM: TIMESTEP
960000
ITEM: NUMBER OF ATOMS
13
ITEM: BOX BOUNDS pp pp pp
-1.8349052155910577e+01 1.6530032376985140e+01
-2.4415984364580218e+01 1.4188576122492812e+01
-9.3317517112641930e+00 2.0704410534625957e+01
ITEM: ATOMS id type mol x y z
3840 21 140 -10.1708 6.92498 11.6897
3897 21 177 -1.97673 -15.0783 -0.839917
3718 21 60 -1.30778 -1.77456 -2.05674
3823 21 127 -7.19536 -2.36803 16.6273
3818 21 124 -8.0913 8.35979 1.56352
3924 21 196 -2.33247 7.46933 11.3277
3774 21 94 -2.12275 9.67006 14.801
3911 21 187 6.44689 -13.1981 16.3158
3854 21 148 0.564258 0.929479 5.04776
3920 21 194 16.2708 -20.8873 -2.06354
3919 21 193 9.85606 -22.5172 10.8218
3918 21 192 14.171 -14.8233 -0.1438
3859 21 151 13.1449 7.73688 -4.2203
ITEM: TIMESTEP
965000
ITEM: NUMBER OF ATOMS
13
ITEM: BOX BOUNDS pp pp pp
-1.8551105520290999e+01 1.6732085741365562e+01
-2.4453108528914758e+01 1.4225700286827351e+01
-9.1593121075060466e+00 2.0531970930889305e+01
ITEM: ATOMS id type mol x y z
3840 21 140 -10.2781 6.94814 11.6208
3897 21 177 -1.9891 -15.0975 -0.764982
3718 21 60 -1.3124 -1.76813 -1.96783
3823 21 127 -7.26819 -2.36275 16.5017
3818 21 124 -8.17451 8.38571 1.61086
3924 21 196 -2.34896 7.49353 11.2629
3774 21 94 -2.13681 9.69849 14.6963
3911 21 187 6.53212 -13.2136 16.1937
3854 21 148 0.581333 0.941102 5.05509
3920 21 194 16.4699 -20.9177 -1.97455
3919 21 193 9.98079 -22.5506 10.7628
3918 21 192 14.3457 -14.842 -0.0768572
3859 21 151 13.3078 7.7616 -4.10655
ITEM: TIMESTEP
970000
ITEM: NUMBER OF ATOMS
15
ITEM: BOX BOUNDS pp pp pp
-1.8528929198678988e+01 1.6709909419753551e+01
-2.4383149130861678e+01 1.4155740888774272e+01
-9.1475229377010621e+00 2.0520181761069249e+01
ITEM: ATOMS id type mol x y z
3840 21 140 -10.2663 6.9045 11.616
3928 21 198 -7.26315 -18.1036 6.66882
3897 21 177 -1.98774 -15.0613 -0.759859
3718 21 60 -1.31189 -1.78024 -1.96176
3823 21 127 -7.26019 -2.3727 16.4931
3929 21 199 -9.55774 5.17078 9.13406
3818 21 124 -8.16537 8.33687 1.6141
3924 21 196 -2.34715 7.44792 11.2585
3774 21 94 -2.13526 9.64491 14.6892
3911 21 187 6.52277 -13.1843 16.1854
3854 21 148 0.579459 0.919199 5.0556
3920 21 194 16.448 -20.8605 -1.96847
3919 21 193 9.9671 -22.4876 10.7588
3918 21 192 14.3265 -14.8068 -0.0722806
3859 21 151 13.2899 7.71502 -4.09878
ITEM: TIMESTEP
975000
ITEM: NUMBER OF ATOMS
17
ITEM: BOX BOUNDS pp pp pp
-1.8516943922373862e+01 1.6697924143448425e+01
-2.4243957167197689e+01 1.4016548925110282e+01
-9.2922216540419171e+00 2.0664880477358913e+01
ITEM: ATOMS id type mol x y z
3840 21 140 -10.26 6.81769 11.6739
3928 21 198 -7.25882 -18.0098 6.67841
3897 21 177 -1.98701 -14.9895 -0.822739
3718 21 60 -1.31162 -1.80431 -2.03636
3932 21 202 -5.73925 -8.57421 1.97677
3823 21 127 -7.25587 -2.3925 16.5986
3929 21 199 -9.55186 5.09649 9.16769
3818 21 124 -8.16044 8.23971 1.57438
3924 21 196 -2.34617 7.35719 11.3128
3774 21 94 -2.13443 9.5383 14.777
3911 21 187 6.51771 -13.126 16.2878
3854 21 148 0.578446 0.87562 5.04944
3919 21 193 9.9597 -22.3621 10.8082
3918 21 192 14.3161 -14.7368 -0.128454
3931 21 201 8.80835 -3.42729 -0.124537
3930 21 200 16.3328 4.5169 -8.95949
3859 21 151 13.2802 7.62235 -4.19423
ITEM: TIMESTEP
980000
ITEM: NUMBER OF ATOMS
15
ITEM: BOX BOUNDS pp pp pp
-1.8398311232493079e+01 1.6579291453567642e+01
-2.4230391820889704e+01 1.4002983578802297e+01
-9.3326311235687598e+00 2.0705289946858564e+01
ITEM: ATOMS id type mol x y z
3840 21 140 -10.197 6.80923 11.69
3897 21 177 -1.97975 -14.9825 -0.8403
3718 21 60 -1.30891 -1.80666 -2.05719
3932 21 202 -5.70671 -8.57176 1.96677
3823 21 127 -7.21311 -2.39443 16.628
3929 21 199 -9.49363 5.08925 9.17708
3818 21 124 -8.11158 8.23024 1.56328
3924 21 196 -2.33649 7.34834 11.328
3774 21 94 -2.12618 9.52791 14.8015
3911 21 187 6.46767 -13.1204 16.3164
3854 21 148 0.56842 0.871373 5.04772
3919 21 193 9.88647 -22.3498 10.8221
3918 21 192 14.2136 -14.7299 -0.144141
3931 21 201 8.74288 -3.42848 -0.140214
3859 21 151 13.1846 7.61332 -4.22088
ITEM: TIMESTEP
985000
ITEM: NUMBER OF ATOMS
16
ITEM: BOX BOUNDS pp pp pp
-1.8412666796273353e+01 1.6593647017347916e+01
-2.4355873845447636e+01 1.4128465603360230e+01
-9.2673016731814961e+00 2.0639960496468564e+01
ITEM: ATOMS id type mol x y z
3840 21 140 -10.2046 6.88749 11.6639
3897 21 177 -1.98063 -15.0473 -0.81191
3718 21 60 -1.30924 -1.78495 -2.02351
3932 21 202 -5.71065 -8.59445 1.98294
3823 21 127 -7.21829 -2.37658 16.5804
3929 21 199 -9.50067 5.15623 9.1619
3818 21 124 -8.1175 8.31783 1.58122
3924 21 196 -2.33766 7.43014 11.3035
3774 21 94 -2.12717 9.62402 14.7619
3911 21 187 6.47373 -13.1729 16.2702
3933 21 203 5.19945 -5.37436 10.6391
3854 21 148 0.569633 0.910659 5.0505
3919 21 193 9.89533 -22.463 10.7997
3918 21 192 14.226 -14.7931 -0.11878
3931 21 201 8.7508 -3.41742 -0.11487
3859 21 151 13.1962 7.69686 -4.17779
ITEM: TIMESTEP
990000
ITEM: NUMBER OF ATOMS
16
ITEM: BOX BOUNDS pp pp pp
-1.8483961591223014e+01 1.6664941812297577e+01
-2.4483911433536001e+01 1.4256503191448594e+01
-9.3272033483964236e+00 2.0699862171651745e+01
ITEM: ATOMS id type mol x y z
3840 21 140 -10.2424 6.96735 11.6879
3897 21 177 -1.98499 -15.1134 -0.837941
3718 21 60 -1.31086 -1.7628 -2.0544
3932 21 202 -5.7302 -8.61761 1.96811
3823 21 127 -7.24399 -2.35837 16.624
3929 21 199 -9.53567 5.22456 9.17582
3818 21 124 -8.14686 8.40721 1.56477
3924 21 196 -2.34348 7.51361 11.326
3774 21 94 -2.13213 9.72208 14.7982
3911 21 187 6.5038 -13.2265 16.3126
3933 21 203 5.22433 -5.37609 10.6589
3854 21 148 0.575658 0.950746 5.04796
3919 21 193 9.93934 -22.5784 10.8202
3918 21 192 14.2876 -14.8575 -0.142034
3931 21 201 8.79015 -3.40613 -0.138108
3859 21 151 13.2536 7.7821 -4.2173
ITEM: TIMESTEP
995000
ITEM: NUMBER OF ATOMS
16
ITEM: BOX BOUNDS pp pp pp
-1.8311246375112962e+01 1.6492226596187525e+01
-2.4427724087238953e+01 1.4200315845151547e+01
-9.3820232915187631e+00 2.0754682114743488e+01
ITEM: ATOMS id type mol x y z
3934 21 204 -15.9024 -14.2881 13.0806
3840 21 140 -10.1507 6.93231 11.7098
3897 21 177 -1.97442 -15.0844 -0.861763
3718 21 60 -1.30692 -1.77252 -2.08266
3932 21 202 -5.68283 -8.60745 1.95453
3823 21 127 -7.18173 -2.36636 16.664
3929 21 199 -9.45089 5.19458 9.18856
3924 21 196 -2.32938 7.47698 11.3466
3774 21 94 -2.12012 9.67905 14.8315
3911 21 187 6.43094 -13.203 16.3514
3933 21 203 5.16405 -5.37533 10.6771
3854 21 148 0.561063 0.933154 5.04562
3919 21 193 9.83272 -22.5278 10.839
3918 21 192 14.1383 -14.8292 -0.163315
3931 21 201 8.69482 -3.41109 -0.159376
3859 21 151 13.1145 7.7447 -4.25346
ITEM: TIMESTEP
1000000
ITEM: NUMBER OF ATOMS
16
ITEM: BOX BOUNDS pp pp pp
-1.8464139906801233e+01 1.6645120127875796e+01
-2.4369884185606644e+01 1.4142475943519237e+01
-9.2709659580766868e+00 2.0643624781309754e+01
ITEM: ATOMS id type mol x y z
3934 21 204 -16.0341 -14.2606 13.0261
3840 21 140 -10.2319 6.89623 11.6654
3897 21 177 -1.98378 -15.0545 -0.813502
3718 21 60 -1.31041 -1.78253 -2.0254
3932 21 202 -5.72477 -8.59699 1.98204
3823 21 127 -7.23684 -2.37459 16.5831
3929 21 199 -9.52594 5.1637 9.16275
3924 21 196 -2.34186 7.43928 11.3048
3774 21 94 -2.13076 9.63475 14.7641
3911 21 187 6.49544 -13.1788 16.2728
3933 21 203 5.21741 -5.37455 10.6403
3854 21 148 0.573983 0.915046 5.05035
3919 21 193 9.92711 -22.4756 10.801
3918 21 192 14.2705 -14.8001 -0.120202
3931 21 201 8.77921 -3.41619 -0.116291
3859 21 151 13.2377 7.70619 -4.18021
ITEM: TIMESTEP
1005000
ITEM: NUMBER OF ATOMS
17
ITEM: BOX BOUNDS pp pp pp
-1.8480463476332226e+01 1.6661443697406789e+01
-2.4437468981014018e+01 1.4210060738926611e+01
-9.2756498825342106e+00 2.0648308705748157e+01
ITEM: ATOMS id type mol x y z
3934 21 204 -16.0482 -14.2927 13.0284
3935 21 205 -14.2364 5.42799 16.4814
3840 21 140 -10.2406 6.93838 11.6673
3897 21 177 -1.98478 -15.0894 -0.815538
3718 21 60 -1.31078 -1.77084 -2.02782
3932 21 202 -5.72924 -8.60921 1.98088
3823 21 127 -7.24272 -2.36498 16.5865
3929 21 199 -9.53395 5.19978 9.16384
3924 21 196 -2.34319 7.48333 11.3066
3774 21 94 -2.13189 9.68651 14.7669
3911 21 187 6.50232 -13.2071 16.2761
3933 21 203 5.22311 -5.37547 10.6419
3854 21 148 0.575363 0.936205 5.05015
3919 21 193 9.93718 -22.5365 10.8026
3918 21 192 14.2846 -14.8341 -0.12202
3931 21 201 8.78822 -3.41023 -0.118108
3859 21 151 13.2508 7.75118 -4.1833
ITEM: TIMESTEP
1010000
ITEM: NUMBER OF ATOMS
17
ITEM: BOX BOUNDS pp pp pp
-1.8543491710488219e+01 1.6724471931562782e+01
-2.4137060879469104e+01 1.3909652637381697e+01
-9.2944680413763514e+00 2.0667126864567955e+01
ITEM: ATOMS id type mol x y z
3934 21 204 -16.1025 -14.15 13.0376
3935 21 205 -14.2842 5.26411 16.4949
3840 21 140 -10.2741 6.75102 11.6748
3897 21 177 -1.98863 -14.9343 -0.823715
3718 21 60 -1.31222 -1.82281 -2.03752
3932 21 202 -5.74653 -8.55487 1.97622
3823 21 127 -7.26544 -2.40771 16.6002
3929 21 199 -9.56489 5.03944 9.16821
3924 21 196 -2.34833 7.2875 11.3137
3774 21 94 -2.13628 9.45643 14.7783
3911 21 187 6.52891 -13.0813 16.2894
3933 21 203 5.24511 -5.3714 10.6481
3854 21 148 0.580689 0.842153 5.04935
3919 21 193 9.97609 -22.2657 10.809
3918 21 192 14.3391 -14.683 -0.129326
3931 21 201 8.823 -3.43671 -0.125409
3859 21 151 13.3016 7.55119 -4.19571
ITEM: TIMESTEP
1015000
ITEM: NUMBER OF ATOMS
15
ITEM: BOX BOUNDS pp pp pp
-1.8561685210042555e+01 1.6742665431117118e+01
-2.4139863212742185e+01 1.3912454970654778e+01
-9.2354994763880498e+00 2.0608158299575951e+01
ITEM: ATOMS id type mol x y z
3934 21 204 -16.1182 -14.1513 13.0087
3935 21 205 -14.298 5.26564 16.4524
3897 21 177 -1.98975 -14.9358 -0.79809
3718 21 60 -1.31264 -1.82232 -2.00711
3823 21 127 -7.272 -2.40731 16.5572
3929 21 199 -9.57382 5.04094 9.1545
3924 21 196 -2.34982 7.28933 11.2915
3774 21 94 -2.13754 9.45857 14.7426
3911 21 187 6.53659 -13.0824 16.2477
3933 21 203 5.25146 -5.37143 10.6286
3854 21 148 0.582227 0.843031 5.05185
3919 21 193 9.98732 -22.2682 10.7889
3918 21 192 14.3548 -14.6844 -0.106434
3931 21 201 8.83305 -3.43646 -0.102532
3859 21 151 13.3163 7.55305 -4.15681
ITEM: TIMESTEP
1020000
ITEM: NUMBER OF ATOMS
14
ITEM: BOX BOUNDS pp pp pp
-1.8612532870868598e+01 1.6793513091943161e+01
-2.4153394099495166e+01 1.3925985857407760e+01
-9.2777795531128220e+00 2.0650438376272888e+01
ITEM: ATOMS id type mol x y z
3934 21 204 -16.162 -14.1578 13.0294
3935 21 205 -14.3366 5.27302 16.4829
3897 21 177 -1.99286 -14.9427 -0.816463
3718 21 60 -1.3138 -1.81998 -2.02891
3823 21 127 -7.29033 -2.40538 16.588
3929 21 199 -9.59878 5.04816 9.16433
3924 21 196 -2.35397 7.29815 11.3074
3774 21 94 -2.14108 9.46894 14.7682
3911 21 187 6.55803 -13.0881 16.2776
3936 21 206 6.58386 -3.16931 11.4111
3854 21 148 0.586524 0.847267 5.05006
3919 21 193 10.0187 -22.2804 10.8033
3931 21 201 8.86111 -3.43527 -0.118935
3859 21 151 13.3573 7.56206 -4.1847
ITEM: TIMESTEP
1025000
ITEM: NUMBER OF ATOMS
14
ITEM: BOX BOUNDS pp pp pp
-1.8338829802165439e+01 1.6519810023240002e+01
-2.4400716167308911e+01 1.4173307925221504e+01
-9.4086669855981881e+00 2.0781325808708988e+01
ITEM: ATOMS id type mol x y z
3934 21 204 -15.9262 -14.2752 13.0937
3935 21 205 -14.129 5.40794 16.5773
3897 21 177 -1.97611 -15.0704 -0.873342
3718 21 60 -1.30755 -1.7772 -2.0964
3823 21 127 -7.19167 -2.3702 16.6834
3929 21 199 -9.46443 5.18016 9.19475
3924 21 196 -2.33164 7.45938 11.3566
3774 21 94 -2.12204 9.65836 14.8477
3911 21 187 6.44258 -13.1917 16.3702
3936 21 206 6.46801 -3.14406 11.4611
3854 21 148 0.563394 0.924699 5.04449
3919 21 193 9.84975 -22.5034 10.8481
3931 21 201 8.71005 -3.41347 -0.169712
3859 21 151 13.1367 7.72672 -4.27104
ITEM: TIMESTEP
1030000
ITEM: NUMBER OF ATOMS
14
ITEM: BOX BOUNDS pp pp pp
-1.8539155796341280e+01 1.6720136017415843e+01
-2.4357559160249416e+01 1.4130150918162009e+01
-9.2503873355179316e+00 2.0623046158649242e+01
ITEM: ATOMS id type mol x y z
3934 21 204 -16.0988 -14.2547 13.016
3935 21 205 -14.2809 5.38439 16.4631
3897 21 177 -1.98837 -15.0481 -0.80456
3718 21 60 -1.31212 -1.78466 -2.01479
3823 21 127 -7.26388 -2.37634 16.5681
3929 21 199 -9.56276 5.15713 9.15796
3924 21 196 -2.34798 7.43124 11.2971
3774 21 94 -2.13597 9.62531 14.7516
3911 21 187 6.52708 -13.1736 16.2582
3936 21 206 6.5528 -3.14846 11.4006
3854 21 148 0.580323 0.911187 5.05122
3919 21 193 9.97341 -22.4645 10.7939
3931 21 201 8.82061 -3.41727 -0.108308
3859 21 151 13.2981 7.69798 -4.16663
ITEM: TIMESTEP
1035000
ITEM: NUMBER OF ATOMS
15
ITEM: BOX BOUNDS pp pp pp
-1.8430375979155407e+01 1.6611356200229970e+01
-2.4430549693300183e+01 1.4203141451212776e+01
-9.2498657183185422e+00 2.0622524541432465e+01
ITEM: ATOMS id type mol x y z
3934 21 204 -16.005 -14.2894 13.0157
3935 21 205 -14.1984 5.42421 16.4628
3897 21 177 -1.98171 -15.0858 -0.804333
3718 21 60 -1.30964 -1.77204 -2.01452
3823 21 127 -7.22467 -2.36596 16.5677
3929 21 199 -9.50937 5.19608 9.15784
3924 21 196 -2.33911 7.47882 11.2969
3774 21 94 -2.12841 9.68121 14.7513
3911 21 187 6.4812 -13.2042 16.2578
3936 21 206 6.50676 -3.14101 11.4004
3854 21 148 0.57113 0.934039 5.05124
3919 21 193 9.90626 -22.5303 10.7938
3937 21 207 14.5603 -15.3657 5.92739
3931 21 201 8.76057 -3.41084 -0.108106
3859 21 151 13.2105 7.74658 -4.16629
ITEM: TIMESTEP
1040000
ITEM: NUMBER OF ATOMS
15
ITEM: BOX BOUNDS pp pp pp
-1.8527366514119986e+01 1.6708346735194549e+01
-2.4423231883547313e+01 1.4195823641459906e+01
-9.2008571744120005e+00 2.0573515997520129e+01
ITEM: ATOMS id type mol x y z
3934 21 204 -16.0886 -14.2859 12.9917
3935 21 205 -14.272 5.42022 16.4274
3897 21 177 -1.98765 -15.082 -0.783036
3718 21 60 -1.31185 -1.7733 -1.98925
3823 21 127 -7.25963 -2.367 16.532
3929 21 199 -9.55697 5.19218 9.14645
3924 21 196 -2.34702 7.47405 11.2785
3774 21 94 -2.13515 9.67561 14.7215
3911 21 187 6.52211 -13.2011 16.2231
3936 21 206 6.54781 -3.14176 11.3816
3854 21 148 0.579326 0.931748 5.05333
3919 21 193 9.96614 -22.5237 10.777
3937 21 207 14.6459 -15.3619 5.9266
3931 21 201 8.8141 -3.41148 -0.089093
3859 21 151 13.2886 7.74171 -4.13396
ITEM: TIMESTEP
1045000
ITEM: NUMBER OF ATOMS
15
ITEM: BOX BOUNDS pp pp pp
-1.8426485466825664e+01 1.6607465687900227e+01
-2.4187258622809516e+01 1.3959850380722109e+01
-9.3249983824665179e+00 2.0697657205526383e+01
ITEM: ATOMS id type mol x y z
3934 21 204 -16.0017 -14.1739 13.0526
3935 21 205 -14.1955 5.29149 16.517
3897 21 177 -1.98147 -14.9602 -0.836983
3718 21 60 -1.30955 -1.81412 -2.05326
3823 21 127 -7.22327 -2.40057 16.6224
3929 21 199 -9.50746 5.06623 9.17531
3924 21 196 -2.33879 7.32022 11.3251
3774 21 94 -2.12814 9.49487 14.7969
3911 21 187 6.47956 -13.1023 16.311
3936 21 206 6.50511 -3.16585 11.4291
3854 21 148 0.570801 0.857869 5.04805
3919 21 193 9.90386 -22.311 10.8195
3937 21 207 14.5568 -15.2366 5.9286
3931 21 201 8.75843 -3.43229 -0.137253
3859 21 151 13.2073 7.58461 -4.21585
ITEM: TIMESTEP
1050000
ITEM: NUMBER OF ATOMS
17
ITEM: BOX BOUNDS pp pp pp
-1.8453798527681599e+01 1.6634778748756162e+01
-2.4483032027255174e+01 1.4255623785167767e+01
-9.1810165933318189e+00 2.0553675416409209e+01
ITEM: ATOMS id type mol x y z
3934 21 204 -16.0252 -14.3143 12.982
3935 21 205 -14.2162 5.45284 16.4131
3940 21 210 -11.6544 6.89992 11.1858
3897 21 177 -1.98315 -15.1129 -0.774414
3718 21 60 -1.31017 -1.76296 -1.97902
3823 21 127 -7.23311 -2.35849 16.5175
3929 21 199 -9.52086 5.22409 9.14184
3924 21 196 -2.34102 7.51304 11.2711
3774 21 94 -2.13004 9.72141 14.7095
3911 21 187 6.49108 -13.2262 16.2091
3936 21 206 6.51667 -3.13565 11.374
3854 21 148 0.573109 0.95047 5.05417
3919 21 193 9.92072 -22.5776 10.7702
3939 21 209 15.7935 -22.7622 8.91956
3938 21 208 9.60617 -9.63248 -9.0917
3931 21 201 8.7735 -3.40621 -0.0813959
3859 21 151 13.2293 7.78152 -4.12087
ITEM: TIMESTEP
1055000
ITEM: NUMBER OF ATOMS
16
ITEM: BOX BOUNDS pp pp pp
-1.8353682208346903e+01 1.6534662429421466e+01
-2.4359394360659532e+01 1.4131986118572126e+01
-9.3386584239247910e+00 2.0711317246945402e+01
ITEM: ATOMS id type mol x y z
3934 21 204 -15.939 -14.2556 13.0593
3935 21 205 -14.1402 5.3854 16.5268
3897 21 177 -1.97702 -15.0491 -0.842919
3718 21 60 -1.30789 -1.78434 -2.0603
3823 21 127 -7.19703 -2.37608 16.6324
3929 21 199 -9.47172 5.15811 9.17848
3924 21 196 -2.33285 7.43244 11.3303
3774 21 94 -2.12307 9.62671 14.8052
3911 21 187 6.44885 -13.1744 16.3207
3936 21 206 6.4743 -3.14828 11.4344
3854 21 148 0.564649 0.911762 5.04747
3919 21 193 9.85892 -22.4662 10.8241
3939 21 209 15.6982 -22.6495 8.95384
3938 21 208 9.54616 -9.60363 -9.24839
3931 21 201 8.71825 -3.41711 -0.142552
3859 21 151 13.1486 7.69921 -4.22486
ITEM: TIMESTEP
1060000
ITEM: NUMBER OF ATOMS
14
ITEM: BOX BOUNDS pp pp pp
-1.8464360812768508e+01 1.6645341033843071e+01
-2.4435590373085500e+01 1.4208182130998093e+01
-9.2975723764023641e+00 2.0670231199415788e+01
ITEM: ATOMS id type mol x y z
3934 21 204 -16.0343 -14.2918 13.0392
3935 21 205 -14.2242 5.42696 16.4972
3718 21 60 -1.31042 -1.77116 -2.03912
3823 21 127 -7.23692 -2.36524 16.6024
3929 21 199 -9.52605 5.19877 9.16893
3924 21 196 -2.34188 7.48211 11.3148
3774 21 94 -2.13077 9.68507 14.7802
3911 21 187 6.49553 -13.2063 16.2916
3936 21 206 6.52114 -3.14049 11.4186
3919 21 193 9.92724 -22.5349 10.8101
3939 21 209 15.8036 -22.7189 8.94491
3938 21 208 9.6125 -9.62141 -9.20755
3931 21 201 8.77933 -3.41039 -0.126613
3859 21 151 13.2378 7.74993 -4.19776
ITEM: TIMESTEP
1065000
ITEM: NUMBER OF ATOMS
14
ITEM: BOX BOUNDS pp pp pp
-1.8329600077432406e+01 1.6510580298506969e+01
-2.4628945564442830e+01 1.4401537322355423e+01
-9.2371494420762446e+00 2.0609808265086890e+01
ITEM: ATOMS id type mol x y z
3934 21 204 -15.9182 -14.3837 13.0095
3935 21 205 -14.122 5.53244 16.4536
3718 21 60 -1.30734 -1.73771 -2.00796
3823 21 127 -7.18835 -2.33774 16.5584
3929 21 199 -9.4599 5.30197 9.15489
3924 21 196 -2.33088 7.60816 11.2921
3774 21 94 -2.1214 9.83317 14.7436
3911 21 187 6.43869 -13.2873 16.2488
3936 21 206 6.4641 -3.12075 11.3955
3919 21 193 9.84405 -22.7092 10.7894
3939 21 209 15.6753 -22.8951 8.93177
3938 21 208 9.53173 -9.66652 -9.14749
3931 21 201 8.70495 -3.39335 -0.103172
3859 21 151 13.1292 7.87866 -4.1579
ITEM: TIMESTEP
1070000
ITEM: NUMBER OF ATOMS
14
ITEM: BOX BOUNDS pp pp pp
-1.8589948284948424e+01 1.6770928506022987e+01
-2.4263205679905536e+01 1.4035797437818129e+01
-9.1778890174356711e+00 2.0550547840443507e+01
ITEM: ATOMS id type mol x y z
3934 21 204 -16.1425 -14.2099 12.9804
3935 21 205 -14.3194 5.33292 16.4108
3718 21 60 -1.31328 -1.80098 -1.97741
3823 21 127 -7.28219 -2.38976 16.5153
3929 21 199 -9.58769 5.10677 9.14111
3924 21 196 -2.35213 7.36973 11.2699
3774 21 94 -2.13951 9.55304 14.7076
3911 21 187 6.54851 -13.1341 16.2069
3936 21 206 6.5743 -3.1581 11.3728
3919 21 193 10.0048 -22.3794 10.7692
3939 21 209 15.9231 -22.5619 8.91888
3938 21 208 9.68778 -9.58119 -9.08859
3931 21 201 8.84864 -3.42559 -0.0801826
3859 21 151 13.3391 7.63517 -4.11881
ITEM: TIMESTEP
1075000
ITEM: NUMBER OF ATOMS
15
ITEM: BOX BOUNDS pp pp pp
-1.8484247590477178e+01 1.6665227811551741e+01
-2.4268762860083179e+01 1.4041354617995772e+01
-9.3251857563946849e+00 2.0697844579347393e+01
ITEM: ATOMS id type mol x y z
3934 21 204 -16.0514 -14.2126 13.0527
3935 21 205 -14.2393 5.33595 16.5171
3946 21 212 -10.0794 8.50856 12.0442
3718 21 60 -1.31087 -1.80002 -2.05335
3823 21 127 -7.24409 -2.38897 16.6226
3929 21 199 -9.53581 5.10973 9.17535
3924 21 196 -2.3435 7.37336 11.3252
3774 21 94 -2.13215 9.5573 14.797
3911 21 187 6.50392 -13.1364 16.3111
3936 21 206 6.52956 -3.15753 11.4292
3919 21 193 9.93952 -22.3844 10.8195
3939 21 209 15.8225 -22.5669 8.95091
3938 21 208 9.62442 -9.58249 -9.235
3931 21 201 8.79031 -3.4251 -0.137326
3859 21 151 13.2539 7.63887 -4.21597
ITEM: TIMESTEP
1080000
ITEM: NUMBER OF ATOMS
14
ITEM: BOX BOUNDS pp pp pp
-1.8443088743652467e+01 1.6624068964727030e+01
-2.4387534249049260e+01 1.4160126006961853e+01
-9.2196414045944692e+00 2.0592300227556333e+01
ITEM: ATOMS id type mol x y z
3934 21 204 -16.016 -14.269 13.0009
3935 21 205 -14.208 5.40075 16.4409
3946 21 212 -10.0579 8.59302 11.9995
3718 21 60 -1.30993 -1.77948 -1.99894
3823 21 127 -7.22925 -2.37208 16.5457
3924 21 196 -2.34014 7.45078 11.2856
3774 21 94 -2.12929 9.64827 14.7329
3911 21 187 6.48656 -13.1862 16.2364
3936 21 206 6.51214 -3.1454 11.3888
3919 21 193 9.91411 -22.4915 10.7834
3939 21 209 15.7833 -22.6752 8.92796
3938 21 208 9.59975 -9.6102 -9.13009
3931 21 201 8.76759 -3.41463 -0.0963802
3859 21 151 13.2207 7.71794 -4.14635
ITEM: TIMESTEP
1085000
ITEM: NUMBER OF ATOMS
14
ITEM: BOX BOUNDS pp pp pp
-1.8394989708483507e+01 1.6575969929558070e+01
-2.4387734755416968e+01 1.4160326513329561e+01
-9.3294282456951585e+00 2.0702087068611323e+01
ITEM: ATOMS id type mol x y z
3934 21 204 -15.9745 -14.2691 13.0548
3935 21 205 -14.1716 5.40086 16.5202
3946 21 212 -10.0328 8.59317 12.046
3718 21 60 -1.30883 -1.77944 -2.05554
3823 21 127 -7.21192 -2.37205 16.6257
3924 21 196 -2.33622 7.45091 11.3268
3774 21 94 -2.12594 9.64842 14.7996
3911 21 187 6.46627 -13.1863 16.3141
3936 21 206 6.49178 -3.14538 11.4308
3919 21 193 9.88442 -22.4917 10.821
3939 21 209 15.7375 -22.6753 8.95183
3938 21 208 9.57092 -9.61024 -9.23922
3931 21 201 8.74104 -3.41461 -0.138972
3859 21 151 13.1819 7.71807 -4.21877
ITEM: TIMESTEP
1090000
ITEM: NUMBER OF ATOMS
15
ITEM: BOX BOUNDS pp pp pp
-1.8553481192033846e+01 1.6734461413108409e+01
-2.4200685741535249e+01 1.3973277499447843e+01
-9.3528953504598604e+00 2.0725554173352084e+01
ITEM: ATOMS id type mol x y z
3950 21 214 -17.6358 -21.3785 6.89769
3934 21 204 -16.1111 -14.1802 13.0663
3935 21 205 -14.2918 5.29882 16.5371
3946 21 212 -10.1155 8.46015 12.0559
3718 21 60 -1.31245 -1.8118 -2.06764
3823 21 127 -7.26904 -2.39866 16.6428
3924 21 196 -2.34915 7.32898 11.3356
3774 21 94 -2.13697 9.50516 14.8138
3911 21 187 6.53313 -13.1079 16.3307
3936 21 206 6.55887 -3.16448 11.4398
3919 21 193 9.98226 -22.3231 10.829
3939 21 209 15.8884 -22.5049 8.95694
3938 21 208 9.66592 -9.56661 -9.26254
3931 21 201 8.82852 -3.4311 -0.148076
3859 21 151 13.3097 7.59354 -4.23425
ITEM: TIMESTEP
1095000
ITEM: NUMBER OF ATOMS
14
ITEM: BOX BOUNDS pp pp pp
-1.8469719928815245e+01 1.6650700149889808e+01
-2.4184200087087614e+01 1.3956791845000208e+01
-9.4257358780661917e+00 2.0798394700921971e+01
ITEM: ATOMS id type mol x y z
3934 21 204 -16.0389 -14.1724 13.102
3935 21 205 -14.2282 5.28982 16.5896
3946 21 212 -10.0718 8.44842 12.0868
3718 21 60 -1.31054 -1.81465 -2.1052
3823 21 127 -7.23885 -2.401 16.6958
3924 21 196 -2.34232 7.31823 11.363
3774 21 94 -2.13114 9.49253 14.858
3911 21 187 6.49779 -13.101 16.3823
3936 21 206 6.52341 -3.16617 11.4677
3919 21 193 9.93055 -22.3082 10.8539
3939 21 209 15.8087 -22.4899 8.97278
3938 21 208 9.61572 -9.56276 -9.33495
3931 21 201 8.78229 -3.43255 -0.176334
3859 21 151 13.2422 7.58257 -4.2823
ITEM: TIMESTEP
1100000
ITEM: NUMBER OF ATOMS
15
ITEM: BOX BOUNDS pp pp pp
-1.8438919325532527e+01 1.6619899546607090e+01
-2.4500258071106330e+01 1.4272849829018924e+01
-9.2848872772037083e+00 2.0657546100078225e+01
ITEM: ATOMS id type mol x y z
3935 21 205 -14.2049 5.46224 16.488
3951 21 215 -10.7545 9.16251 15.2705
3946 21 212 -10.0557 8.67319 12.0271
3718 21 60 -1.30983 -1.75998 -2.03258
3823 21 127 -7.22775 -2.35604 16.5932
3924 21 196 -2.3398 7.52427 11.3101
3774 21 94 -2.129 9.7346 14.7725
3911 21 187 6.4848 -13.2334 16.2826
3936 21 206 6.51038 -3.13389 11.4138
3919 21 193 9.91154 -22.5932 10.8057
3939 21 209 15.7793 -22.7779 8.94215
3938 21 208 9.59725 -9.6365 -9.19494
3950 21 214 16.4244 -12.8893 -8.92055
3931 21 201 8.76529 -3.40469 -0.121692
3859 21 151 13.2173 7.79299 -4.18939
ITEM: TIMESTEP
1105000
ITEM: NUMBER OF ATOMS
14
ITEM: BOX BOUNDS pp pp pp
-1.8418552894458834e+01 1.6599533115533397e+01
-2.4512004300830927e+01 1.4284596058743521e+01
-9.2235182456388820e+00 2.0596177068511533e+01
ITEM: ATOMS id type mol x y z
3935 21 205 -14.1894 5.46865 16.4437
3951 21 215 -10.7431 9.17116 15.2312
3946 21 212 -10.0451 8.68154 12.0012
3718 21 60 -1.30937 -1.75794 -2.00094
3823 21 127 -7.22041 -2.35437 16.5485
3924 21 196 -2.33814 7.53192 11.287
3774 21 94 -2.12758 9.7436 14.7353
3911 21 187 6.47621 -13.2383 16.2392
3936 21 206 6.50175 -3.13269 11.3903
3919 21 193 9.89897 -22.6038 10.7848
3939 21 209 15.76 -22.7886 8.9288
3938 21 208 9.58505 -9.63924 -9.13394
3950 21 214 16.4043 -12.894 -8.86067
3859 21 151 13.2009 7.80081 -4.14891
ITEM: TIMESTEP
1110000
ITEM: NUMBER OF ATOMS
14
ITEM: BOX BOUNDS pp pp pp
-1.8308121605250090e+01 1.6489101826324653e+01
-2.4477779974562754e+01 1.4250371732475347e+01
-9.3306065210475531e+00 2.0703265343874346e+01
ITEM: ATOMS id type mol x y z
3935 21 205 -14.1057 5.44998 16.521
3951 21 215 -10.681 9.14596 15.2997
3946 21 212 -9.98748 8.6572 12.0465
3718 21 60 -1.30685 -1.76386 -2.05615
3823 21 127 -7.18061 -2.35924 16.6265
3924 21 196 -2.32913 7.50961 11.3272
3774 21 94 -2.1199 9.71739 14.8003
3911 21 187 6.42963 -13.224 16.315
3936 21 206 6.45501 -3.13619 11.4313
3919 21 193 9.8308 -22.5729 10.8214
3939 21 209 15.6548 -22.7574 8.95209
3938 21 208 9.51886 -9.63125 -9.24039
3950 21 214 16.2951 -12.8803 -8.96516
3859 21 151 13.1119 7.77802 -4.21955
ITEM: TIMESTEP
1115000
ITEM: NUMBER OF ATOMS
14
ITEM: BOX BOUNDS pp pp pp
-1.8407016078380288e+01 1.6587996299454851e+01
-2.4417307848933511e+01 1.4189899606846105e+01
-9.2757923510764471e+00 2.0648451173899701e+01
ITEM: ATOMS id type mol x y z
3935 21 205 -14.1807 5.41699 16.4815
3951 21 215 -10.7366 9.10143 15.2646
3946 21 212 -10.0391 8.6142 12.0233
3718 21 60 -1.30911 -1.77433 -2.02789
3823 21 127 -7.21625 -2.36784 16.5866
3924 21 196 -2.3372 7.47019 11.3067
3774 21 94 -2.12678 9.67107 14.767
3911 21 187 6.47134 -13.1987 16.2762
3936 21 206 6.49687 -3.14236 11.4103
3919 21 193 9.89184 -22.5184 10.8026
3939 21 209 15.749 -22.7023 8.94017
3938 21 208 9.57813 -9.61714 -9.1859
3950 21 214 16.3929 -12.856 -8.91168
3859 21 151 13.1916 7.73776 -4.18339
ITEM: TIMESTEP
1120000
ITEM: NUMBER OF ATOMS
14
ITEM: BOX BOUNDS pp pp pp
-1.8324818408466214e+01 1.6505798629540777e+01
-2.4553434854335741e+01 1.4326026612248334e+01
-9.1660452601509910e+00 2.0538704082985539e+01
ITEM: ATOMS id type mol x y z
3935 21 205 -14.1183 5.49125 16.4023
3951 21 215 -10.6904 9.20167 15.1944
3946 21 212 -9.99619 8.71101 11.9768
3718 21 60 -1.30723 -1.75078 -1.9713
3823 21 127 -7.18662 -2.34848 16.5066
3924 21 196 -2.33049 7.55893 11.2654
3774 21 94 -2.12106 9.77533 14.7004
3911 21 187 6.43667 -13.2557 16.1985
3936 21 206 6.46208 -3.12846 11.3683
3919 21 193 9.8411 -22.6411 10.7651
3939 21 209 15.6707 -22.8263 8.9163
3938 21 208 9.52886 -9.6489 -9.07682
3950 21 214 16.3116 -12.9106 -8.8046
3859 21 151 13.1254 7.82839 -4.111
ITEM: TIMESTEP
1125000
ITEM: NUMBER OF ATOMS
15
ITEM: BOX BOUNDS pp pp pp
-1.8462086333623628e+01 1.6643066554698191e+01
-2.4457544016824166e+01 1.4230135774736759e+01
-9.3398233717765535e+00 2.0712482194547420e+01
ITEM: ATOMS id type mol x y z
3935 21 205 -14.2225 5.43894 16.5277
3951 21 215 -10.7675 9.13106 15.3056
3946 21 212 -10.0678 8.64281 12.0504
3718 21 60 -1.31036 -1.76737 -2.0609
3823 21 127 -7.2361 -2.36212 16.6332
3924 21 196 -2.34169 7.49642 11.3307
3774 21 94 -2.13061 9.70189 14.8059
3911 21 187 6.49457 -13.2155 16.3215
3936 21 206 6.52018 -3.13825 11.4348
3955 21 217 3.77205 8.47959 14.8286
3919 21 193 9.92584 -22.5546 10.8245
3939 21 209 15.8014 -22.7389 8.9541
3938 21 208 9.61114 -9.62653 -9.24955
3950 21 214 16.4474 -12.8722 -8.97415
3859 21 151 13.236 7.76455 -4.22563
ITEM: TIMESTEP
1130000
ITEM: NUMBER OF ATOMS
15
ITEM: BOX BOUNDS pp pp pp
-1.8444643917526228e+01 1.6625624138600791e+01
-2.4364556753439590e+01 1.4137148511352184e+01
-9.3960372453969221e+00 2.0768696068134879e+01
ITEM: ATOMS id type mol x y z
3935 21 205 -14.2092 5.38821 16.5682
3951 21 215 -10.7577 9.06258 15.3416
3946 21 212 -10.0587 8.57668 12.0742
3718 21 60 -1.30997 -1.78345 -2.08988
3823 21 127 -7.22981 -2.37535 16.6742
3924 21 196 -2.34027 7.4358 11.3518
3774 21 94 -2.1294 9.63067 14.84
3911 21 187 6.48722 -13.1766 16.3613
3936 21 206 6.5128 -3.14775 11.4563
3955 21 217 3.7674 8.41425 14.8628
3919 21 193 9.91507 -22.4708 10.8437
3939 21 209 15.7848 -22.6542 8.96632
3938 21 208 9.60069 -9.60484 -9.30543
3950 21 214 16.4301 -12.8349 -9.02899
3859 21 151 13.222 7.70264 -4.26271
ITEM: TIMESTEP
1135000
ITEM: NUMBER OF ATOMS
16
ITEM: BOX BOUNDS pp pp pp
-1.8310810108905404e+01 1.6491790329979967e+01
-2.4337140608647015e+01 1.4109732366559609e+01
-9.4310520269282492e+00 2.0803710849638875e+01
ITEM: ATOMS id type mol x y z
3935 21 205 -14.1077 5.37326 16.5935
3951 21 215 -10.6825 9.04239 15.364
3946 21 212 -9.98888 8.55719 12.089
3956 21 218 -7.18817 -9.39607 4.76806
3718 21 60 -1.30691 -1.78819 -2.10794
3823 21 127 -7.18158 -2.37925 16.6997
3924 21 196 -2.32935 7.41793 11.365
3774 21 94 -2.12009 9.60967 14.8612
3911 21 187 6.43076 -13.1651 16.3861
3936 21 206 6.45615 -3.15055 11.4697
3955 21 217 3.7317 8.39498 14.8841
3919 21 193 9.83245 -22.4461 10.8557
3939 21 209 15.6574 -22.6292 8.97393
3938 21 208 9.52047 -9.59844 -9.34023
3950 21 214 16.2978 -12.8239 -9.06316
3859 21 151 13.1141 7.68439 -4.28581
ITEM: TIMESTEP
1140000
ITEM: NUMBER OF ATOMS
16
ITEM: BOX BOUNDS pp pp pp
-1.8272777727852638e+01 1.6453757948927201e+01
-2.4457364505947830e+01 1.4229956263860423e+01
-9.3952957570031685e+00 2.0767954579705634e+01
ITEM: ATOMS id type mol x y z
3935 21 205 -14.0789 5.43884 16.5677
3951 21 215 -10.6612 9.13093 15.3411
3946 21 212 -9.96904 8.64268 12.0739
3956 21 218 -7.17444 -9.42285 4.77024
3718 21 60 -1.30604 -1.7674 -2.0895
3823 21 127 -7.16787 -2.36215 16.6736
3924 21 196 -2.32625 7.4963 11.3515
3774 21 94 -2.11744 9.70175 14.8395
3911 21 187 6.41472 -13.2154 16.3608
3936 21 206 6.44005 -3.13827 11.456
3955 21 217 3.72156 8.47947 14.8623
3919 21 193 9.80898 -22.5545 10.8435
3939 21 209 15.6212 -22.7388 8.96616
3938 21 208 9.49767 -9.62649 -9.30469
3950 21 214 16.2602 -12.8721 -9.02827
3859 21 151 13.0834 7.76443 -4.26222
ITEM: TIMESTEP
1145000
ITEM: NUMBER OF ATOMS
15
ITEM: BOX BOUNDS pp pp pp
-1.8325625555112733e+01 1.6506605776187296e+01
-2.4651158181053553e+01 1.4423749938966147e+01
-9.3699153783873683e+00 2.0742574201079083e+01
ITEM: ATOMS id type mol x y z
3935 21 205 -14.119 5.54456 16.5494
3951 21 215 -10.6909 9.27364 15.3249
3946 21 212 -9.99661 8.7805 12.0632
3956 21 218 -7.19351 -9.46602 4.77178
3823 21 127 -7.18692 -2.33458 16.6552
3924 21 196 -2.33056 7.62264 11.342
3774 21 94 -2.12112 9.85018 14.8241
3911 21 187 6.43701 -13.2966 16.3428
3960 21 220 1.22517 -4.6092 5.61725
3936 21 206 6.46242 -3.11848 11.4463
3955 21 217 3.73565 8.61565 14.8469
3919 21 193 9.8416 -22.7292 10.8348
3939 21 209 15.6715 -22.9154 8.96064
3938 21 208 9.52935 -9.6717 -9.27946
3859 21 151 13.126 7.89345 -4.24548
ITEM: TIMESTEP
1150000
ITEM: NUMBER OF ATOMS
15
ITEM: BOX BOUNDS pp pp pp
-1.8526043481142185e+01 1.6707023702216748e+01
-2.4377554015637003e+01 1.4150145773549596e+01
-9.3102685599340091e+00 2.0682927382623962e+01
ITEM: ATOMS id type mol x y z
3935 21 205 -14.271 5.3953 16.5063
3951 21 215 -10.8034 9.07216 15.2867
3946 21 212 -10.1012 8.58593 12.0379
3956 21 218 -7.26582 -9.40507 4.7754
3823 21 127 -7.25915 -2.3735 16.6117
3924 21 196 -2.34691 7.44428 11.3196
3774 21 94 -2.13506 9.64062 14.7879
3911 21 187 6.52155 -13.182 16.3006
3960 21 220 1.24974 -4.61627 5.61752
3936 21 206 6.54725 -3.14642 11.4235
3955 21 217 3.78911 8.42338 14.8106
3919 21 193 9.96532 -22.4825 10.8144
3939 21 209 15.8623 -22.6661 8.94767
3938 21 208 9.64947 -9.60787 -9.22017
3859 21 151 13.2876 7.7113 -4.20613
ITEM: TIMESTEP
1155000
ITEM: NUMBER OF ATOMS
15
ITEM: BOX BOUNDS pp pp pp
-1.8554479193282837e+01 1.6735459414357400e+01
-2.4348489395384739e+01 1.4121081153297332e+01
-9.3242738695765404e+00 2.0696932692244893e+01
ITEM: ATOMS id type mol x y z
3935 21 205 -14.2925 5.37945 16.5164
3951 21 215 -10.8194 9.05075 15.2957
3946 21 212 -10.116 8.56526 12.0438
3956 21 218 -7.27608 -9.3986 4.77455
3823 21 127 -7.2694 -2.37763 16.6219
3924 21 196 -2.34923 7.42533 11.3249
3774 21 94 -2.13704 9.61836 14.7964
3911 21 187 6.53355 -13.1698 16.3105
3960 21 220 1.25323 -4.61702 5.61746
3936 21 206 6.55929 -3.14939 11.4288
3955 21 217 3.79669 8.40296 14.8191
3919 21 193 9.98287 -22.4563 10.8192
3939 21 209 15.8894 -22.6396 8.95071
3938 21 208 9.66652 -9.60109 -9.23409
3859 21 151 13.3105 7.69195 -4.21537
ITEM: TIMESTEP
1160000
ITEM: NUMBER OF ATOMS
16
ITEM: BOX BOUNDS pp pp pp
-1.8304859913781918e+01 1.6485840134856481e+01
-2.4435164816831747e+01 1.4207756574744341e+01
-9.4167014673293359e+00 2.0789360289954683e+01
ITEM: ATOMS id type mol x y z
3935 21 205 -14.1032 5.42673 16.5831
3951 21 215 -10.6792 9.11458 15.3549
3946 21 212 -9.98578 8.6269 12.083
3956 21 218 -7.18602 -9.41791 4.76894
3823 21 127 -7.17943 -2.3653 16.6892
3964 21 222 -8.95505 6.08614 10.4765
3924 21 196 -2.32886 7.48183 11.3596
3774 21 94 -2.11967 9.68475 14.8525
3911 21 187 6.42825 -13.2061 16.3759
3965 21 223 -0.659022 -4.81276 2.39261
3960 21 220 1.22263 -4.61478 5.61704
3936 21 206 6.45363 -3.14054 11.4642
3919 21 193 9.82878 -22.5345 10.8508
3939 21 209 15.6517 -22.7186 8.97081
3938 21 208 9.5169 -9.62131 -9.32597
3859 21 151 13.1093 7.74965 -4.27634
ITEM: TIMESTEP
1165000
ITEM: NUMBER OF ATOMS
16
ITEM: BOX BOUNDS pp pp pp
-1.8312799428089924e+01 1.6493779649164487e+01
-2.4513695867995974e+01 1.4286287625908567e+01
-9.2761979573034132e+00 2.0648856779949554e+01
ITEM: ATOMS id type mol x y z
3935 21 205 -14.1092 5.46957 16.4818
3951 21 215 -10.6837 9.17241 15.2649
3946 21 212 -9.98992 8.68274 12.0235
3956 21 218 -7.18888 -9.4354 4.77747
3823 21 127 -7.18229 -2.35413 16.5869
3964 21 222 -8.95872 6.13166 10.4319
3924 21 196 -2.32951 7.53303 11.3068
3774 21 94 -2.12023 9.74489 14.7673
3911 21 187 6.4316 -13.239 16.2765
3965 21 223 -0.658908 -4.81153 2.42325
3960 21 220 1.2236 -4.61275 5.61768
3936 21 206 6.45699 -3.13252 11.4105
3919 21 193 9.83368 -22.6053 10.8028
3939 21 209 15.6593 -22.7901 8.94026
3938 21 208 9.52166 -9.63963 -9.18631
3859 21 151 13.1157 7.80193 -4.18366
ITEM: TIMESTEP
1170000
ITEM: NUMBER OF ATOMS
16
ITEM: BOX BOUNDS pp pp pp
-1.8327015705032863e+01 1.6507995926107426e+01
-2.4437738008085415e+01 1.4210329765998008e+01
-9.4088609095525655e+00 2.0781519732144613e+01
ITEM: ATOMS id type mol x y z
3935 21 205 -14.12 5.42813 16.5775
3951 21 215 -10.6916 9.11647 15.3498
3946 21 212 -9.99734 8.62873 12.0796
3956 21 218 -7.19401 -9.41848 4.76941
3823 21 127 -7.18742 -2.36494 16.6835
3964 21 222 -8.9653 6.08763 10.474
3924 21 196 -2.33067 7.48351 11.3566
3774 21 94 -2.12122 9.68672 14.8478
3911 21 187 6.4376 -13.2072 16.3704
3965 21 223 -0.658703 -4.81272 2.39432
3960 21 220 1.22535 -4.61471 5.61707
3936 21 206 6.46301 -3.14027 11.4612
3919 21 193 9.84246 -22.5368 10.8481
3939 21 209 15.6728 -22.7209 8.96911
3938 21 208 9.53018 -9.62191 -9.31817
3859 21 151 13.1272 7.75136 -4.27117
ITEM: TIMESTEP
1175000
ITEM: NUMBER OF ATOMS
17
ITEM: BOX BOUNDS pp pp pp
-1.8436559386827810e+01 1.6617539607902373e+01
-2.4439595483257165e+01 1.4212187241169758e+01
-9.3203524530177440e+00 2.0693011275616595e+01
ITEM: ATOMS id type mol x y z
3935 21 205 -14.2031 5.42915 16.5136
3951 21 215 -10.7532 9.11784 15.2932
3946 21 212 -10.0545 8.63005 12.0422
3956 21 218 -7.23354 -9.41889 4.77479
3966 21 224 -1.42871 -2.57313 -2.65058
3823 21 127 -7.2269 -2.36467 16.619
3964 21 222 -9.01596 6.08871 10.4459
3924 21 196 -2.33961 7.48472 11.3234
3774 21 94 -2.12884 9.68814 14.7941
3911 21 187 6.4838 -13.208 16.3077
3965 21 223 -0.657126 -4.81269 2.41362
3960 21 220 1.23877 -4.61467 5.61748
3936 21 206 6.50938 -3.14008 11.4273
3919 21 193 9.91008 -22.5385 10.8179
3939 21 209 15.7771 -22.7226 8.94986
3938 21 208 9.59584 -9.62234 -9.2302
3859 21 151 13.2154 7.7526 -4.21278
ITEM: TIMESTEP
1180000
ITEM: NUMBER OF ATOMS
17
ITEM: BOX BOUNDS pp pp pp
-1.8397416177815835e+01 1.6578396398890398e+01
-2.4414636323136747e+01 1.4187228081049341e+01
-9.3285454447867764e+00 2.0701204267365576e+01
ITEM: ATOMS id type mol x y z
3935 21 205 -14.1734 5.41553 16.5195
3951 21 215 -10.7312 9.09946 15.2984
3946 21 212 -10.0341 8.6123 12.0456
3956 21 218 -7.21941 -9.41333 4.77429
3966 21 224 -1.42755 -2.57641 -2.65513
3823 21 127 -7.21279 -2.36822 16.625
3964 21 222 -8.99786 6.07424 10.4485
3924 21 196 -2.33642 7.46845 11.3265
3774 21 94 -2.12611 9.66902 14.799
3911 21 187 6.46729 -13.1975 16.3135
3965 21 223 -0.657689 -4.81308 2.41183
3960 21 220 1.23397 -4.61531 5.61744
3936 21 206 6.49281 -3.14263 11.4305
3919 21 193 9.88592 -22.516 10.8207
3939 21 209 15.7398 -22.6998 8.95164
3938 21 208 9.57238 -9.61652 -9.23834
3859 21 151 13.1839 7.73598 -4.21819
ITEM: TIMESTEP
1185000
ITEM: NUMBER OF ATOMS
16
ITEM: BOX BOUNDS pp pp pp
-1.8495054022135456e+01 1.6676034243210019e+01
-2.4310344880121072e+01 1.4082936638033665e+01
-9.3015514065742799e+00 2.0674210229142915e+01
ITEM: ATOMS id type mol x y z
3935 21 205 -14.2475 5.35864 16.5
3951 21 215 -10.786 9.02266 15.2811
3946 21 212 -10.085 8.53813 12.0342
3966 21 224 -1.43044 -2.59012 -2.64013
3823 21 127 -7.24798 -2.38306 16.6053
3964 21 222 -9.04302 6.01379 10.44
3924 21 196 -2.34438 7.40046 11.3163
3774 21 94 -2.13291 9.58915 14.7826
3911 21 187 6.50848 -13.1539 16.2944
3965 21 223 -0.656284 -4.8147 2.41772
3960 21 220 1.24594 -4.618 5.61756
3936 21 206 6.53414 -3.15328 11.4202
3919 21 193 9.94619 -22.4219 10.8114
3939 21 209 15.8328 -22.6048 8.94577
3938 21 208 9.6309 -9.59219 -9.21151
3859 21 151 13.2626 7.66655 -4.20038
ITEM: TIMESTEP
1190000
ITEM: NUMBER OF ATOMS
16
ITEM: BOX BOUNDS pp pp pp
-1.8558592364792794e+01 1.6739572585867357e+01
-2.4407896269469056e+01 1.4180488027381649e+01
-9.2302540931955726e+00 2.0602912915766687e+01
ITEM: ATOMS id type mol x y z
3935 21 205 -14.2957 5.41186 16.4486
3951 21 215 -10.8217 9.0945 15.2355
3946 21 212 -10.1182 8.6075 12.004
3966 21 224 -1.43232 -2.57729 -2.60052
3823 21 127 -7.27088 -2.36918 16.5534
3964 21 222 -9.0724 6.07033 10.4173
3924 21 196 -2.34957 7.46406 11.2895
3774 21 94 -2.13733 9.66386 14.7394
3911 21 187 6.53528 -13.1947 16.2439
3965 21 223 -0.655369 -4.81318 2.43327
3960 21 220 1.25373 -4.61548 5.61789
3936 21 206 6.56103 -3.14332 11.3929
3919 21 193 9.98541 -22.5099 10.7871
3939 21 209 15.8933 -22.6937 8.93027
3938 21 208 9.66898 -9.61495 -9.14064
3859 21 151 13.3138 7.7315 -4.15335
ITEM: TIMESTEP
1195000
ITEM: NUMBER OF ATOMS
16
ITEM: BOX BOUNDS pp pp pp
-1.8434625368912030e+01 1.6615605589986593e+01
-2.4342554734547832e+01 1.4115146492460426e+01
-9.3814253367478102e+00 2.0754084159258515e+01
ITEM: ATOMS id type mol x y z
3935 21 205 -14.2016 5.37621 16.5577
3951 21 215 -10.7521 9.04638 15.3323
3946 21 212 -10.0535 8.56104 12.068
3966 21 224 -1.42865 -2.58588 -2.68451
3823 21 127 -7.2262 -2.37848 16.6635
3964 21 222 -9.01507 6.03246 10.4653
3924 21 196 -2.33945 7.42146 11.3463
3774 21 94 -2.1287 9.61382 14.8311
3911 21 187 6.48299 -13.1673 16.3509
3965 21 223 -0.657154 -4.8142 2.4003
3960 21 220 1.23853 -4.61717 5.6172
3936 21 206 6.50856 -3.14999 11.4507
3919 21 193 9.90889 -22.451 10.8388
3939 21 209 15.7753 -22.6342 8.96314
3938 21 208 9.59468 -9.5997 -9.2909
3859 21 151 13.2139 7.68799 -4.25307
ITEM: TIMESTEP
1200000
ITEM: NUMBER OF ATOMS
16
ITEM: BOX BOUNDS pp pp pp
-1.8576221746730141e+01 1.6757201967804704e+01
-2.4466725915569317e+01 1.4239317673481910e+01
-9.2044984838586998e+00 2.0577157306401723e+01
ITEM: ATOMS id type mol x y z
3935 21 205 -14.309 5.44395 16.43
3951 21 215 -10.8316 9.13782 15.219
3946 21 212 -10.1274 8.64934 11.9931
3966 21 224 -1.43285 -2.56956 -2.58622
3823 21 127 -7.27724 -2.36081 16.5346
3964 21 222 -9.08056 6.10444 10.4092
3924 21 196 -2.35101 7.50241 11.2799
3774 21 94 -2.13855 9.70892 14.7237
3911 21 187 6.54272 -13.2193 16.2257
3965 21 223 -0.655115 -4.81227 2.43889
3960 21 220 1.25589 -4.61396 5.61801
3936 21 206 6.56849 -3.13731 11.383
3919 21 193 9.9963 -22.5629 10.7783
3939 21 209 15.9101 -22.7473 8.92467
3938 21 208 9.67955 -9.62867 -9.11504
3859 21 151 13.328 7.77066 -4.13636
ITEM: TIMESTEP
1205000
ITEM: NUMBER OF ATOMS
16
ITEM: BOX BOUNDS pp pp pp
-1.8468739388413493e+01 1.6649719609488056e+01
-2.4399569881471241e+01 1.4172161639383834e+01
-9.3984450565534203e+00 2.0771103879023610e+01
ITEM: ATOMS id type mol x y z
3935 21 205 -14.2275 5.40731 16.57
3946 21 212 -10.0713 8.60158 12.0752
3966 21 224 -1.42966 -2.57839 -2.69396
3823 21 127 -7.2385 -2.37037 16.6759
3964 21 222 -9.03084 6.06551 10.4707
3924 21 196 -2.34224 7.45863 11.3527
3774 21 94 -2.13108 9.65748 14.8415
3970 21 226 3.13126 -11.62 5.29057
3911 21 187 6.49738 -13.1912 16.363
3965 21 223 -0.656662 -4.81331 2.39659
3960 21 220 1.24272 -4.6157 5.61712
3936 21 206 6.523 -3.14417 11.4572
3919 21 193 9.92995 -22.5024 10.8446
3939 21 209 15.8077 -22.6861 8.96684
3938 21 208 9.61513 -9.61301 -9.30782
3859 21 151 13.2414 7.72595 -4.2643
ITEM: TIMESTEP
1210000
ITEM: NUMBER OF ATOMS
17
ITEM: BOX BOUNDS pp pp pp
-1.8426923033156321e+01 1.6607903254230884e+01
-2.4302873084648017e+01 1.4075464842560610e+01
-9.4701866019663576e+00 2.0842845424398035e+01
ITEM: ATOMS id type mol x y z
3935 21 205 -14.1958 5.35456 16.6217
3946 21 212 -10.0495 8.53282 12.1056
3966 21 224 -1.42842 -2.5911 -2.73382
3823 21 127 -7.22343 -2.38412 16.7282
3971 21 227 -6.14753 2.72443 -7.95972
3964 21 222 -9.0115 6.00946 10.4934
3924 21 196 -2.33882 7.39559 11.3797
3774 21 94 -2.12817 9.58342 14.885
3970 21 226 3.12163 -11.5874 5.28868
3911 21 187 6.47974 -13.1507 16.4138
3965 21 223 -0.657265 -4.81482 2.38094
3960 21 220 1.23759 -4.6182 5.61679
3936 21 206 6.5053 -3.15405 11.4847
3919 21 193 9.90413 -22.4152 10.8691
3939 21 209 15.7679 -22.598 8.98245
3938 21 208 9.59006 -9.59045 -9.37913
3859 21 151 13.2077 7.66158 -4.31162
ITEM: TIMESTEP
1215000
ITEM: NUMBER OF ATOMS
16
ITEM: BOX BOUNDS pp pp pp
-1.8332889899199248e+01 1.6513870120273811e+01
-2.4445681794887435e+01 1.4218273552800028e+01
-9.3585750889093191e+00 2.0731233911355094e+01
ITEM: ATOMS id type mol x y z
3946 21 212 -10.0004 8.63438 12.0584
3966 21 224 -1.42564 -2.57233 -2.67181
3823 21 127 -7.18953 -2.36381 16.6469
3971 21 227 -6.11941 2.78276 -7.85923
3964 21 222 -8.96801 6.09224 10.458
3924 21 196 -2.33115 7.48869 11.3377
3774 21 94 -2.12162 9.6928 14.8173
3911 21 187 6.44007 -13.2105 16.3348
3965 21 223 -0.658619 -4.81259 2.40529
3960 21 220 1.22607 -4.61451 5.6173
3936 21 206 6.46549 -3.13946 11.442
3972 21 228 5.406 -3.36241 14.04
3919 21 193 9.84608 -22.544 10.8309
3939 21 209 15.6784 -22.7281 8.95817
3938 21 208 9.5337 -9.62376 -9.26819
3859 21 151 13.1319 7.75665 -4.238
ITEM: TIMESTEP
1220000
ITEM: NUMBER OF ATOMS
18
ITEM: BOX BOUNDS pp pp pp
-1.8316056358265488e+01 1.6497036579340051e+01
-2.4449314104958241e+01 1.4221905862870834e+01
-9.4163041833336578e+00 2.0788963005745074e+01
ITEM: ATOMS id type mol x y z
3946 21 212 -9.99162 8.63696 12.0828
3976 21 232 -2.96859 -8.12869 -4.87389
3966 21 224 -1.42514 -2.57185 -2.70388
3823 21 127 -7.18347 -2.36329 16.6889
3964 21 222 -8.96023 6.09434 10.4764
3924 21 196 -2.32978 7.49106 11.3594
3774 21 94 -2.12045 9.69558 14.8523
3973 21 229 -0.721695 -17.7692 -1.36882
3911 21 187 6.43297 -13.2121 16.3756
3965 21 223 -0.658861 -4.81254 2.3927
3960 21 220 1.224 -4.61441 5.61704
3975 21 231 7.2413 -3.82242 11.9522
3972 21 228 5.3999 -3.36208 14.0721
3974 21 230 1.82565 13.1899 5.07623
3919 21 193 9.83569 -22.5472 10.8507
3939 21 209 15.6624 -22.7314 8.97073
3938 21 208 9.52361 -9.62461 -9.32557
3859 21 151 13.1183 7.75907 -4.27608
ITEM: TIMESTEP
1225000
ITEM: NUMBER OF ATOMS
15
ITEM: BOX BOUNDS pp pp pp
-1.8540949774791695e+01 1.6721929995866258e+01
-2.4313760637647334e+01 1.4086352395559928e+01
-9.3491928808227875e+00 2.0721851703235686e+01
ITEM: ATOMS id type mol x y z
3946 21 212 -10.109 8.54056 12.0544
3966 21 224 -1.4318 -2.58967 -2.6666
3823 21 127 -7.26453 -2.38257 16.6401
3964 21 222 -9.06424 6.01577 10.4551
3924 21 196 -2.34813 7.40269 11.3342
3774 21 94 -2.1361 9.59176 14.8116
3973 21 229 -0.719269 -17.6805 -1.33747
3911 21 187 6.52784 -13.1553 16.3281
3965 21 223 -0.655623 -4.81465 2.40733
3960 21 220 1.25157 -4.61791 5.61735
3974 21 230 1.86098 13.0616 5.07894
3919 21 193 9.97452 -22.425 10.8277
3939 21 209 15.8765 -22.6079 8.95613
3938 21 208 9.65841 -9.59299 -9.25886
3859 21 151 13.2996 7.66883 -4.23181
ITEM: TIMESTEP
1230000
ITEM: NUMBER OF ATOMS
15
ITEM: BOX BOUNDS pp pp pp
-1.8411679338498928e+01 1.6592659559573491e+01
-2.4411250008455387e+01 1.4183841766367980e+01
-9.3038176311136311e+00 2.0676476453521715e+01
ITEM: ATOMS id type mol x y z
3946 21 212 -10.0415 8.60989 12.0352
3966 21 224 -1.42797 -2.57685 -2.64139
3823 21 127 -7.21793 -2.36871 16.607
3964 21 222 -9.00445 6.07228 10.4407
3924 21 196 -2.33758 7.46624 11.3172
3774 21 94 -2.12711 9.66643 14.784
3973 21 229 -0.720664 -17.7443 -1.31627
3911 21 187 6.47331 -13.1961 16.296
3965 21 223 -0.657484 -4.81313 2.41723
3960 21 220 1.23572 -4.6154 5.61755
3974 21 230 1.84067 13.1539 5.08077
3919 21 193 9.89472 -22.5129 10.8122
3938 21 208 9.58093 -9.61573 -9.21376
3975 21 231 9.95203 -2.65116 16.6323
3859 21 151 13.1954 7.73373 -4.20188
ITEM: TIMESTEP
1235000
ITEM: NUMBER OF ATOMS
14
ITEM: BOX BOUNDS pp pp pp
-1.8418263478671086e+01 1.6599243699745649e+01
-2.4449168782443373e+01 1.4221760540355966e+01
-9.2872243941188266e+00 2.0659883216513780e+01
ITEM: ATOMS id type mol x y z
3946 21 212 -10.0449 8.63686 12.0281
3966 21 224 -1.42817 -2.57187 -2.63217
3823 21 127 -7.22031 -2.36331 16.5949
3964 21 222 -9.0075 6.09426 10.4354
3774 21 94 -2.12756 9.69547 14.7739
3973 21 229 -0.720593 -17.7691 -1.30852
3911 21 187 6.47609 -13.212 16.2843
3965 21 223 -0.657389 -4.81254 2.42085
3960 21 220 1.23653 -4.61442 5.61763
3974 21 230 1.84171 13.1898 5.08144
3919 21 193 9.89879 -22.5471 10.8065
3938 21 208 9.58487 -9.62458 -9.19727
3975 21 231 9.95611 -2.64632 16.6202
3859 21 151 13.2007 7.75897 -4.19093
ITEM: TIMESTEP
1240000
ITEM: NUMBER OF ATOMS
13
ITEM: BOX BOUNDS pp pp pp
-1.8546348083179421e+01 1.6727328304253984e+01
-2.4340384042722430e+01 1.4112975800635024e+01
-9.1486409967438149e+00 2.0521299819161374e+01
ITEM: ATOMS id type mol x y z
3946 21 212 -10.1118 8.55949 11.9694
3966 21 224 -1.43196 -2.58617 -2.55518
3823 21 127 -7.26647 -2.37879 16.4939
3964 21 222 -9.06674 6.0312 10.3915
3774 21 94 -2.13647 9.61215 14.6898
3973 21 229 -0.719211 -17.6979 -1.24378
3911 21 187 6.53012 -13.1664 16.1862
3960 21 220 1.25223 -4.61723 5.61827
3974 21 230 1.86183 13.0868 5.08704
3919 21 193 9.97785 -22.449 10.7592
3938 21 208 9.66164 -9.5992 -9.05952
3975 21 231 10.0356 -2.6602 16.519
3859 21 151 13.3039 7.68655 -4.09951
ITEM: TIMESTEP
1245000
ITEM: NUMBER OF ATOMS
12
ITEM: BOX BOUNDS pp pp pp
-1.8527204741774170e+01 1.6708184962848733e+01
-2.4208636333886687e+01 1.3981228091799281e+01
-9.2712340586771624e+00 2.0643892881040959e+01
ITEM: ATOMS id type mol x y z
3946 21 212 -10.1018 8.4658 12.0214
3966 21 224 -1.43139 -2.60349 -2.62329
3823 21 127 -7.25957 -2.39753 16.5833
3964 21 222 -9.05789 5.95483 10.4303
3774 21 94 -2.13514 9.51125 14.7642
3973 21 229 -0.719417 -17.6117 -1.30105
3911 21 187 6.52204 -13.1113 16.273
3960 21 220 1.24988 -4.62063 5.6177
3919 21 193 9.96604 -22.3302 10.8011
3938 21 208 9.65017 -9.56846 -9.18137
3975 21 231 10.0237 -2.67701 16.6085
3859 21 151 13.2885 7.59884 -4.18038
ITEM: TIMESTEP
1250000
ITEM: NUMBER OF ATOMS
12
ITEM: BOX BOUNDS pp pp pp
-1.8538909858051667e+01 1.6719890079126230e+01
-2.4371697077772833e+01 1.4144288835685426e+01
-9.2661142780084766e+00 2.0638773100356218e+01
ITEM: ATOMS id type mol x y z
3946 21 212 -10.1079 8.58176 12.0192
3966 21 224 -1.43174 -2.58205 -2.62045
3823 21 127 -7.26379 -2.37433 16.5795
3964 21 222 -9.0633 6.04935 10.4287
3774 21 94 -2.13596 9.63614 14.7611
3973 21 229 -0.719291 -17.7184 -1.29866
3911 21 187 6.52698 -13.1795 16.2693
3960 21 220 1.25132 -4.61642 5.61773
3919 21 193 9.97326 -22.4772 10.7993
3938 21 208 9.65719 -9.6065 -9.17628
3975 21 231 10.031 -2.6562 16.6048
3859 21 151 13.2979 7.7074 -4.17701
ITEM: TIMESTEP
1255000
ITEM: NUMBER OF ATOMS
12
ITEM: BOX BOUNDS pp pp pp
-1.8511041384051605e+01 1.6692021605126168e+01
-2.4300918616332851e+01 1.4073510374245444e+01
-9.2943186805036646e+00 2.0666977502825542e+01
ITEM: ATOMS id type mol x y z
3946 21 212 -10.0934 8.53143 12.0311
3966 21 224 -1.43091 -2.59136 -2.63611
3823 21 127 -7.25375 -2.3844 16.6001
3964 21 222 -9.05041 6.00832 10.4377
3774 21 94 -2.13402 9.58193 14.7783
3973 21 229 -0.719592 -17.6721 -1.31184
3911 21 187 6.51522 -13.1499 16.2893
3960 21 220 1.2479 -4.61825 5.6176
3919 21 193 9.95606 -22.4134 10.809
3938 21 208 9.64048 -9.58999 -9.20432
3975 21 231 10.0137 -2.66524 16.6253
3859 21 151 13.2755 7.66028 -4.19561
ITEM: TIMESTEP
1260000
ITEM: NUMBER OF ATOMS
12
ITEM: BOX BOUNDS pp pp pp
-1.8406464150466444e+01 1.6587444371541007e+01
-2.4437816314098349e+01 1.4210408072010942e+01
-9.2876517652743544e+00 2.0660310587580092e+01
ITEM: ATOMS id type mol x y z
3946 21 212 -10.0388 8.62878 12.0283
3966 21 224 -1.42782 -2.57336 -2.63241
3823 21 127 -7.21605 -2.36493 16.5952
3964 21 222 -9.00204 6.08768 10.4355
3774 21 94 -2.12674 9.68678 14.7742
3973 21 229 -0.72072 -17.7617 -1.30872
3911 21 187 6.47111 -13.2072 16.2846
3960 21 220 1.23508 -4.61471 5.61763
3919 21 193 9.8915 -22.5369 10.8067
3938 21 208 9.5778 -9.62193 -9.19769
3975 21 231 9.94879 -2.64777 16.6205
3859 21 151 13.1912 7.75142 -4.19121
ITEM: TIMESTEP
1265000
ITEM: NUMBER OF ATOMS
12
ITEM: BOX BOUNDS pp pp pp
-1.8558417534298385e+01 1.6739397755372948e+01
-2.4463705220869620e+01 1.4236296978782214e+01
-9.2161381122476023e+00 2.0588796934556804e+01
ITEM: ATOMS id type mol x y z
3946 21 212 -10.1181 8.64719 11.998
3966 21 224 -1.43232 -2.56996 -2.59268
3823 21 127 -7.27082 -2.36124 16.5431
3964 21 222 -9.07232 6.10268 10.4129
3774 21 94 -2.13731 9.70661 14.7308
3973 21 229 -0.71908 -17.7786 -1.27532
3911 21 187 6.53521 -13.2181 16.234
3960 21 220 1.25371 -4.61404 5.61796
3919 21 193 9.9853 -22.5602 10.7822
3938 21 208 9.66888 -9.62797 -9.12661
3975 21 231 10.0431 -2.64446 16.5683
3859 21 151 13.3136 7.76865 -4.14404
ITEM: TIMESTEP
1270000
ITEM: NUMBER OF ATOMS
12
ITEM: BOX BOUNDS pp pp pp
-1.8611940521944668e+01 1.6792920743019231e+01
-2.4338589698198923e+01 1.4111181456111517e+01
-9.1900076147961123e+00 2.0562666437095459e+01
ITEM: ATOMS id type mol x y z
3946 21 212 -10.146 8.55822 11.987
3966 21 224 -1.4339 -2.5864 -2.57816
3823 21 127 -7.29011 -2.37904 16.5241
3964 21 222 -9.09708 6.03016 10.4046
3774 21 94 -2.14104 9.61078 14.7149
3973 21 229 -0.718503 -17.6967 -1.26311
3911 21 187 6.55778 -13.1657 16.2155
3960 21 220 1.26027 -4.61727 5.61808
3919 21 193 10.0183 -22.4474 10.7733
3938 21 208 9.70096 -9.59878 -9.10063
3975 21 231 10.0763 -2.66043 16.5492
3859 21 151 13.3568 7.68536 -4.1268
ITEM: TIMESTEP
1275000
ITEM: NUMBER OF ATOMS
11
ITEM: BOX BOUNDS pp pp pp
-1.8415054449221856e+01 1.6596034670296419e+01
-2.4357014565552973e+01 1.4129606323465566e+01
-9.3378145716241079e+00 2.0710473393861196e+01
ITEM: ATOMS id type mol x y z
3946 21 212 -10.0433 8.57132 12.0496
3823 21 127 -7.21915 -2.37642 16.6318
3964 21 222 -9.00601 6.04084 10.4515
3774 21 94 -2.12734 9.62489 14.8047
3973 21 229 -0.720627 -17.7088 -1.33216
3911 21 187 6.47473 -13.1734 16.3201
3960 21 220 1.23614 -4.6168 5.6174
3919 21 193 9.89681 -22.464 10.8238
3938 21 208 9.58295 -9.60308 -9.24755
3975 21 231 9.95412 -2.65808 16.6571
3859 21 151 13.1981 7.69762 -4.2243
ITEM: TIMESTEP
1280000
ITEM: NUMBER OF ATOMS
11
ITEM: BOX BOUNDS pp pp pp
-1.8615295764930966e+01 1.6796275986005529e+01
-2.4365609020536034e+01 1.4138200778448628e+01
-9.2055163473658794e+00 2.0578175169624952e+01
ITEM: ATOMS id type mol x y z
3946 21 212 -10.1478 8.57743 11.9935
3823 21 127 -7.29132 -2.3752 16.5354
3964 21 222 -9.09863 6.04582 10.4095
3774 21 94 -2.14127 9.63147 14.7244
3973 21 229 -0.718467 -17.7144 -1.27035
3911 21 187 6.5592 -13.177 16.2264
3960 21 220 1.26068 -4.61658 5.618
3919 21 193 10.0204 -22.4718 10.7786
3938 21 208 9.70297 -9.60508 -9.11605
3975 21 231 10.0784 -2.65698 16.5605
3859 21 151 13.3595 7.70334 -4.13703
ITEM: TIMESTEP
1285000
ITEM: NUMBER OF ATOMS
10
ITEM: BOX BOUNDS pp pp pp
-1.8517334947117082e+01 1.6698315168191645e+01
-2.4311329512304649e+01 1.4083921270217242e+01
-9.2559569492483362e+00 2.0628615771474127e+01
ITEM: ATOMS id type mol x y z
3946 21 212 -10.0966 8.53883 12.0149
3823 21 127 -7.25601 -2.38292 16.5721
3964 21 222 -9.05332 6.01436 10.4255
3774 21 94 -2.13446 9.5899 14.755
3911 21 187 6.51788 -13.1543 16.2621
3960 21 220 1.24867 -4.61798 5.61777
3919 21 193 9.95994 -22.4228 10.7958
3938 21 208 9.64425 -9.59242 -9.16619
3975 21 231 10.0176 -2.66391 16.5973
3859 21 151 13.2805 7.66721 -4.17031
ITEM: TIMESTEP
1290000
ITEM: NUMBER OF ATOMS
10
ITEM: BOX BOUNDS pp pp pp
-1.8585097743020665e+01 1.6766077964095228e+01
-2.4494113671563230e+01 1.4266705429475824e+01
-9.1821058662861574e+00 2.0554764688516695e+01
ITEM: ATOMS id type mol x y z
3946 21 212 -10.132 8.66882 11.9836
3823 21 127 -7.28044 -2.35692 16.5183
3774 21 94 -2.13917 9.7299 14.7102
3979 21 233 -2.70474 14.0632 12.842
3911 21 187 6.54646 -13.2308 16.2099
3960 21 220 1.25698 -4.61326 5.61811
3919 21 193 10.0018 -22.5876 10.7706
3938 21 208 9.68487 -9.63506 -9.09278
3975 21 231 10.0596 -2.64058 16.5434
3859 21 151 13.3351 7.7889 -4.12159
ITEM: TIMESTEP
1295000
ITEM: NUMBER OF ATOMS
11
ITEM: BOX BOUNDS pp pp pp
-1.8501825255042956e+01 1.6682805476117519e+01
-2.4414089190915423e+01 1.4186680948828016e+01
-9.3002033635676185e+00 2.0672862185744556e+01
ITEM: ATOMS id type mol x y z
3946 21 212 -10.0885 8.61191 12.0336
3823 21 127 -7.25042 -2.3683 16.6044
3774 21 94 -2.13338 9.66861 14.7818
3979 21 233 -2.69628 13.984 12.8988
3911 21 187 6.51134 -13.1973 16.2935
3983 21 235 3.01326 -11.7098 6.91884
3960 21 220 1.24677 -4.61532 5.61757
3919 21 193 9.95037 -22.5155 10.811
3938 21 208 9.63496 -9.61639 -9.21017
3975 21 231 10.008 -2.65079 16.6296
3859 21 151 13.268 7.73562 -4.19949
ITEM: TIMESTEP
1300000
ITEM: NUMBER OF ATOMS
11
ITEM: BOX BOUNDS pp pp pp
-1.8358848505790281e+01 1.6539828726864844e+01
-2.4356704205047443e+01 1.4129295962960036e+01
-9.3224876301154680e+00 2.0695146452267903e+01
ITEM: ATOMS id type mol x y z
3946 21 212 -10.0139 8.5711 12.0431
3823 21 127 -7.19889 -2.37646 16.6206
3774 21 94 -2.12343 9.62465 14.7954
3979 21 233 -2.68176 13.9272 12.9096
3911 21 187 6.45102 -13.1733 16.3092
3983 21 235 2.98138 -11.6901 6.92067
3919 21 193 9.86211 -22.4637 10.8186
3984 21 236 13.629 -17.7469 6.90242
3938 21 208 9.54926 -9.60301 -9.23232
3975 21 231 9.91924 -2.65812 16.6459
3859 21 151 13.1528 7.69741 -4.21419
ITEM: TIMESTEP
1305000
ITEM: NUMBER OF ATOMS
10
ITEM: BOX BOUNDS pp pp pp
-1.8451823358432001e+01 1.6632803579506565e+01
-2.4316528257991070e+01 1.4089120015903664e+01
-9.3164215886528972e+00 2.0689080410789266e+01
ITEM: ATOMS id type mol x y z
3946 21 212 -10.0625 8.54253 12.0405
3823 21 127 -7.2324 -2.38218 16.6162
3774 21 94 -2.1299 9.59388 14.7917
3979 21 233 -2.6912 13.8874 12.9066
3911 21 187 6.49024 -13.1564 16.3049
3983 21 235 3.00211 -11.6764 6.92018
3919 21 193 9.9195 -22.4275 10.8165
3938 21 208 9.60499 -9.59363 -9.22629
3975 21 231 9.97694 -2.66324 16.6415
3859 21 151 13.2277 7.67067 -4.21019
ITEM: TIMESTEP
1310000
ITEM: NUMBER OF ATOMS
11
ITEM: BOX BOUNDS pp pp pp
-1.8557998054610806e+01 1.6738978275685369e+01
-2.4164400001241006e+01 1.3936991759153599e+01
-9.3189445991628617e+00 2.0691603421280615e+01
ITEM: ATOMS id type mol x y z
3984 21 236 -9.80091 5.27392 9.02349
3946 21 212 -10.1179 8.43434 12.0416
3823 21 127 -7.27067 -2.40382 16.618
3774 21 94 -2.13728 9.47737 14.7932
3979 21 233 -2.70199 13.7369 12.9079
3911 21 187 6.53503 -13.0927 16.3067
3983 21 235 3.02579 -11.6244 6.92038
3919 21 193 9.98505 -22.2903 10.8174
3938 21 208 9.66863 -9.55814 -9.2288
3975 21 231 10.0428 -2.68266 16.6433
3859 21 151 13.3133 7.56939 -4.21186
ITEM: TIMESTEP
1315000
ITEM: NUMBER OF ATOMS
10
ITEM: BOX BOUNDS pp pp pp
-1.8667391863968156e+01 1.6848372085042719e+01
-2.4398546942739440e+01 1.4171138700652033e+01
-9.1712834902726392e+00 2.0543942312418380e+01
ITEM: ATOMS id type mol x y z
3984 21 236 -9.85602 5.40159 8.99065
3946 21 212 -10.1749 8.60086 11.979
3823 21 127 -7.3101 -2.37051 16.5104
3774 21 94 -2.1449 9.6567 14.7036
3911 21 187 6.58118 -13.1908 16.2022
3983 21 235 3.05018 -11.7044 6.90824
3919 21 193 10.0526 -22.5015 10.7669
3938 21 208 9.7342 -9.61277 -9.08202
3975 21 231 10.1107 -2.65278 16.5355
3859 21 151 13.4015 7.72527 -4.11445
ITEM: TIMESTEP
1320000
ITEM: NUMBER OF ATOMS
8
ITEM: BOX BOUNDS pp pp pp
-1.8593621152000104e+01 1.6774601373074667e+01
-2.4401418160302171e+01 1.4174009918214765e+01
-9.1862500301637766e+00 2.0558908852287097e+01
ITEM: ATOMS id type mol x y z
3984 21 236 -9.81886 5.40316 8.99398
3946 21 212 -10.1364 8.6029 11.9854
3823 21 127 -7.28351 -2.3701 16.5213
3774 21 94 -2.13976 9.6589 14.7127
3911 21 187 6.55006 -13.192 16.2128
3983 21 235 3.03373 -11.7054 6.90947
3919 21 193 10.007 -22.504 10.772
3975 21 231 10.0649 -2.65241 16.5464
ITEM: TIMESTEP
1325000
ITEM: NUMBER OF ATOMS
10
ITEM: BOX BOUNDS pp pp pp
-1.8610481507686774e+01 1.6791461728761337e+01
-2.4594533738421784e+01 1.4367125496334378e+01
-9.2205282541144769e+00 2.0593187076209549e+01
ITEM: ATOMS id type mol x y z
3984 21 236 -9.82735 5.50846 9.00161
3986 21 238 -17.9029 11.6939 16.066
3946 21 212 -10.1452 8.74023 11.9999
3823 21 127 -7.28959 -2.34263 16.5463
3774 21 94 -2.14094 9.80681 14.7335
3911 21 187 6.55717 -13.2729 16.2371
3983 21 235 3.03749 -11.7714 6.91229
3919 21 193 10.0174 -22.6782 10.7837
3985 21 237 14.1316 -15.5409 5.80381
3975 21 231 10.0754 -2.62777 16.5715
ITEM: TIMESTEP
1330000
ITEM: NUMBER OF ATOMS
10
ITEM: BOX BOUNDS pp pp pp
-1.8643027094015746e+01 1.6824007315090309e+01
-2.4148726973915366e+01 1.3921318731827959e+01
-9.2766214980413153e+00 2.0649280320101067e+01
ITEM: ATOMS id type mol x y z
3984 21 236 -9.84375 5.26538 9.01408
3986 21 238 -17.9341 11.3093 16.105
3946 21 212 -10.1622 8.42319 12.0236
3823 21 127 -7.30132 -2.40605 16.5872
3774 21 94 -2.1432 9.46536 14.7675
3911 21 187 6.5709 -13.0862 16.2768
3983 21 235 3.04474 -11.6191 6.9169
3919 21 193 10.0375 -22.2762 10.8029
3985 21 237 14.1592 -15.3023 5.80425
3975 21 231 10.0956 -2.68466 16.6124
ITEM: TIMESTEP
1335000
ITEM: NUMBER OF ATOMS
10
ITEM: BOX BOUNDS pp pp pp
-1.8547197575398613e+01 1.6728177796473176e+01
-2.4574381514171712e+01 1.4346973272084306e+01
-9.2955024313293499e+00 2.0668161253365597e+01
ITEM: ATOMS id type mol x y z
3984 21 236 -9.79547 5.49747 9.01828
3986 21 238 -17.8421 11.6765 16.1182
3946 21 212 -10.1122 8.7259 12.0316
3823 21 127 -7.26678 -2.3455 16.6009
3774 21 94 -2.13653 9.79137 14.779
3911 21 187 6.53047 -13.2644 16.2901
3983 21 235 3.02338 -11.7645 6.91846
3919 21 193 9.97838 -22.66 10.8094
3985 21 237 14.0778 -15.5301 5.8044
3975 21 231 10.0361 -2.63034 16.6262
ITEM: TIMESTEP
1340000
ITEM: NUMBER OF ATOMS
10
ITEM: BOX BOUNDS pp pp pp
-1.8679893227838949e+01 1.6860873448913512e+01
-2.4259464378979974e+01 1.4032056136892567e+01
-9.2529119376898059e+00 2.0625570759721597e+01
ITEM: ATOMS id type mol x y z
3984 21 236 -9.86232 5.32576 9.00881
3986 21 238 -17.9695 11.4048 16.0885
3946 21 212 -10.1815 8.50195 12.0136
3823 21 127 -7.31461 -2.3903 16.5699
3774 21 94 -2.14576 9.55018 14.7531
3911 21 187 6.58645 -13.1325 16.26
3983 21 235 3.05297 -11.6569 6.91495
3919 21 193 10.0603 -22.3761 10.7948
3985 21 237 14.1906 -15.3615 5.80407
3975 21 231 10.1185 -2.67053 16.5951
ITEM: TIMESTEP
1345000
ITEM: NUMBER OF ATOMS
11
ITEM: BOX BOUNDS pp pp pp
-1.8603284338946150e+01 1.6784264560020713e+01
-2.4287524661518201e+01 1.4060116419430795e+01
-9.2190244578417904e+00 2.0591683279866579e+01
ITEM: ATOMS id type mol x y z
3984 21 236 -9.82373 5.34106 9.00127
3986 21 238 -17.896 11.429 16.0649
3946 21 212 -10.1415 8.5219 11.9992
3823 21 127 -7.28699 -2.3863 16.5452
3774 21 94 -2.14044 9.57167 14.7326
3988 21 240 6.67572 -22.8544 -5.98978
3911 21 187 6.55413 -13.1443 16.236
3983 21 235 3.03588 -11.6665 6.91217
3985 21 237 14.1255 -15.3765 5.8038
3975 21 231 10.0709 -2.66695 16.5704
3987 21 239 11.4485 6.96989 5.58877
ITEM: TIMESTEP
1350000
ITEM: NUMBER OF ATOMS
10
ITEM: BOX BOUNDS pp pp pp
-1.8516351811701131e+01 1.6697332032775694e+01
-2.4252547663593965e+01 1.4025139421506559e+01
-9.3376198063382674e+00 2.0710278628307453e+01
ITEM: ATOMS id type mol x y z
3984 21 236 -9.77993 5.32198 9.02765
3986 21 238 -17.8125 11.3989 16.1475
3946 21 212 -10.0961 8.49703 12.0495
3823 21 127 -7.25566 -2.39128 16.6316
3774 21 94 -2.13439 9.54488 14.8045
3988 21 240 6.63845 -22.822 -6.08268
3911 21 187 6.51746 -13.1296 16.3199
3983 21 235 3.0165 -11.6545 6.92192
3985 21 237 14.0516 -15.3578 5.80473
3975 21 231 10.017 -2.67141 16.657
ITEM: TIMESTEP
1355000
ITEM: NUMBER OF ATOMS
10
ITEM: BOX BOUNDS pp pp pp
-1.8379215019077566e+01 1.6560195240152130e+01
-2.4359542614241651e+01 1.4132134372154244e+01
-9.2673808381416301e+00 2.0640039660115381e+01
ITEM: ATOMS id type mol x y z
3984 21 236 -9.71084 5.38032 9.01203
3986 21 238 -17.6809 11.4912 16.0986
3946 21 212 -10.0246 8.57312 12.0197
3823 21 127 -7.20623 -2.37606 16.5805
3774 21 94 -2.12485 9.62683 14.7619
3988 21 240 6.57966 -22.921 -6.02766
3911 21 187 6.45962 -13.1745 16.2702
3983 21 235 2.98592 -11.6911 6.91614
3985 21 237 13.9351 -15.4151 5.80418
3975 21 231 9.93188 -2.65776 16.6057
ITEM: TIMESTEP
1360000
ITEM: NUMBER OF ATOMS
10
ITEM: BOX BOUNDS pp pp pp
-1.8490241413247848e+01 1.6671221634322411e+01
-2.4316322738822286e+01 1.4088914496734880e+01
-9.3995722766902539e+00 2.0772231098604014e+01
ITEM: ATOMS id type mol x y z
3984 21 236 -9.76677 5.35676 9.04142
3986 21 238 -17.7874 11.4539 16.1906
3946 21 212 -10.0825 8.54238 12.0757
3823 21 127 -7.24625 -2.38221 16.6768
3774 21 94 -2.13257 9.59372 14.8421
3988 21 240 6.62726 -22.881 -6.13121
3911 21 187 6.50645 -13.1564 16.3638
3983 21 235 3.01068 -11.6763 6.92701
3985 21 237 14.0294 -15.392 5.80522
3975 21 231 10.0008 -2.66327 16.7022
ITEM: TIMESTEP
1365000
ITEM: NUMBER OF ATOMS
11
ITEM: BOX BOUNDS pp pp pp
-1.8417245699409126e+01 1.6598225920483689e+01
-2.4338377901853502e+01 1.4110969659766095e+01
-9.3529537685562403e+00 2.0725612590467247e+01
ITEM: ATOMS id type mol x y z
3989 21 241 -16.4199 2.28431 0.434845
3984 21 236 -9.73 5.36878 9.03106
3986 21 238 -17.7174 11.4729 16.1582
3946 21 212 -10.0444 8.55807 12.056
3823 21 127 -7.21994 -2.37907 16.6428
3774 21 94 -2.12749 9.61062 14.8138
3988 21 240 6.59597 -22.9015 -6.09469
3911 21 187 6.47566 -13.1656 16.3308
3983 21 235 2.9944 -11.6839 6.92318
3985 21 237 13.9674 -15.4038 5.80485
3975 21 231 9.95548 -2.66046 16.6682
ITEM: TIMESTEP
1370000
ITEM: NUMBER OF ATOMS
11
ITEM: BOX BOUNDS pp pp pp
-1.8512652684346786e+01 1.6693632905421349e+01
-2.4171450746889946e+01 1.3944042504802539e+01
-9.3044309544428287e+00 2.0677089776351515e+01
ITEM: ATOMS id type mol x y z
3989 21 241 -16.5044 2.22008 0.451789
3984 21 236 -9.77807 5.27777 9.02027
3986 21 238 -17.809 11.3289 16.1244
3946 21 212 -10.0942 8.43935 12.0354
3823 21 127 -7.25433 -2.40282 16.6074
3774 21 94 -2.13413 9.48277 14.7844
3988 21 240 6.63687 -22.747 -6.05668
3911 21 187 6.5159 -13.0957 16.2964
3983 21 235 3.01567 -11.6268 6.91919
3985 21 237 14.0485 -15.3144 5.80447
3975 21 231 10.0147 -2.68176 16.6327
ITEM: TIMESTEP
1375000
ITEM: NUMBER OF ATOMS
11
ITEM: BOX BOUNDS pp pp pp
-1.8512595643357354e+01 1.6693575864431917e+01
-2.4282490539322509e+01 1.4055082297235103e+01
-9.3081665074372353e+00 2.0680825329327018e+01
ITEM: ATOMS id type mol x y z
3989 21 241 -16.5044 2.26281 0.450484
3984 21 236 -9.77804 5.33831 9.0211
3986 21 238 -17.8089 11.4247 16.127
3946 21 212 -10.0942 8.51832 12.037
3823 21 127 -7.25431 -2.38702 16.6102
3774 21 94 -2.13413 9.56781 14.7867
3988 21 240 6.63684 -22.8497 -6.05961
3911 21 187 6.51588 -13.1422 16.2991
3983 21 235 3.01566 -11.6648 6.9195
3985 21 237 14.0484 -15.3738 5.8045
3975 21 231 10.0147 -2.66759 16.6355
ITEM: TIMESTEP
1380000
ITEM: NUMBER OF ATOMS
11
ITEM: BOX BOUNDS pp pp pp
-1.8655891045724776e+01 1.6836871266799339e+01
-2.4275328834477346e+01 1.4047920592389939e+01
-9.2614301031307065e+00 2.0634088925018055e+01
ITEM: ATOMS id type mol x y z
3989 21 241 -16.6313 2.26005 0.466804
3984 21 236 -9.85023 5.33441 9.0107
3986 21 238 -17.9465 11.4185 16.0944
3946 21 212 -10.1689 8.51323 12.0172
3823 21 127 -7.30595 -2.38804 16.5761
3774 21 94 -2.1441 9.56233 14.7583
3988 21 240 6.69827 -22.8431 -6.023
3911 21 187 6.57632 -13.1392 16.266
3983 21 235 3.04761 -11.6623 6.91565
3985 21 237 14.1702 -15.37 5.80413
3975 21 231 10.1036 -2.6685 16.6013
ITEM: TIMESTEP
1385000
ITEM: NUMBER OF ATOMS
10
ITEM: BOX BOUNDS pp pp pp
-1.8297504261872195e+01 1.6478484482946758e+01
-2.4326922755153809e+01 1.4099514513066403e+01
-9.4595879739891728e+00 2.0832246795794113e+01
ITEM: ATOMS id type mol x y z
3989 21 241 -16.3138 2.27991 0.39761
3984 21 236 -9.66967 5.36254 9.05477
3986 21 238 -17.6024 11.463 16.2324
3946 21 212 -9.98194 8.54992 12.1011
3823 21 127 -7.17678 -2.3807 16.7205
3774 21 94 -2.11916 9.60184 14.8786
3988 21 240 6.54463 -22.8909 -6.17822
3911 21 187 6.42515 -13.1608 16.4063
3983 21 235 2.9677 -11.68 6.93195
3975 21 231 9.88117 -2.66192 16.746
ITEM: TIMESTEP
1390000
ITEM: NUMBER OF ATOMS
11
ITEM: BOX BOUNDS pp pp pp
-1.8477068290519423e+01 1.6658048511593986e+01
-2.4308386366933814e+01 1.4080978124846407e+01
-9.3024883729376846e+00 2.0675147194776201e+01
ITEM: ATOMS id type mol x y z
3989 21 241 -16.4729 2.27277 0.452467
3984 21 236 -9.76014 5.35243 9.01983
3986 21 238 -17.7748 11.447 16.123
3946 21 212 -10.0756 8.53674 12.0346
3823 21 127 -7.2415 -2.38334 16.606
3990 21 242 -6.30912 -2.12803 9.80782
3774 21 94 -2.13165 9.58765 14.7832
3988 21 240 6.62161 -22.8737 -6.05516
3911 21 187 6.50089 -13.153 16.2951
3983 21 235 3.00774 -11.6736 6.91903
3975 21 231 9.99261 -2.66428 16.6313
ITEM: TIMESTEP
1395000
ITEM: NUMBER OF ATOMS
12
ITEM: BOX BOUNDS pp pp pp
-1.8449312490801610e+01 1.6630292711876173e+01
-2.4496804231089406e+01 1.4269395989002000e+01
-9.2325053573959934e+00 2.0605164179240170e+01
ITEM: ATOMS id type mol x y z
3989 21 241 -16.4483 2.34528 0.476904
3984 21 236 -9.74615 5.45517 9.00427
3986 21 238 -17.7482 11.6096 16.0743
3946 21 212 -10.0611 8.67073 12.005
3823 21 127 -7.2315 -2.35654 16.555
3990 21 242 -6.30059 -2.09873 9.78858
3774 21 94 -2.12972 9.73196 14.7407
3988 21 240 6.60971 -23.048 -6.00034
3911 21 187 6.48918 -13.2319 16.2455
3983 21 235 3.00155 -11.738 6.91327
3991 21 243 1.15307 2.71907 2.1918
3975 21 231 9.97538 -2.64024 16.5802
ITEM: TIMESTEP
1400000
ITEM: NUMBER OF ATOMS
12
ITEM: BOX BOUNDS pp pp pp
-1.8376802103086970e+01 1.6557782324161533e+01
-2.4263628808924434e+01 1.4036220566837027e+01
-9.3166332369745106e+00 2.0689292058773390e+01
ITEM: ATOMS id type mol x y z
3989 21 241 -16.3841 2.25555 0.447528
3984 21 236 -9.70962 5.32803 9.02298
3986 21 238 -17.6785 11.4084 16.1329
3946 21 212 -10.0233 8.50491 12.0406
3823 21 127 -7.20536 -2.3897 16.6163
3990 21 242 -6.2783 -2.13499 9.81171
3774 21 94 -2.12468 9.55337 14.7918
3988 21 240 6.57863 -22.8323 -6.06624
3911 21 187 6.4586 -13.1343 16.3051
3983 21 235 2.98538 -11.6583 6.92019
3991 21 243 1.14454 2.62485 2.1721
3975 21 231 9.93038 -2.66999 16.6416
ITEM: TIMESTEP
1405000
ITEM: NUMBER OF ATOMS
12
ITEM: BOX BOUNDS pp pp pp
-1.8654610778042599e+01 1.6835590999117162e+01
-2.4046216780797870e+01 1.3818808538710464e+01
-9.4025061637694982e+00 2.0775164985522242e+01
ITEM: ATOMS id type mol x y z
3989 21 241 -16.6302 2.17188 0.417542
3984 21 236 -9.84958 5.20948 9.04208
3986 21 238 -17.9452 11.2208 16.1927
3946 21 212 -10.1683 8.35029 12.077
3823 21 127 -7.30549 -2.42063 16.6789
3990 21 242 -6.36369 -2.16881 9.83532
3774 21 94 -2.14401 9.38685 14.8439
3911 21 187 6.57578 -13.0432 16.3659
3983 21 235 3.04733 -11.584 6.92726
3991 21 243 1.17721 2.53699 2.15198
3992 21 244 4.22203 -0.222678 4.49885
3975 21 231 10.1028 -2.69774 16.7043
ITEM: TIMESTEP
1410000
ITEM: NUMBER OF ATOMS
11
ITEM: BOX BOUNDS pp pp pp
-1.8606322340095051e+01 1.6787302561169614e+01
-2.4442990000028356e+01 1.4215581757940949e+01
-9.1616482364055294e+00 2.0534307058220620e+01
ITEM: ATOMS id type mol x y z
3986 21 238 -17.8989 11.5632 16.025
3946 21 212 -10.1431 8.63246 11.9749
3993 21 245 -5.89215 -7.22109 -0.11302
3823 21 127 -7.28809 -2.36419 16.5034
3990 21 242 -6.34885 -2.1071 9.76909
3774 21 94 -2.14065 9.69074 14.6977
3911 21 187 6.55541 -13.2094 16.1954
3983 21 235 3.03656 -11.7196 6.90745
3991 21 243 1.17153 2.69733 2.2084
3992 21 244 4.20806 -0.120175 4.5178
3975 21 231 10.0728 -2.64711 16.5285
ITEM: TIMESTEP
1415000
ITEM: NUMBER OF ATOMS
11
ITEM: BOX BOUNDS pp pp pp
-1.8498887400442655e+01 1.6679867621517218e+01
-2.4597581926769674e+01 1.4370173684682268e+01
-9.1198327314694296e+00 2.0492491553280775e+01
ITEM: ATOMS id type mol x y z
3986 21 238 -17.7957 11.6965 15.9958
3946 21 212 -10.087 8.7424 11.9572
3993 21 245 -5.8619 -7.23794 -0.0966875
3823 21 127 -7.24937 -2.3422 16.473
3990 21 242 -6.31583 -2.08305 9.75759
3774 21 94 -2.13317 9.80914 14.6724
3911 21 187 6.5101 -13.2742 16.1658
3983 21 235 3.0126 -11.7725 6.90401
3991 21 243 1.1589 2.7598 2.21819
3992 21 244 4.177 -0.0802381 4.52109
3975 21 231 10.0061 -2.62738 16.4979
ITEM: TIMESTEP
1420000
ITEM: NUMBER OF ATOMS
8
ITEM: BOX BOUNDS pp pp pp
-1.8706102970079783e+01 1.6887083191154346e+01
-2.4215095279041538e+01 1.3987687036954132e+01
-9.2085322499149740e+00 2.0581191071678845e+01
ITEM: ATOMS id type mol x y z
3986 21 238 -17.9947 11.3665 16.0576
3946 21 212 -10.1951 8.47039 11.9948
3993 21 245 -5.92024 -7.19624 -0.131332
3823 21 127 -7.32405 -2.39661 16.5376
3774 21 94 -2.14759 9.51619 14.7262
3911 21 187 6.5975 -13.114 16.2286
3983 21 235 3.05881 -11.6417 6.9113
3975 21 231 10.1347 -2.67619 16.5627
ITEM: TIMESTEP
1425000
ITEM: NUMBER OF ATOMS
9
ITEM: BOX BOUNDS pp pp pp
-1.8624575746844918e+01 1.6805555967919481e+01
-2.4246991237231420e+01 1.4019582995144013e+01
-9.1344493782923770e+00 2.0507108200063083e+01
ITEM: ATOMS id type mol x y z
3986 21 238 -17.9164 11.3941 16.006
3946 21 212 -10.1526 8.49308 11.9634
3993 21 245 -5.89729 -7.19972 -0.102397
3823 21 127 -7.29467 -2.39207 16.4836
3774 21 94 -2.14192 9.54062 14.6812
3911 21 187 6.56311 -13.1273 16.1761
3983 21 235 3.04063 -11.6526 6.90521
3994 21 246 9.55258 -8.70306 -8.36889
3975 21 231 10.0841 -2.67212 16.5086
ITEM: TIMESTEP
1430000
ITEM: NUMBER OF ATOMS
9
ITEM: BOX BOUNDS pp pp pp
-1.8566503734969764e+01 1.6747483956044327e+01
-2.4462871153938075e+01 1.4235462911850668e+01
-9.1746347507693393e+00 2.0547293572508568e+01
ITEM: ATOMS id type mol x y z
3986 21 238 -17.8607 11.5803 16.034
3946 21 212 -10.1223 8.6466 11.9804
3993 21 245 -5.88094 -7.22326 -0.118092
3823 21 127 -7.27374 -2.36136 16.5129
3774 21 94 -2.13788 9.70597 14.7056
3911 21 187 6.53862 -13.2177 16.2046
3983 21 235 3.02768 -11.7264 6.90852
3994 21 246 9.51829 -8.74356 -8.407
3975 21 231 10.0481 -2.64457 16.538
ITEM: TIMESTEP
1435000
ITEM: NUMBER OF ATOMS
9
ITEM: BOX BOUNDS pp pp pp
-1.8422671588125368e+01 1.6603651809199931e+01
-2.4612346823407890e+01 1.4384938581320483e+01
-9.2478250526572623e+00 2.0620483874353901e+01
ITEM: ATOMS id type mol x y z
3986 21 238 -17.7226 11.7093 16.085
3946 21 212 -10.0472 8.7529 12.0114
3823 21 127 -7.22189 -2.3401 16.5662
3774 21 94 -2.12787 9.82045 14.75
3911 21 187 6.47795 -13.2803 16.2564
3983 21 235 2.99561 -11.7775 6.91453
3995 21 247 13.4906 -14.4837 -2.50607
3994 21 246 9.43334 -8.7716 -8.47641
3975 21 231 9.95885 -2.6255 16.5914
ITEM: TIMESTEP
1440000
ITEM: NUMBER OF ATOMS
10
ITEM: BOX BOUNDS pp pp pp
-1.8607071864284968e+01 1.6788052085359531e+01
-2.4527144192738877e+01 1.4299735950651471e+01
-9.1687963984225576e+00 2.0541455220128110e+01
ITEM: ATOMS id type mol x y z
3986 21 238 -17.8996 11.6358 16.0299
3946 21 212 -10.1435 8.69231 11.978
3823 21 127 -7.28836 -2.35222 16.5086
3774 21 94 -2.1407 9.75519 14.7021
3911 21 187 6.55573 -13.2447 16.2004
3983 21 235 3.03673 -11.7484 6.90804
3999 21 249 8.66975 -20.2433 1.30735
3995 21 247 13.6423 -14.4428 -2.46272
3994 21 246 9.54225 -8.75561 -8.40147
3975 21 231 10.0733 -2.63637 16.5337
ITEM: TIMESTEP
1445000
ITEM: NUMBER OF ATOMS
10
ITEM: BOX BOUNDS pp pp pp
-1.8653886093100741e+01 1.6834866314175304e+01
-2.4389941221168563e+01 1.4162532979081156e+01
-9.2564956944814583e+00 2.0629154516139543e+01
ITEM: ATOMS id type mol x y z
3986 21 238 -17.9446 11.5174 16.091
3946 21 212 -10.1679 8.59474 12.0151
3823 21 127 -7.30523 -2.37174 16.5725
3774 21 94 -2.14396 9.65011 14.7553
3911 21 187 6.57548 -13.1872 16.2625
3983 21 235 3.04717 -11.7015 6.91525
3999 21 249 8.69509 -20.1364 1.2815
4003 21 251 13.2117 -19.1355 10.8339
3995 21 247 13.6808 -14.3768 -2.51083
3994 21 246 9.56989 -8.72987 -8.48463
ITEM: TIMESTEP
1450000
ITEM: NUMBER OF ATOMS
10
ITEM: BOX BOUNDS pp pp pp
-1.8352069371079175e+01 1.6533049592153738e+01
-2.4459944101809967e+01 1.4232535859722560e+01
-9.3408151160663984e+00 2.0713473937677829e+01
ITEM: ATOMS id type mol x y z
3986 21 238 -17.6548 11.5778 16.1497
3946 21 212 -10.0104 8.64452 12.0508
3823 21 127 -7.19645 -2.36178 16.634
3774 21 94 -2.12296 9.70373 14.8065
3911 21 187 6.44816 -13.2165 16.3222
3983 21 235 2.97987 -11.7254 6.92218
3999 21 249 8.53172 -20.1909 1.25664
4003 21 251 12.9716 -19.1864 10.863
3995 21 247 13.4326 -14.4105 -2.55708
3994 21 246 9.39165 -8.74301 -8.5646
ITEM: TIMESTEP
1455000
ITEM: NUMBER OF ATOMS
12
ITEM: BOX BOUNDS pp pp pp
-1.8348662886318515e+01 1.6529643107393078e+01
-2.4768546112741806e+01 1.4541137870654399e+01
-9.2339520637806736e+00 2.0606610885411047e+01
ITEM: ATOMS id type mol x y z
3986 21 238 -17.6515 11.844 16.0753
3946 21 212 -10.0086 8.86398 12.0056
4010 21 254 -1.89385 -18.0999 -2.61302
4011 21 255 -7.04408 -8.9568 1.76251
3823 21 127 -7.19522 -2.31788 16.5561
3774 21 94 -2.12272 9.94009 14.7416
3911 21 187 6.44673 -13.3458 16.2466
3983 21 235 2.97911 -11.8309 6.91339
3999 21 249 8.52988 -20.4314 1.28814
4003 21 251 12.9688 -19.4109 10.8262
3995 21 247 13.4298 -14.5588 -2.49846
3994 21 246 9.38964 -8.8009 -8.46326
ITEM: TIMESTEP
1460000
ITEM: NUMBER OF ATOMS
12
ITEM: BOX BOUNDS pp pp pp
-1.8680941557064585e+01 1.6861921778139148e+01
-2.4387089344595065e+01 1.4159681102507658e+01
-9.1934624380125136e+00 2.0566121259639083e+01
ITEM: ATOMS id type mol x y z
3986 21 238 -17.9705 11.5149 16.0471
3946 21 212 -10.182 8.59271 11.9884
4010 21 254 -1.91261 -17.8478 -2.5905
4011 21 255 -7.16096 -8.88222 1.77316
3823 21 127 -7.31498 -2.37214 16.5266
3774 21 94 -2.14584 9.64793 14.717
3911 21 187 6.58689 -13.186 16.2179
3983 21 235 3.0532 -11.7005 6.91006
3999 21 249 8.70973 -20.1341 1.30008
4003 21 251 13.2333 -19.1334 10.8122
3995 21 247 13.703 -14.3755 -2.47625
3994 21 246 9.58587 -8.72934 -8.42486
ITEM: TIMESTEP
1465000
ITEM: NUMBER OF ATOMS
11
ITEM: BOX BOUNDS pp pp pp
-1.8424956268001889e+01 1.6605936489076452e+01
-2.4699732279248174e+01 1.4472324037160767e+01
-9.1759964116810160e+00 2.0548655233295602e+01
ITEM: ATOMS id type mol x y z
3986 21 238 -17.7248 11.7847 16.0349
3946 21 212 -10.0484 8.81505 11.981
4010 21 254 -1.89816 -18.0544 -2.58078
4011 21 255 -7.07092 -8.94335 1.77775
3823 21 127 -7.22272 -2.32767 16.5139
3774 21 94 -2.12803 9.88738 14.7064
3911 21 187 6.47891 -13.3169 16.2055
3983 21 235 2.99612 -11.8074 6.90863
4003 21 251 13.0296 -19.3609 10.8062
3995 21 247 13.4925 -14.5257 -2.46667
3994 21 246 9.43469 -8.78799 -8.40829
ITEM: TIMESTEP
1470000
ITEM: NUMBER OF ATOMS
10
ITEM: BOX BOUNDS pp pp pp
-1.8421606446300920e+01 1.6602586667375483e+01
-2.4722379048493824e+01 1.4494970806406418e+01
-9.1844726308145894e+00 2.0557131452408445e+01
ITEM: ATOMS id type mol x y z
3986 21 238 -17.7216 11.8042 16.0408
3946 21 212 -10.0467 8.83115 11.9846
4010 21 254 -1.89797 -18.0694 -2.5855
3823 21 127 -7.22151 -2.32445 16.5201
3774 21 94 -2.1278 9.90473 14.7116
3911 21 187 6.4775 -13.3264 16.2115
3983 21 235 2.99537 -11.8151 6.90932
4003 21 251 13.0269 -19.3773 10.8091
3995 21 247 13.4898 -14.5366 -2.47132
3994 21 246 9.43272 -8.79224 -8.41633
ITEM: TIMESTEP
1475000
ITEM: NUMBER OF ATOMS
11
ITEM: BOX BOUNDS pp pp pp
-1.8475138079834615e+01 1.6656118300909178e+01
-2.4649315179432495e+01 1.4421906937345089e+01
-9.2581279717411284e+00 2.0630786793291620e+01
ITEM: ATOMS id type mol x y z
3986 21 238 -17.7729 11.7412 16.0921
3946 21 212 -10.0746 8.77919 12.0158
4010 21 254 -1.90099 -18.0211 -2.62647
4015 21 257 -6.22393 -22.7008 -4.43569
3823 21 127 -7.24081 -2.33484 16.5737
3774 21 94 -2.13152 9.84877 14.7563
3911 21 187 6.50008 -13.2958 16.2637
3983 21 235 3.00731 -11.7901 6.91538
4003 21 251 13.0695 -19.3242 10.8345
3995 21 247 13.5338 -14.5015 -2.51172
3994 21 246 9.46433 -8.77853 -8.48618
ITEM: TIMESTEP
1480000
ITEM: NUMBER OF ATOMS
11
ITEM: BOX BOUNDS pp pp pp
-1.8473116425929010e+01 1.6654096647003573e+01
-2.4768114518983172e+01 1.4540706276895765e+01
-9.0806399023154611e+00 2.0453298723910027e+01
ITEM: ATOMS id type mol x y z
3986 21 238 -17.771 11.8437 15.9685
3946 21 212 -10.0736 8.86368 11.9406
4010 21 254 -1.90088 -18.0996 -2.52774
4015 21 257 -6.22332 -22.8078 -4.31548
3823 21 127 -7.24008 -2.31794 16.4444
3774 21 94 -2.13138 9.93976 14.6486
3911 21 187 6.49923 -13.3456 16.1381
3983 21 235 3.00686 -11.8307 6.90078
4003 21 251 13.0679 -19.4106 10.7733
3995 21 247 13.5321 -14.5586 -2.41436
3994 21 246 9.46314 -8.80082 -8.31786
ITEM: TIMESTEP
1485000
ITEM: NUMBER OF ATOMS
13
ITEM: BOX BOUNDS pp pp pp
-1.8614654703206547e+01 1.6795634924281110e+01
-2.4545081513431576e+01 1.4317673271344169e+01
-9.2633371478761397e+00 2.0635995969389157e+01
ITEM: ATOMS id type mol x y z
4018 21 260 -18.2516 -12.8379 -8.72638
3986 21 238 -17.9069 11.6512 16.0958
3946 21 212 -10.1474 8.70506 12.018
4010 21 254 -1.90887 -17.9522 -2.62936
4015 21 257 -6.26614 -22.607 -4.43922
3823 21 127 -7.29109 -2.34967 16.5775
3774 21 94 -2.14123 9.76893 14.7595
3911 21 187 6.55893 -13.2522 16.2674
3983 21 235 3.03842 -11.7545 6.91581
4017 21 259 2.75657 -3.0467 3.19973
4003 21 251 13.1805 -19.2484 10.8363
3995 21 247 13.6485 -14.4514 -2.51458
4016 21 258 8.72462 -16.6141 17.8163
ITEM: TIMESTEP
1490000
ITEM: NUMBER OF ATOMS
11
ITEM: BOX BOUNDS pp pp pp
-1.8591350249670981e+01 1.6772330470745544e+01
-2.4553871218426458e+01 1.4326462976339052e+01
-9.2539539312241708e+00 2.0626612752722512e+01
ITEM: ATOMS id type mol x y z
4018 21 260 -18.2288 -12.8414 -8.71733
3986 21 238 -17.8845 11.6588 16.0892
3946 21 212 -10.1353 8.71132 12.014
4010 21 254 -1.90755 -17.958 -2.62414
4015 21 257 -6.25909 -22.6149 -4.43287
3823 21 127 -7.28269 -2.34842 16.5707
3774 21 94 -2.13961 9.77567 14.7538
3983 21 235 3.03322 -11.7575 6.91504
4017 21 259 2.75174 -3.04577 3.20129
4003 21 251 13.162 -19.2548 10.833
4016 21 258 8.71194 -16.6193 17.8087
ITEM: TIMESTEP
1495000
ITEM: NUMBER OF ATOMS
12
ITEM: BOX BOUNDS pp pp pp
-1.8467461219519528e+01 1.6648441440594091e+01
-2.4712047487772029e+01 1.4484639245684622e+01
-9.2430810363997864e+00 2.0615739857884101e+01
ITEM: ATOMS id type mol x y z
4018 21 260 -18.1075 -12.9043 -8.70685
3986 21 238 -17.7656 11.7953 16.0817
3946 21 212 -10.0706 8.8238 12.0094
4010 21 254 -1.90056 -18.0625 -2.6181
4015 21 257 -6.22161 -22.7573 -4.4255
3823 21 127 -7.23804 -2.32592 16.5628
3774 21 94 -2.13099 9.89681 14.7472
4019 21 261 6.50309 -13.6625 17.985
3983 21 235 3.0056 -11.8116 6.91414
4017 21 259 2.72609 -3.02894 3.2031
4003 21 251 13.0634 -19.3698 10.8293
4020 21 262 11.9168 -9.79541 -7.73493
ITEM: TIMESTEP
1500000
ITEM: NUMBER OF ATOMS
13
ITEM: BOX BOUNDS pp pp pp
-1.8520322945013355e+01 1.6701303166087918e+01
-2.4316334994203249e+01 1.4088926752115842e+01
-9.3148286655572328e+00 2.0687487486998034e+01
ITEM: ATOMS id type mol x y z
4018 21 260 -18.1592 -12.747 -8.77602
3986 21 238 -17.8163 11.4539 16.1316
3946 21 212 -10.0982 8.54239 12.0398
4010 21 254 -1.90354 -17.8011 -2.65801
4015 21 257 -6.2376 -22.4011 -4.4741
3823 21 127 -7.25709 -2.38221 16.615
3774 21 94 -2.13466 9.59373 14.7907
4019 21 261 6.52541 -13.4898 18.0441
3983 21 235 3.01738 -11.6763 6.92004
4017 21 259 2.73704 -3.07104 3.19116
4003 21 251 13.1054 -19.082 10.854
4021 21 263 15.6368 -21.9133 8.91826
4020 21 262 11.9554 -9.70088 -7.79943
ITEM: TIMESTEP
1505000
ITEM: NUMBER OF ATOMS
12
ITEM: BOX BOUNDS pp pp pp
-1.8598965016556448e+01 1.6779945237631011e+01
-2.4577388702017672e+01 1.4349980459930265e+01
-9.1200070114265159e+00 2.0492665832918778e+01
ITEM: ATOMS id type mol x y z
4018 21 260 -18.2363 -12.8507 -8.58819
3986 21 238 -17.8918 11.6791 15.996
3946 21 212 -10.1392 8.72804 11.9573
4010 21 254 -1.90798 -17.9736 -2.54964
4015 21 257 -6.26139 -22.6361 -4.34214
3823 21 127 -7.28544 -2.34507 16.4731
3774 21 94 -2.14013 9.79368 14.6725
4019 21 261 6.55861 -13.6037 17.8836
3983 21 235 3.03492 -11.7656 6.90402
4017 21 259 2.75332 -3.04327 3.22357
4003 21 251 13.168 -19.2719 10.7869
4021 21 263 15.7107 -22.1417 8.87629
ITEM: TIMESTEP
1510000
ITEM: NUMBER OF ATOMS
12
ITEM: BOX BOUNDS pp pp pp
-1.8540266608025000e+01 1.6721246829099563e+01
-2.4551612476472290e+01 1.4324204234384883e+01
-9.1864526764021406e+00 2.0559111497852783e+01
ITEM: ATOMS id type mol x y z
4018 21 260 -18.1788 -12.8405 -8.65225
3986 21 238 -17.8355 11.6569 16.0422
3946 21 212 -10.1086 8.70971 11.9855
4010 21 254 -1.90467 -17.9565 -2.5866
4015 21 257 -6.24363 -22.6129 -4.38715
3823 21 127 -7.26428 -2.34874 16.5215
3774 21 94 -2.13605 9.77394 14.7128
4019 21 261 6.53383 -13.5925 17.9384
3983 21 235 3.02183 -11.7568 6.90949
4017 21 259 2.74117 -3.04601 3.21252
4003 21 251 13.1213 -19.2531 10.8098
4021 21 263 15.6556 -22.1192 8.8906
ITEM: TIMESTEP
1515000
ITEM: NUMBER OF ATOMS
12
ITEM: BOX BOUNDS pp pp pp
-1.8414319273976435e+01 1.6595299495050998e+01
-2.4616000423402362e+01 1.4388592181314955e+01
-9.2122030033266959e+00 2.0584861824750320e+01
ITEM: ATOMS id type mol x y z
4018 21 260 -18.0554 -12.8661 -8.67708
3986 21 238 -17.7146 11.7124 16.0602
3946 21 212 -10.0429 8.7555 11.9964
4010 21 254 -1.89756 -17.9991 -2.60092
4015 21 257 -6.20553 -22.6709 -4.40459
3823 21 127 -7.21888 -2.33958 16.5403
3774 21 94 -2.12729 9.82325 14.7284
4019 21 261 6.48065 -13.6206 17.9596
3983 21 235 2.99375 -11.7788 6.9116
4017 21 259 2.71509 -3.03916 3.20823
4003 21 251 13.0211 -19.3 10.8187
4021 21 263 15.5372 -22.1755 8.89615
ITEM: TIMESTEP
1520000
ITEM: NUMBER OF ATOMS
12
ITEM: BOX BOUNDS pp pp pp
-1.8690790692420205e+01 1.6871770913494768e+01
-2.4372082632191503e+01 1.4144674390104097e+01
-9.1622990780839615e+00 2.0534957899507642e+01
ITEM: ATOMS id type mol x y z
4018 21 260 -18.3262 -12.7691 -8.62897
3986 21 238 -17.98 11.502 16.0254
3946 21 212 -10.1871 8.58204 11.9752
4010 21 254 -1.91316 -17.8379 -2.57316
4015 21 257 -6.28918 -22.4513 -4.37079
3823 21 127 -7.31853 -2.37428 16.5039
3774 21 94 -2.14652 9.63643 14.6981
4019 21 261 6.59737 -13.5142 17.9185
3983 21 235 3.0554 -11.6954 6.9075
4017 21 259 2.77233 -3.06511 3.21653
4003 21 251 13.2411 -19.1225 10.8015
4021 21 263 15.797 -21.9621 8.8854
ITEM: TIMESTEP
1525000
ITEM: NUMBER OF ATOMS
12
ITEM: BOX BOUNDS pp pp pp
-1.8514844662401394e+01 1.6695824883475957e+01
-2.4473622489181679e+01 1.4246214247094272e+01
-9.3235777442081087e+00 2.0696236565556028e+01
ITEM: ATOMS id type mol x y z
3986 21 238 -17.8111 11.5896 16.1377
3946 21 212 -10.0953 8.65425 12.0435
4010 21 254 -1.90323 -17.905 -2.66287
4015 21 257 -6.23594 -22.5427 -4.48002
4025 21 265 -6.39229 -8.15919 7.40157
3823 21 127 -7.25512 -2.35983 16.6214
3774 21 94 -2.13428 9.7142 14.796
4019 21 261 6.52309 -13.5585 18.0513
3983 21 235 3.01616 -11.7301 6.92076
4017 21 259 2.7359 -3.05431 3.18971
4003 21 251 13.1011 -19.1964 10.857
4021 21 263 15.6317 -22.0509 8.92014
ITEM: TIMESTEP
1530000
ITEM: NUMBER OF ATOMS
12
ITEM: BOX BOUNDS pp pp pp
-1.8598696081963269e+01 1.6779676303037832e+01
-2.4401015022892850e+01 1.4173606780805443e+01
-9.3064820690330770e+00 2.0679140890369382e+01
ITEM: ATOMS id type mol x y z
3986 21 238 -17.8916 11.5269 16.1258
3946 21 212 -10.1391 8.60261 12.0363
4010 21 254 -1.90797 -17.857 -2.65336
4015 21 257 -6.26131 -22.4773 -4.46844
4025 21 265 -6.4184 -8.14776 7.39962
3823 21 127 -7.28534 -2.37016 16.6089
3774 21 94 -2.14012 9.65859 14.7856
4019 21 261 6.55849 -13.5268 18.0373
3983 21 235 3.03486 -11.7053 6.91936
4017 21 259 2.75326 -3.06203 3.19255
4003 21 251 13.1678 -19.1436 10.8511
4021 21 263 15.7105 -21.9874 8.91646
ITEM: TIMESTEP
1535000
ITEM: NUMBER OF ATOMS
12
ITEM: BOX BOUNDS pp pp pp
-1.8612130885007474e+01 1.6793111106082037e+01
-2.4368756284388088e+01 1.4141348042300681e+01
-9.3075137526489620e+00 2.0680172573966786e+01
ITEM: ATOMS id type mol x y z
3986 21 238 -17.9045 11.4991 16.1265
3946 21 212 -10.1461 8.57967 12.0367
4010 21 254 -1.90872 -17.8357 -2.65394
4015 21 257 -6.26538 -22.4483 -4.46914
4025 21 265 -6.42259 -8.14269 7.39974
3823 21 127 -7.29018 -2.37475 16.6097
3774 21 94 -2.14105 9.63388 14.7863
4019 21 261 6.56417 -13.5127 18.0381
3983 21 235 3.03786 -11.6943 6.91944
4017 21 259 2.75605 -3.06546 3.19238
4003 21 251 13.1785 -19.1201 10.8515
4021 21 263 15.7231 -21.9592 8.91668
ITEM: TIMESTEP
1540000
ITEM: NUMBER OF ATOMS
13
ITEM: BOX BOUNDS pp pp pp
-1.8455345697804038e+01 1.6636325918878601e+01
-2.4533945967126773e+01 1.4306537725039366e+01
-9.2140054896990833e+00 2.0586664311033203e+01
ITEM: ATOMS id type mol x y z
4026 21 266 -16.3891 0.201244 2.01303
3986 21 238 -17.7539 11.6416 16.0614
3946 21 212 -10.0643 8.69715 11.9971
4010 21 254 -1.89987 -17.9449 -2.60192
4015 21 257 -6.21794 -22.597 -4.40581
4025 21 265 -6.37376 -8.16868 7.38905
3823 21 127 -7.23367 -2.35125 16.5416
3774 21 94 -2.13014 9.7604 14.7295
4019 21 261 6.49797 -13.5848 17.9611
3983 21 235 3.0029 -11.7507 6.91175
4017 21 259 2.72358 -3.04789 3.20793
4003 21 251 13.0537 -19.2403 10.8193
4021 21 263 15.5758 -22.1037 8.89654
ITEM: TIMESTEP
1545000
ITEM: NUMBER OF ATOMS
13
ITEM: BOX BOUNDS pp pp pp
-1.8510515966205098e+01 1.6691496187279661e+01
-2.4509224065578746e+01 1.4281815823491339e+01
-9.2242678340413491e+00 2.0596926655354235e+01
ITEM: ATOMS id type mol x y z
4026 21 266 -16.4377 0.194478 2.0105
3986 21 238 -17.8069 11.6203 16.0686
3946 21 212 -10.0931 8.67956 12.0015
4010 21 254 -1.90299 -17.9285 -2.60763
4015 21 257 -6.23463 -22.5747 -4.41276
4025 21 265 -6.39094 -8.16479 7.39022
3823 21 127 -7.25356 -2.35477 16.549
4019 21 261 6.52127 -13.574 17.9695
3983 21 235 3.0152 -11.7423 6.9126
4017 21 259 2.73501 -3.05052 3.20623
4027 21 267 -0.701388 9.09985 14.9063
4003 21 251 13.0976 -19.2223 10.8228
4021 21 263 15.6276 -22.0821 8.89875
ITEM: TIMESTEP
1550000
ITEM: NUMBER OF ATOMS
14
ITEM: BOX BOUNDS pp pp pp
-1.8530139209041760e+01 1.6711119430116323e+01
-2.4640525085968836e+01 1.4413116843881429e+01
-9.2276763641349397e+00 2.0600335185428793e+01
ITEM: ATOMS id type mol x y z
4026 21 266 -16.455 0.230412 2.00966
3986 21 238 -17.8258 11.7336 16.0709
3946 21 212 -10.1033 8.77294 12.0029
4010 21 254 -1.9041 -18.0153 -2.60953
4015 21 257 -6.24057 -22.6929 -4.41507
4025 21 265 -6.39705 -8.18544 7.39061
3823 21 127 -7.26063 -2.33609 16.5515
4019 21 261 6.52955 -13.6313 17.9723
3983 21 235 3.01957 -11.7871 6.91288
4017 21 259 2.73907 -3.03655 3.20566
4027 21 267 -0.701156 9.19607 14.9084
4003 21 251 13.1133 -19.3178 10.824
4029 21 269 15.9166 -21.4208 9.04997
4028 21 268 13.8935 -14.9619 -1.84867
ITEM: TIMESTEP
1555000
ITEM: NUMBER OF ATOMS
14
ITEM: BOX BOUNDS pp pp pp
-1.8591262537033970e+01 1.6772242758108533e+01
-2.4361518440590483e+01 1.4134110198503077e+01
-9.2158464838254659e+00 2.0588505305105858e+01
ITEM: ATOMS id type mol x y z
4026 21 266 -16.509 0.154053 2.01258
3986 21 238 -17.8844 11.4929 16.0627
3946 21 212 -10.1352 8.57452 11.9979
4010 21 254 -1.90755 -17.8309 -2.60295
4015 21 257 -6.25906 -22.4418 -4.40706
4025 21 265 -6.41609 -8.14155 7.38926
3823 21 127 -7.28266 -2.37578 16.5429
4019 21 261 6.55536 -13.5096 17.9626
3983 21 235 3.0332 -11.6918 6.9119
4017 21 259 2.75173 -3.06623 3.20763
4027 21 267 -0.700434 8.99161 14.9011
4003 21 251 13.1619 -19.1148 10.8199
4029 21 269 15.975 -21.1878 9.0473
4028 21 268 13.9449 -14.8212 -1.84269
ITEM: TIMESTEP
1560000
ITEM: NUMBER OF ATOMS
15
ITEM: BOX BOUNDS pp pp pp
-1.8540085900887807e+01 1.6721066121962370e+01
-2.4462196750047596e+01 1.4234788507960189e+01
-9.2440391842205045e+00 2.0616698005472589e+01
ITEM: ATOMS id type mol x y z
4026 21 266 -16.4638 0.181607 2.00563
3986 21 238 -17.8353 11.5797 16.0823
3946 21 212 -10.1085 8.64612 12.0098
4010 21 254 -1.90466 -17.8975 -2.61863
4015 21 257 -6.24358 -22.5324 -4.42615
4030 21 270 -6.56795 -7.45098 1.77202
4025 21 265 -6.40015 -8.15739 7.39248
3823 21 127 -7.26421 -2.36146 16.5634
4019 21 261 6.53375 -13.5535 17.9858
3983 21 235 3.02179 -11.7262 6.91422
4017 21 259 2.74113 -3.05552 3.20294
4027 21 267 -0.701039 9.06539 14.9186
4003 21 251 13.1212 -19.1881 10.8296
4029 21 269 15.9261 -21.2719 9.05366
4028 21 268 13.9019 -14.872 -1.85693
ITEM: TIMESTEP
1565000
ITEM: NUMBER OF ATOMS
14
ITEM: BOX BOUNDS pp pp pp
-1.8675360808485987e+01 1.6856341029560550e+01
-2.4266114761584927e+01 1.4038706519497520e+01
-9.3013577587667946e+00 2.0674016579980005e+01
ITEM: ATOMS id type mol x y z
4026 21 266 -16.5832 0.127943 1.9915
3986 21 238 -17.9652 11.4106 16.1222
3946 21 212 -10.1791 8.50668 12.0341
4010 21 254 -1.91229 -17.7679 -2.65051
4015 21 257 -6.28451 -22.3559 -4.46497
4030 21 270 -6.61137 -7.42729 1.75699
4025 21 265 -6.44228 -8.12654 7.39903
3823 21 127 -7.31297 -2.38935 16.6052
4019 21 261 6.59086 -13.4679 18.033
3983 21 235 3.05195 -11.6592 6.91894
4017 21 259 2.76914 -3.07638 3.1934
4003 21 251 13.2288 -19.0454 10.8494
4029 21 269 16.0553 -21.1082 9.06659
4028 21 268 14.0155 -14.7731 -1.88589
ITEM: TIMESTEP
1570000
ITEM: NUMBER OF ATOMS
14
ITEM: BOX BOUNDS pp pp pp
-1.8591991799129822e+01 1.6772972020204385e+01
-2.4510744446129593e+01 1.4283336204042186e+01
-9.3103473614173566e+00 2.0683006182609528e+01
ITEM: ATOMS id type mol x y z
4026 21 266 -16.5096 0.194894 1.98928
3986 21 238 -17.8851 11.6216 16.1285
3946 21 212 -10.1356 8.68065 12.0379
4010 21 254 -1.90759 -17.9295 -2.65551
4015 21 257 -6.25928 -22.5761 -4.47106
4030 21 270 -6.58461 -7.45684 1.75463
4025 21 265 -6.41632 -8.16503 7.40006
3823 21 127 -7.28292 -2.35455 16.6118
4019 21 261 6.55566 -13.5747 18.0404
3983 21 235 3.03337 -11.7428 6.91968
4017 21 259 2.75188 -3.05036 3.19191
4003 21 251 13.1625 -19.2234 10.8525
4029 21 269 15.9757 -21.3125 9.06862
4028 21 268 13.9455 -14.8965 -1.89043
ITEM: TIMESTEP
1575000
ITEM: NUMBER OF ATOMS
13
ITEM: BOX BOUNDS pp pp pp
-1.8685790484882716e+01 1.6866770705957279e+01
-2.4405083070738765e+01 1.4177674828651359e+01
-9.1791360638878992e+00 2.0551794885110908e+01
ITEM: ATOMS id type mol x y z
4026 21 266 -16.5924 0.165976 2.02163
3986 21 238 -17.9752 11.5305 16.0371
4010 21 254 -1.91288 -17.8597 -2.58253
4015 21 257 -6.28766 -22.481 -4.38219
4030 21 270 -6.23691 -22.8515 13.355
4025 21 265 -6.44553 -8.1484 7.38507
3823 21 127 -7.31673 -2.36958 16.5162
4019 21 261 6.59526 -13.5286 17.9323
3983 21 235 3.05428 -11.7067 6.90889
4017 21 259 2.7713 -3.0616 3.21373
4003 21 251 13.2371 -19.1465 10.8073
4029 21 269 16.0652 -21.2242 9.03902
4028 21 268 14.0243 -14.8432 -1.82414
ITEM: TIMESTEP
1580000
ITEM: NUMBER OF ATOMS
12
ITEM: BOX BOUNDS pp pp pp
-1.8556095240895250e+01 1.6737075461969813e+01
-2.4295574644237604e+01 1.4068166402150197e+01
-9.2613622511899685e+00 2.0634021072364551e+01
ITEM: ATOMS id type mol x y z
4026 21 266 -16.4779 0.136006 2.00136
3986 21 238 -17.8507 11.436 16.0944
4010 21 254 -1.90556 -17.7874 -2.62826
4030 21 270 -6.19805 -22.7508 13.3974
4025 21 265 -6.40514 -8.13118 7.39446
3823 21 127 -7.26998 -2.38516 16.5761
4019 21 261 6.54051 -13.4808 18.0001
3983 21 235 3.02536 -11.6693 6.91565
4017 21 259 2.74444 -3.07325 3.20006
4003 21 251 13.1339 -19.0669 10.8356
4029 21 269 15.9414 -21.1328 9.05757
4028 21 268 13.9153 -14.788 -1.86568
ITEM: TIMESTEP
1585000
ITEM: NUMBER OF ATOMS
10
ITEM: BOX BOUNDS pp pp pp
-1.8531041183802294e+01 1.6712021404876857e+01
-2.4388195251186449e+01 1.4160787009099042e+01
-9.2835601657472218e+00 2.0656218986895446e+01
ITEM: ATOMS id type mol x y z
4026 21 266 -16.4558 0.161354 1.99589
3986 21 238 -17.8266 11.5159 16.1098
4010 21 254 -1.90415 -17.8486 -2.64061
4030 21 270 -6.19054 -22.836 13.4089
4025 21 265 -6.39733 -8.14575 7.397
3823 21 127 -7.26095 -2.37198 16.5922
4019 21 261 6.52993 -13.5212 18.0184
4017 21 259 2.73926 -3.06339 3.19636
4003 21 251 13.114 -19.1342 10.8432
4029 21 269 15.9175 -21.2101 9.06258
ITEM: TIMESTEP
1590000
ITEM: NUMBER OF ATOMS
11
ITEM: BOX BOUNDS pp pp pp
-1.8458382077628265e+01 1.6639362298702828e+01
-2.4357710967667305e+01 1.4130302725579899e+01
-9.2782338250972956e+00 2.0650892646229487e+01
ITEM: ATOMS id type mol x y z
4026 21 266 -16.3917 0.153011 1.9972
3986 21 238 -17.7569 11.4896 16.1061
4010 21 254 -1.90005 -17.8284 -2.63765
4030 21 270 -6.16876 -22.8079 13.4061
4031 21 271 -5.197 -9.65253 5.03678
4025 21 265 -6.37471 -8.14095 7.39639
3823 21 127 -7.23477 -2.37632 16.5884
4019 21 261 6.49926 -13.5079 18.014
4017 21 259 2.72421 -3.06664 3.19725
4003 21 251 13.0562 -19.1121 10.8414
4029 21 269 15.8481 -21.1847 9.06137
ITEM: TIMESTEP
1595000
ITEM: NUMBER OF ATOMS
11
ITEM: BOX BOUNDS pp pp pp
-1.8505808946191298e+01 1.6686789167265861e+01
-2.4510424965918396e+01 1.4283016723830990e+01
-9.2046449378888582e+00 2.0577303759031082e+01
ITEM: ATOMS id type mol x y z
4033 21 273 -12.4649 12.3636 3.98127
3986 21 238 -17.8024 11.6213 16.0549
4010 21 254 -1.90272 -17.9293 -2.59672
4031 21 271 -5.20858 -9.68855 5.03997
4025 21 265 -6.38948 -8.16498 7.38798
3823 21 127 -7.25186 -2.3546 16.5347
4019 21 261 6.51928 -13.5745 17.9534
4017 21 259 2.73403 -3.05039 3.20949
4032 21 272 1.84802 -8.2472 18.6136
4003 21 251 13.0939 -19.2232 10.8161
4029 21 269 15.8934 -21.3122 9.04478
ITEM: TIMESTEP
1600000
ITEM: NUMBER OF ATOMS
10
ITEM: BOX BOUNDS pp pp pp
-1.8470249124435117e+01 1.6651229345509680e+01
-2.4421902368551240e+01 1.4194494126463834e+01
-9.3033266585228240e+00 2.0675985479610038e+01
ITEM: ATOMS id type mol x y z
4033 21 273 -12.4416 12.2839 3.96997
3986 21 238 -17.7683 11.545 16.1236
4010 21 254 -1.90071 -17.8708 -2.65161
4031 21 271 -5.1999 -9.66767 5.03569
4025 21 265 -6.3784 -8.15105 7.39926
3823 21 127 -7.23904 -2.36719 16.6066
4017 21 259 2.72667 -3.05981 3.19308
4032 21 272 1.84245 -8.2329 18.6992
4003 21 251 13.0656 -19.1588 10.85
4029 21 269 15.8594 -21.2383 9.06703
ITEM: TIMESTEP
1605000
ITEM: NUMBER OF ATOMS
9
ITEM: BOX BOUNDS pp pp pp
-1.8622752037151876e+01 1.6803732258226439e+01
-2.4208287765422057e+01 1.3980879523334650e+01
-9.3187226776730547e+00 2.0691381498736504e+01
ITEM: ATOMS id type mol x y z
4033 21 273 -12.5417 12.0914 3.96821
3986 21 238 -17.9147 11.3607 16.1343
4010 21 254 -1.90932 -17.7297 -2.66017
4025 21 265 -6.4259 -8.11745 7.40102
3823 21 127 -7.29401 -2.39758 16.6179
4017 21 259 2.75825 -3.08253 3.19052
4032 21 272 1.86635 -8.19839 18.7126
4037 21 275 0.985991 4.88715 16.4922
4003 21 251 13.187 -19.0034 10.8554
ITEM: TIMESTEP
1610000
ITEM: NUMBER OF ATOMS
9
ITEM: BOX BOUNDS pp pp pp
-1.8735370211287417e+01 1.6916350432361980e+01
-2.4521685226274503e+01 1.4294276984187096e+01
-9.0615568549018697e+00 2.0434215676045433e+01
ITEM: ATOMS id type mol x y z
4033 21 273 -12.6157 12.3738 3.99766
3986 21 238 -18.0228 11.6311 15.9553
4010 21 254 -1.91568 -17.9368 -2.51712
4025 21 265 -6.46097 -8.16675 7.37163
3823 21 127 -7.3346 -2.353 16.4305
4017 21 259 2.78156 -3.04919 3.23329
4032 21 272 1.88399 -8.24902 18.4894
4037 21 275 0.998043 5.05129 16.307
4003 21 251 13.2766 -19.2314 10.7668
ITEM: TIMESTEP
1615000
ITEM: NUMBER OF ATOMS
10
ITEM: BOX BOUNDS pp pp pp
-1.8560412452898198e+01 1.6741392673972761e+01
-2.4496886965028036e+01 1.4269478722940629e+01
-9.2802774360648748e+00 2.0652936257107363e+01
ITEM: ATOMS id type mol x y z
4033 21 273 -12.5008 12.3514 3.97261
3986 21 238 -17.8548 11.6097 16.1076
4010 21 254 -1.9058 -17.9204 -2.63879
4025 21 265 -6.40648 -8.16285 7.39662
3823 21 127 -7.27154 -2.35652 16.5898
4038 21 276 5.78412 -12.8523 4.5313
4017 21 259 2.74534 -3.05183 3.19691
4032 21 272 1.85658 -8.24501 18.6792
4037 21 275 0.97932 5.0383 16.4645
4003 21 251 13.1374 -19.2133 10.8421
ITEM: TIMESTEP
1620000
ITEM: NUMBER OF ATOMS
9
ITEM: BOX BOUNDS pp pp pp
-1.8460912126838359e+01 1.6641892347912922e+01
-2.4295997132771923e+01 1.4068588890684516e+01
-9.3052658102527310e+00 2.0677924631267764e+01
ITEM: ATOMS id type mol x y z
4033 21 273 -12.4355 12.1704 3.96975
3986 21 238 -17.7593 11.4363 16.125
4010 21 254 -1.90019 -17.7876 -2.65269
3823 21 127 -7.23568 -2.3851 16.6081
4038 21 276 5.74639 -12.7721 4.52937
4017 21 259 2.72473 -3.0732 3.19275
4032 21 272 1.84098 -8.21256 18.7009
4037 21 275 0.968673 4.93308 16.4825
4003 21 251 13.0582 -19.0672 10.8507
ITEM: TIMESTEP
1625000
ITEM: NUMBER OF ATOMS
9
ITEM: BOX BOUNDS pp pp pp
-1.8651334604237118e+01 1.6832314825311681e+01
-2.4508673492838081e+01 1.4281265250750675e+01
-9.1096459720669500e+00 2.0482304793139200e+01
ITEM: ATOMS id type mol x y z
4033 21 273 -12.5605 12.3621 3.99215
3986 21 238 -17.9421 11.6198 15.9887
4010 21 254 -1.91094 -17.9282 -2.54387
3823 21 127 -7.30431 -2.35485 16.4655
4038 21 276 5.8186 -12.857 4.54447
4017 21 259 2.76416 -3.05058 3.22529
4032 21 272 1.87083 -8.24692 18.5311
4037 21 275 0.98905 5.04447 16.3416
4003 21 251 13.2097 -19.2219 10.7833
ITEM: TIMESTEP
1630000
ITEM: NUMBER OF ATOMS
9
ITEM: BOX BOUNDS pp pp pp
-1.8711707482702604e+01 1.6892687703777167e+01
-2.4402055392544607e+01 1.4174647150457201e+01
-9.0884663623380320e+00 2.0461125183400746e+01
ITEM: ATOMS id type mol x y z
4033 21 273 -12.6002 12.266 3.99457
3986 21 238 -18.0001 11.5278 15.974
4010 21 254 -1.91434 -17.8577 -2.53209
3823 21 127 -7.32607 -2.37001 16.4501
4038 21 276 5.84149 -12.8144 4.5461
4017 21 259 2.77666 -3.06192 3.22882
4032 21 272 1.88029 -8.22969 18.5127
4037 21 275 0.99551 4.98863 16.3264
4003 21 251 13.2578 -19.1443 10.776
ITEM: TIMESTEP
1635000
ITEM: NUMBER OF ATOMS
9
ITEM: BOX BOUNDS pp pp pp
-1.8759258265571010e+01 1.6940238486645573e+01
-2.4551564163832424e+01 1.4324155921745017e+01
-9.0737586930141134e+00 2.0446417514064812e+01
ITEM: ATOMS id type mol x y z
4033 21 273 -12.6314 12.4007 3.99626
3986 21 238 -18.0457 11.6568 15.9638
4010 21 254 -1.91703 -17.9565 -2.52391
3823 21 127 -7.34321 -2.34875 16.4394
4038 21 276 5.85953 -12.8741 4.54724
4017 21 259 2.78651 -3.04601 3.23126
4032 21 272 1.88774 -8.25385 18.5
4037 21 275 1.0006 5.06694 16.3158
4003 21 251 13.2956 -19.2531 10.771
ITEM: TIMESTEP
1640000
ITEM: NUMBER OF ATOMS
9
ITEM: BOX BOUNDS pp pp pp
-1.8747645177700655e+01 1.6928625398775218e+01
-2.4473062862344616e+01 1.4245654620257209e+01
-9.0537311783140879e+00 2.0426389999354637e+01
ITEM: ATOMS id type mol x y z
4033 21 273 -12.6238 12.33 3.99855
3986 21 238 -18.0346 11.5891 15.9498
4010 21 254 -1.91637 -17.9046 -2.51277
3823 21 127 -7.33903 -2.35991 16.4248
4038 21 276 5.85512 -12.8428 4.54878
4017 21 259 2.78411 -3.05436 3.23459
4032 21 272 1.88592 -8.24116 18.4826
4037 21 275 0.999356 5.02582 16.3014
4003 21 251 13.2864 -19.196 10.7641
ITEM: TIMESTEP
1645000
ITEM: NUMBER OF ATOMS
10
ITEM: BOX BOUNDS pp pp pp
-1.8822211205374394e+01 1.7003191426448957e+01
-2.4430065917734765e+01 1.4202657675647359e+01
-9.0886564992133039e+00 2.0461315320222646e+01
ITEM: ATOMS id type mol x y z
4033 21 273 -12.6727 12.2912 3.99455
3986 21 238 -18.1061 11.552 15.9741
4010 21 254 -1.92058 -17.8762 -2.5322
4039 21 277 -8.18947 -16.508 4.64722
3823 21 127 -7.3659 -2.36603 16.4502
4038 21 276 5.8834 -12.8256 4.54609
4017 21 259 2.79955 -3.05894 3.22878
4032 21 272 1.8976 -8.23422 18.5129
4037 21 275 1.00734 5.0033 16.3265
4003 21 251 13.3457 -19.1647 10.7761
ITEM: TIMESTEP
1650000
ITEM: NUMBER OF ATOMS
10
ITEM: BOX BOUNDS pp pp pp
-1.8939210425756592e+01 1.7120190646831155e+01
-2.4390206079823827e+01 1.4162797837736420e+01
-9.1405168959281511e+00 2.0513175716899582e+01
ITEM: ATOMS id type mol x y z
4033 21 273 -12.7496 12.2553 3.98861
3986 21 238 -18.2185 11.5176 16.0102
4010 21 254 -1.92719 -17.8499 -2.56105
4039 21 277 -8.23702 -16.4845 4.64358
3823 21 127 -7.40807 -2.3717 16.488
4038 21 276 5.92777 -12.8097 4.54208
4017 21 259 2.82377 -3.06318 3.22016
4032 21 272 1.91594 -8.22778 18.5579
4037 21 275 1.01986 4.98243 16.3639
4003 21 251 13.4388 -19.1357 10.794
ITEM: TIMESTEP
1655000
ITEM: NUMBER OF ATOMS
11
ITEM: BOX BOUNDS pp pp pp
-1.8914084200042939e+01 1.7095064421117502e+01
-2.4362303196838088e+01 1.4134894954750681e+01
-9.0256224025214706e+00 2.0398281223519998e+01
ITEM: ATOMS id type mol x y z
4043 21 279 -10.2806 -0.513388 17.2591
4033 21 273 -12.7331 12.2302 4.00177
3986 21 238 -18.1943 11.4935 15.9302
4010 21 254 -1.92577 -17.8314 -2.49714
4039 21 277 -8.22681 -16.468 4.65166
3823 21 127 -7.39902 -2.37567 16.4043
4038 21 276 5.91824 -12.7986 4.55095
4017 21 259 2.81857 -3.06615 3.23927
4032 21 272 1.912 -8.22327 18.4582
4037 21 275 1.01717 4.96781 16.2811
4003 21 251 13.4188 -19.1154 10.7544
ITEM: TIMESTEP
1660000
ITEM: NUMBER OF ATOMS
11
ITEM: BOX BOUNDS pp pp pp
-1.8707242124669516e+01 1.6888222345744079e+01
-2.4229019770215636e+01 1.4001611528128230e+01
-9.2027148484258916e+00 2.0575373669337370e+01
ITEM: ATOMS id type mol x y z
4043 21 279 -10.1729 -0.545242 17.3984
4033 21 273 -12.5972 12.1101 3.98149
3986 21 238 -17.9958 11.3786 16.0536
4010 21 254 -1.91409 -17.7434 -2.59564
4039 21 277 -8.14275 -16.3894 4.6392
3823 21 127 -7.32446 -2.39463 16.5333
4038 21 276 5.8398 -12.7454 4.53728
4017 21 259 2.77574 -3.08032 3.20981
4032 21 272 1.87959 -8.20174 18.6119
4037 21 275 0.995033 4.898 16.4087
4003 21 251 13.2542 -19.0185 10.8154
ITEM: TIMESTEP
1665000
ITEM: NUMBER OF ATOMS
11
ITEM: BOX BOUNDS pp pp pp
-1.8607142778812523e+01 1.6788122999887086e+01
-2.4524747049326972e+01 1.4297338807239566e+01
-9.2138164863643830e+00 2.0586475307253739e+01
ITEM: ATOMS id type mol x y z
4043 21 279 -10.1208 -0.474565 17.4071
4033 21 273 -12.5315 12.3765 3.98022
3986 21 238 -17.8997 11.6337 16.0613
4010 21 254 -1.90844 -17.9388 -2.60182
4039 21 277 -8.10206 -16.5638 4.63842
3823 21 127 -7.28838 -2.35256 16.5414
4038 21 276 5.80184 -12.8634 4.53643
4017 21 259 2.75501 -3.04887 3.20797
4032 21 272 1.8639 -8.24951 18.6215
4037 21 275 0.984321 5.05289 16.4167
4003 21 251 13.1745 -19.2336 10.8192
ITEM: TIMESTEP
1670000
ITEM: NUMBER OF ATOMS
11
ITEM: BOX BOUNDS pp pp pp
-1.8804654975078378e+01 1.6985635196152941e+01
-2.4520471146118041e+01 1.4293062904030634e+01
-9.0642107383841548e+00 2.0436869559314850e+01
ITEM: ATOMS id type mol x y z
4043 21 279 -10.2236 -0.475587 17.2894
4033 21 273 -12.6612 12.3727 3.99735
3986 21 238 -18.0893 11.63 15.9571
4010 21 254 -1.91959 -17.936 -2.5186
4039 21 277 -8.18234 -16.5613 4.64894
3823 21 127 -7.35957 -2.35317 16.4324
4038 21 276 5.87674 -12.8617 4.54797
4017 21 259 2.79591 -3.04932 3.23285
4032 21 272 1.89485 -8.24882 18.4917
4037 21 275 1.00546 5.05065 16.3089
4003 21 251 13.3317 -19.2305 10.7677
ITEM: TIMESTEP
1675000
ITEM: NUMBER OF ATOMS
10
ITEM: BOX BOUNDS pp pp pp
-1.8769578892829010e+01 1.6950559113903573e+01
-2.4538269507819827e+01 1.4310861265732420e+01
-9.0548512009054036e+00 2.0427510021822112e+01
ITEM: ATOMS id type mol x y z
4033 21 273 -12.6382 12.3887 3.99842
3986 21 238 -18.0556 11.6454 15.9506
4010 21 254 -1.91761 -17.9477 -2.51339
4039 21 277 -8.16808 -16.5718 4.6496
3823 21 127 -7.34693 -2.35064 16.4256
4038 21 276 5.86344 -12.8688 4.54869
4017 21 259 2.78865 -3.04743 3.23441
4032 21 272 1.88936 -8.2517 18.4835
4037 21 275 1.0017 5.05997 16.3022
4003 21 251 13.3038 -19.2434 10.7645
ITEM: TIMESTEP
1680000
ITEM: NUMBER OF ATOMS
9
ITEM: BOX BOUNDS pp pp pp
-1.8772716105043159e+01 1.6953696326117722e+01
-2.4643884890614387e+01 1.4416476648526981e+01
-8.9768339562825581e+00 2.0349492777212159e+01
ITEM: ATOMS id type mol x y z
4033 21 273 -12.6402 12.4839 4.00736
3986 21 238 -18.0586 11.7365 15.8963
4039 21 277 -8.16936 -16.6341 4.65509
3823 21 127 -7.34806 -2.33561 16.3688
4038 21 276 5.86463 -12.911 4.55472
4017 21 259 2.7893 -3.03619 3.24738
4032 21 272 1.88985 -8.26876 18.4158
4037 21 275 1.00204 5.11529 16.246
4003 21 251 13.3063 -19.3202 10.7376
ITEM: TIMESTEP
1685000
ITEM: NUMBER OF ATOMS
9
ITEM: BOX BOUNDS pp pp pp
-1.8660253003426359e+01 1.6841233224500922e+01
-2.4435052161047263e+01 1.4207643918959857e+01
-9.1914948277027335e+00 2.0564153648529306e+01
ITEM: ATOMS id type mol x y z
4033 21 273 -12.5664 12.2957 3.98278
3986 21 238 -17.9507 11.5563 16.0457
4039 21 277 -8.12365 -16.5109 4.63999
3823 21 127 -7.30753 -2.36532 16.5252
4038 21 276 5.82198 -12.8276 4.53815
4017 21 259 2.76601 -3.05841 3.21168
4032 21 272 1.87222 -8.23502 18.6022
4037 21 275 0.990004 5.00591 16.4006
4003 21 251 13.2168 -19.1683 10.8115
ITEM: TIMESTEP
1690000
ITEM: NUMBER OF ATOMS
9
ITEM: BOX BOUNDS pp pp pp
-1.8440468190390565e+01 1.6621448411465128e+01
-2.4623610782616179e+01 1.4396202540528773e+01
-9.1362194180791043e+00 2.0508878238910167e+01
ITEM: ATOMS id type mol x y z
4033 21 273 -12.422 12.4656 3.98911
3986 21 238 -17.7397 11.719 16.0072
4039 21 277 -8.03433 -16.6222 4.64388
3823 21 127 -7.22831 -2.3385 16.4849
4038 21 276 5.73863 -12.9029 4.54241
4017 21 259 2.7205 -3.03835 3.22087
4032 21 272 1.83778 -8.26548 18.5542
4037 21 275 0.966485 5.10467 16.3608
4003 21 251 13.0419 -19.3055 10.7925
ITEM: TIMESTEP
1695000
ITEM: NUMBER OF ATOMS
10
ITEM: BOX BOUNDS pp pp pp
-1.8710382493787140e+01 1.6891362714861703e+01
-2.4500930823715112e+01 1.4273522581627706e+01
-9.0823319917851890e+00 2.0454990812619965e+01
ITEM: ATOMS id type mol x y z
4033 21 273 -12.5993 12.3551 3.99528
3986 21 238 -17.9988 11.6132 15.9697
4043 21 279 -17.6322 13.7889 18.9442
4039 21 277 -8.14402 -16.5498 4.64767
3823 21 127 -7.3256 -2.35595 16.4456
4038 21 276 5.84099 -12.8539 4.54657
4017 21 259 2.77639 -3.0514 3.22984
4032 21 272 1.88008 -8.24567 18.5074
4037 21 275 0.995369 5.04042 16.322
4003 21 251 13.2567 -19.2163 10.7739
ITEM: TIMESTEP
1700000
ITEM: NUMBER OF ATOMS
10
ITEM: BOX BOUNDS pp pp pp
-1.8663927651560996e+01 1.6844907872635559e+01
-2.4384556581154893e+01 1.4157148339067486e+01
-9.2498211610673557e+00 2.0622479981817030e+01
ITEM: ATOMS id type mol x y z
4033 21 273 -12.5688 12.2502 3.9761
3986 21 238 -17.9542 11.5127 16.0864
4043 21 279 -17.5886 13.6755 19.0945
4039 21 277 -8.12514 -16.4811 4.63589
3823 21 127 -7.30885 -2.3725 16.5677
4038 21 276 5.82337 -12.8075 4.53365
4017 21 259 2.76677 -3.06378 3.20198
4032 21 272 1.8728 -8.22687 18.6528
4037 21 275 0.990397 4.97947 16.4426
4003 21 251 13.2197 -19.1316 10.8316
ITEM: TIMESTEP
1705000
ITEM: NUMBER OF ATOMS
12
ITEM: BOX BOUNDS pp pp pp
-1.8675849062228920e+01 1.6856829283303483e+01
-2.4491994586994895e+01 1.4264586344907489e+01
-9.1180891528802626e+00 2.0490747973664973e+01
ITEM: ATOMS id type mol x y z
4033 21 273 -12.5766 12.347 3.99118
3986 21 238 -17.9656 11.6054 15.9946
4043 21 279 -17.5998 13.7802 18.9763
4039 21 277 -8.12999 -16.5445 4.64515
3823 21 127 -7.31315 -2.35722 16.4717
4038 21 276 5.82789 -12.8504 4.54381
4044 21 280 7.29919 -15.8194 17.8656
4017 21 259 2.76924 -3.05235 3.22389
4032 21 272 1.87467 -8.24422 18.5384
4037 21 275 0.991673 5.03574 16.3477
4003 21 251 13.2292 -19.2098 10.7862
4045 21 281 14.1703 -14.1306 -1.39596
ITEM: TIMESTEP
1710000
ITEM: NUMBER OF ATOMS
13
ITEM: BOX BOUNDS pp pp pp
-1.8602212682832612e+01 1.6783192903907175e+01
-2.4618846893314078e+01 1.4391438651226672e+01
-9.2032223685169612e+00 2.0575881189249767e+01
ITEM: ATOMS id type mol x y z
4033 21 273 -12.5282 12.4613 3.98143
3986 21 238 -17.8949 11.7149 16.0539
4043 21 279 -17.5306 13.9039 19.0527
4039 21 277 -8.10006 -16.6193 4.63917
4046 21 282 -4.41741 -10.8839 6.20139
3823 21 127 -7.28661 -2.33918 16.5337
4038 21 276 5.79997 -12.901 4.53724
4044 21 280 7.26516 -15.8895 17.9356
4017 21 259 2.75399 -3.03886 3.20973
4032 21 272 1.86313 -8.26471 18.6123
4037 21 275 0.983793 5.10218 16.409
4003 21 251 13.1706 -19.302 10.8156
4045 21 281 14.1078 -14.1897 -1.43669
