ITEM: TIMESTEP
15000
ITEM: NUMBER OF ATOMS
5
ITEM: BOX BOUNDS pp pp pp
-1.8396090839492359e+01 1.6577071060566922e+01
-2.4244892360969530e+01 1.4017484118882123e+01
-8.8801379455330292e+00 2.0252796772271033e+01
ITEM: ATOMS id type mol x y z
3641 21 11 -10.5764 10.5306 1.54802
3642 21 12 7.43495 -1.82243 -2.67906
3644 21 14 4.6487 -1.29391 1.88146
3643 21 13 10.3325 -21.1957 1.85778
3648 21 16 10.7976 -2.13736 16.6652
ITEM: TIMESTEP
20000
ITEM: NUMBER OF ATOMS
5
ITEM: BOX BOUNDS pp pp pp
-1.8242336840607358e+01 1.6423317061681921e+01
-2.4136839119323554e+01 1.3909430877236147e+01
-9.1254011813893676e+00 2.0498060008109327e+01
ITEM: ATOMS id type mol x y z
3641 21 11 -10.4914 10.4422 1.47834
3642 21 12 7.36158 -1.84102 -2.81992
3644 21 14 4.59983 -1.31548 1.8174
3643 21 13 10.2337 -21.1049 1.79331
3648 21 16 10.6947 -2.15417 16.8501
ITEM: TIMESTEP
25000
ITEM: NUMBER OF ATOMS
7
ITEM: BOX BOUNDS pp pp pp
-1.8309654933413519e+01 1.6490635154488082e+01
-2.4055399048990335e+01 1.3827990806902928e+01
-9.1697030943864952e+00 2.0542361921088677e+01
ITEM: ATOMS id type mol x y z
3641 21 11 -10.5286 10.3756 1.46575
3668 21 24 -10.5866 9.6705 6.42551
3644 21 14 4.62122 -1.33175 1.80582
3642 21 12 7.39371 -1.85503 -2.84536
3643 21 13 10.277 -21.0364 1.78167
3658 21 20 12.8886 -9.48069 -6.7097
3648 21 16 10.7398 -2.16684 16.8835
ITEM: TIMESTEP
30000
ITEM: NUMBER OF ATOMS
8
ITEM: BOX BOUNDS pp pp pp
-1.8287142543469653e+01 1.6468122764544216e+01
-2.4009868623519164e+01 1.3782460381431758e+01
-9.2271862770930895e+00 2.0599845103777064e+01
ITEM: ATOMS id type mol x y z
3641 21 11 -10.5161 10.3384 1.44942
3668 21 24 -10.5741 9.63496 6.42837
3644 21 14 4.61407 -1.34084 1.79081
3642 21 12 7.38296 -1.86286 -2.87837
3669 21 25 7.55461 -1.65937 11.9544
3643 21 13 10.2625 -20.9982 1.76656
3658 21 20 12.8708 -9.47019 -6.75767
3648 21 16 10.7247 -2.17393 16.9268
ITEM: TIMESTEP
35000
ITEM: NUMBER OF ATOMS
13
ITEM: BOX BOUNDS pp pp pp
-1.8375336279121797e+01 1.6556316500196360e+01
-2.4089453343686461e+01 1.3862045101599055e+01
-8.9878268834897916e+00 2.0360485710157501e+01
ITEM: ATOMS id type mol x y z
3677 21 31 -7.44679 -18.0983 -2.57915
3678 21 32 -9.83558 6.88993 1.79869
3641 21 11 -10.5649 10.4035 1.51743
3668 21 24 -10.6231 9.69708 6.41646
3671 21 27 -0.70221 -14.9684 -0.474463
3644 21 14 4.6421 -1.32495 1.85333
3642 21 12 7.42505 -1.84917 -2.74091
3669 21 25 7.59757 -1.64482 11.8538
3672 21 28 9.29439 13.8334 0.299303
3643 21 13 10.3192 -21.0651 1.82947
3658 21 20 12.9407 -9.48854 -6.55794
3648 21 16 10.7837 -2.16155 16.7464
3673 21 29 10.5593 -1.2817 6.30929
ITEM: TIMESTEP
40000
ITEM: NUMBER OF ATOMS
13
ITEM: BOX BOUNDS pp pp pp
-1.8565683758340533e+01 1.6746663979415096e+01
-2.3936075966498784e+01 1.3708667724411377e+01
-9.0119415639757001e+00 2.0384600390625558e+01
ITEM: ATOMS id type mol x y z
3677 21 31 -7.51803 -17.9933 -2.59273
3678 21 32 -9.93286 6.79291 1.79231
3641 21 11 -10.6701 10.2781 1.51057
3668 21 24 -10.729 9.57737 6.41766
3671 21 27 -0.69995 -14.8888 -0.484588
3644 21 14 4.7026 -1.35557 1.84703
3642 21 12 7.51588 -1.87556 -2.75476
3669 21 25 7.69028 -1.67286 11.864
3672 21 28 9.40559 13.6803 0.29045
3643 21 13 10.4416 -20.9361 1.82313
3658 21 20 13.0916 -9.45318 -6.57807
3648 21 16 10.9112 -2.18541 16.7646
3673 21 29 10.6843 -1.31267 6.31031
ITEM: TIMESTEP
45000
ITEM: NUMBER OF ATOMS
16
ITEM: BOX BOUNDS pp pp pp
-1.8306521212894893e+01 1.6487501433969456e+01
-2.4084846641502189e+01 1.3857438399414782e+01
-9.2202796075029667e+00 2.0592938434133540e+01
ITEM: ATOMS id type mol x y z
3684 21 36 -5.17717 -22.7142 -4.46583
3677 21 31 -7.42103 -18.0951 -2.71008
3678 21 32 -9.80041 6.88702 1.73711
3682 21 34 -8.91226 7.36648 13.136
3641 21 11 -10.5269 10.3997 1.45139
3668 21 24 -10.5849 9.69348 6.42802
3671 21 27 -0.703026 -14.966 -0.572056
3683 21 35 8.89919 -4.25581 6.11738
3644 21 14 4.62023 -1.32587 1.79261
3642 21 12 7.39221 -1.84997 -2.8744
3669 21 25 7.56405 -1.64567 11.9515
3672 21 28 9.25419 13.8288 0.213967
3643 21 13 10.275 -21.0612 1.76838
3658 21 20 12.8861 -9.48748 -6.75191
3648 21 16 10.7377 -2.16226 16.9216
3673 21 29 10.5141 -1.28263 6.31915
ITEM: TIMESTEP
50000
ITEM: NUMBER OF ATOMS
17
ITEM: BOX BOUNDS pp pp pp
-1.8258608020994735e+01 1.6439588242069298e+01
-2.4302969772745556e+01 1.4075561530658149e+01
-9.2225911371333815e+00 2.0595249963745829e+01
ITEM: ATOMS id type mol x y z
3684 21 36 -5.16542 -22.9165 -4.4674
3677 21 31 -7.4031 -18.2444 -2.71138
3678 21 32 -9.77592 7.025 1.7365
3682 21 34 -8.89022 7.50997 13.1372
3641 21 11 -10.5004 10.5781 1.45073
3668 21 24 -10.5582 9.86373 6.42814
3671 21 27 -0.703595 -15.0793 -0.573027
3685 21 37 -0.545357 9.75038 17.1502
3683 21 35 8.87218 -4.24595 6.11744
3644 21 14 4.605 -1.28231 1.79201
3642 21 12 7.36935 -1.81244 -2.87573
3669 21 25 7.54071 -1.60579 11.9525
3672 21 28 9.22619 14.0466 0.213119
3687 21 39 5.41078 10.3373 18.6257
3658 21 20 12.8481 -9.53777 -6.75383
3648 21 16 10.7056 -2.12833 16.9233
3673 21 29 10.4827 -1.23858 6.31925
ITEM: TIMESTEP
55000
ITEM: NUMBER OF ATOMS
17
ITEM: BOX BOUNDS pp pp pp
-1.8568795841900322e+01 1.6749776062974885e+01
-2.3962611535290108e+01 1.3735203293202702e+01
-9.1238931260221676e+00 2.0496551952617821e+01
ITEM: ATOMS id type mol x y z
3684 21 36 -5.24151 -22.6008 -4.40018
3677 21 31 -7.5192 -18.0115 -2.65579
3678 21 32 -9.93445 6.8097 1.76265
3682 21 34 -9.03291 7.28607 13.0878
3641 21 11 -10.6718 10.2998 1.47877
3668 21 24 -10.7307 9.59808 6.42323
3671 21 27 -0.699914 -14.9026 -0.531589
3691 21 41 2.50497 -11.071 6.52405
3683 21 35 9.04707 -4.26134 6.11459
3644 21 14 4.70359 -1.35027 1.81779
3642 21 12 7.51737 -1.87099 -2.81905
3669 21 25 7.6918 -1.66801 11.911
3672 21 28 9.40741 13.7068 0.249352
3687 21 39 5.52378 10.0633 18.54
3658 21 20 13.0941 -9.4593 -6.67148
3648 21 16 10.9132 -2.18128 16.8489
3673 21 29 10.6863 -1.30731 6.31506
ITEM: TIMESTEP
60000
ITEM: NUMBER OF ATOMS
18
ITEM: BOX BOUNDS pp pp pp
-1.8325996365474850e+01 1.6506976586549413e+01
-2.4112144087528275e+01 1.3884735845440868e+01
-9.1945822786358207e+00 2.0567241105212943e+01
ITEM: ATOMS id type mol x y z
3692 21 42 -14.6682 10.2062 17.6094
3684 21 36 -5.18195 -22.7395 -4.44833
3677 21 31 -7.42832 -18.1138 -2.69561
3678 21 32 -9.81036 6.90429 1.74392
3682 21 34 -8.92122 7.38444 13.1232
3641 21 11 -10.5376 10.422 1.45869
3668 21 24 -10.5957 9.71479 6.42674
3671 21 27 -0.702795 -14.9802 -0.561268
3691 21 41 2.45802 -11.1183 6.52805
3683 21 35 8.91017 -4.25458 6.11663
3644 21 14 4.62642 -1.32042 1.79933
3642 21 12 7.4015 -1.84527 -2.85965
3669 21 25 7.57354 -1.64068 11.9407
3672 21 28 9.26556 13.8561 0.223401
3687 21 39 5.43533 10.1837 18.6014
3658 21 20 12.9016 -9.49377 -6.73046
3648 21 16 10.7507 -2.15802 16.9022
3673 21 29 10.5269 -1.27712 6.31806
ITEM: TIMESTEP
65000
ITEM: NUMBER OF ATOMS
22
ITEM: BOX BOUNDS pp pp pp
-1.8371672952068046e+01 1.6552653173142609e+01
-2.4176137331375479e+01 1.3948729089288072e+01
-9.1563294190090936e+00 2.0528988245568783e+01
ITEM: ATOMS id type mol x y z
3692 21 42 -14.7043 10.2578 17.5788
3684 21 36 -5.19316 -22.7989 -4.42228
3677 21 31 -7.44541 -18.1576 -2.67406
3678 21 32 -9.8337 6.94477 1.75405
3682 21 34 -8.94223 7.42653 13.104
3641 21 11 -10.5629 10.4744 1.46955
3668 21 24 -10.6211 9.76474 6.42484
3671 21 27 -0.702253 -15.0134 -0.545207
3691 21 41 2.46685 -11.1385 6.52589
3699 21 47 0.0924794 2.42758 -8.9154
3696 21 44 -1.16859 7.04901 0.379887
3698 21 46 9.27994 -21.2492 0.681686
3683 21 35 8.93593 -4.25168 6.11553
3644 21 14 4.64094 -1.30764 1.80932
3642 21 12 7.4233 -1.83426 -2.83768
3669 21 25 7.59578 -1.62898 11.9246
3672 21 28 9.29225 13.92 0.237444
3687 21 39 5.45197 10.2352 18.5682
3697 21 45 15.3145 -19.1841 11.6823
3658 21 20 12.9378 -9.50853 -6.69854
3648 21 16 10.7813 -2.14806 16.8734
3673 21 29 10.5569 -1.26419 6.31644
ITEM: TIMESTEP
70000
ITEM: NUMBER OF ATOMS
22
ITEM: BOX BOUNDS pp pp pp
-1.8416601450498703e+01 1.6597581671573266e+01
-2.4136677052770892e+01 1.3909268810683486e+01
-9.1524606535672604e+00 2.0525119480108966e+01
ITEM: ATOMS id type mol x y z
3692 21 42 -14.7398 10.226 17.5757
3684 21 36 -5.20418 -22.7623 -4.41964
3677 21 31 -7.46223 -18.1306 -2.67188
3678 21 32 -9.85667 6.91981 1.75508
3682 21 34 -8.9629 7.40058 13.1021
3641 21 11 -10.5877 10.4421 1.47065
3668 21 24 -10.6461 9.73394 6.42465
3671 21 27 -0.70172 -14.993 -0.543583
3691 21 41 2.47554 -11.126 6.52567
3699 21 47 0.0950574 2.41197 -8.91159
3696 21 44 -1.16926 7.02383 0.38127
3698 21 46 9.30616 -21.2158 0.682991
3683 21 35 8.96126 -4.25347 6.11542
3644 21 14 4.65522 -1.31552 1.81033
3642 21 12 7.44474 -1.84105 -2.83546
3669 21 25 7.61767 -1.63619 11.923
3672 21 28 9.3185 13.8806 0.238864
3687 21 39 5.46834 10.2034 18.5648
3697 21 45 15.3562 -19.155 11.6807
3658 21 20 12.9734 -9.49943 -6.69532
3648 21 16 10.8114 -2.1542 16.8705
3673 21 29 10.5864 -1.27216 6.31627
ITEM: TIMESTEP
75000
ITEM: NUMBER OF ATOMS
26
ITEM: BOX BOUNDS pp pp pp
-1.8588042906380633e+01 1.6769023127455196e+01
-2.4150533574043941e+01 1.3923125331956534e+01
-9.0398159337003676e+00 2.0412474760225901e+01
ITEM: ATOMS id type mol x y z
3705 21 51 -14.7675 -20.9301 8.74343
3706 21 52 -14.8422 -1.28019 12.7995
3692 21 42 -14.8752 10.2372 17.4854
3684 21 36 -5.24623 -22.7751 -4.34292
3677 21 31 -7.5264 -18.1401 -2.60843
3678 21 32 -9.94428 6.92857 1.78492
3682 21 34 -9.04176 7.40969 13.0458
3641 21 11 -10.6825 10.4534 1.50266
3668 21 24 -10.7414 9.74475 6.41904
3671 21 27 -0.699685 -15.0001 -0.49629
3691 21 41 2.50869 -11.1304 6.5193
3700 21 48 0.855568 -3.94207 11.491
3699 21 47 0.104895 2.41745 -8.80078
3696 21 44 -1.1718 7.03267 0.421542
3698 21 46 9.4062 -21.2275 0.720972
3701 21 49 7.45281 -3.80476 0.212532
3683 21 35 9.05792 -4.25284 6.11216
3644 21 14 4.70971 -1.31275 1.83975
3642 21 12 7.52655 -1.83867 -2.77076
3669 21 25 7.70117 -1.63366 11.8757
3672 21 28 9.41866 13.8944 0.280217
3687 21 39 5.5308 10.2146 18.4671
3697 21 45 15.5155 -19.1652 11.6352
3658 21 20 13.1094 -9.50262 -6.60132
3648 21 16 10.9261 -2.15204 16.7856
3673 21 29 10.699 -1.26937 6.31149
ITEM: TIMESTEP
80000
ITEM: NUMBER OF ATOMS
26
ITEM: BOX BOUNDS pp pp pp
-1.8367133040854601e+01 1.6548113261929164e+01
-2.4161076456392699e+01 1.3933668214305293e+01
-9.2338301235513462e+00 2.0606488950056104e+01
ITEM: ATOMS id type mol x y z
3705 21 51 -14.5944 -20.9389 8.7837
3706 21 52 -14.6681 -1.27807 12.8932
3692 21 42 -14.7007 10.2457 17.6409
3684 21 36 -5.19204 -22.7849 -4.47506
3677 21 31 -7.44372 -18.1473 -2.71771
3678 21 32 -9.83138 6.93524 1.73352
3682 21 34 -8.94014 7.41663 13.1428
3641 21 11 -10.5604 10.462 1.44754
3668 21 24 -10.6186 9.75298 6.4287
3671 21 27 -0.702307 -15.0056 -0.577745
3691 21 41 2.46597 -11.1337 6.53027
3700 21 48 0.833512 -3.94143 11.5674
3699 21 47 0.0922189 2.42163 -8.99164
3696 21 44 -1.16853 7.0394 0.35218
3698 21 46 9.27729 -21.2364 0.655555
3701 21 49 7.34832 -3.80403 0.140416
3683 21 35 8.93337 -4.25236 6.11777
3644 21 14 4.63949 -1.31065 1.78907
3642 21 12 7.42113 -1.83685 -2.88219
3669 21 25 7.59357 -1.63173 11.9572
3672 21 28 9.2896 13.9049 0.208993
3687 21 39 5.45032 10.2231 18.6355
3697 21 45 15.3102 -19.173 11.7136
3658 21 20 12.9342 -9.50505 -6.76321
3648 21 16 10.7782 -2.1504 16.9318
3673 21 29 10.5539 -1.26724 6.31973
ITEM: TIMESTEP
85000
ITEM: NUMBER OF ATOMS
27
ITEM: BOX BOUNDS pp pp pp
-1.8453815502700728e+01 1.6634795723775291e+01
-2.4156447024855677e+01 1.3929038782768270e+01
-9.1250612788098664e+00 2.0497720105298672e+01
ITEM: ATOMS id type mol x y z
3705 21 51 -14.6623 -20.935 8.76112
3706 21 52 -14.7364 -1.279 12.8406
3692 21 42 -14.7692 10.242 17.5537
3684 21 36 -5.21331 -22.7806 -4.40098
3677 21 31 -7.47616 -18.1441 -2.65645
3678 21 32 -9.87568 6.93231 1.76234
3682 21 34 -8.98002 7.41358 13.0884
3641 21 11 -10.6083 10.4583 1.47844
3668 21 24 -10.6668 9.74937 6.42328
3671 21 27 -0.701278 -15.0032 -0.53208
3691 21 41 2.48273 -11.1323 6.52412
3700 21 48 0.842166 -3.94171 11.5246
3699 21 47 0.0971928 2.41979 -8.88464
3696 21 44 -1.16981 7.03645 0.391066
3698 21 46 9.32787 -21.2325 0.692229
3707 21 53 2.76923 -2.51238 4.32817
3701 21 49 7.38932 -3.80435 0.180846
3683 21 35 8.98224 -4.25257 6.11462
3644 21 14 4.66705 -1.31157 1.81749
3642 21 12 7.4625 -1.83765 -2.81972
3669 21 25 7.63579 -1.63258 11.9115
3672 21 28 9.34024 13.9003 0.248923
3687 21 39 5.4819 10.2194 18.5411
3697 21 45 15.3908 -19.1695 11.6697
3658 21 20 13.0029 -9.50399 -6.67245
3648 21 16 10.8363 -2.15112 16.8498
3673 21 29 10.6108 -1.26817 6.31511
ITEM: TIMESTEP
90000
ITEM: NUMBER OF ATOMS
26
ITEM: BOX BOUNDS pp pp pp
-1.8409709291054750e+01 1.6590689512129313e+01
-2.4103046751407252e+01 1.3875638509319845e+01
-9.1390766840846425e+00 2.0511735510555404e+01
ITEM: ATOMS id type mol x y z
3705 21 51 -14.6277 -20.8907 8.76403
3706 21 52 -14.7016 -1.28976 12.8474
3692 21 42 -14.7343 10.1989 17.565
3684 21 36 -5.20249 -22.7311 -4.41053
3677 21 31 -7.45965 -18.1076 -2.66434
3678 21 32 -9.85314 6.89853 1.75862
3682 21 34 -8.95973 7.37845 13.0954
3641 21 11 -10.5839 10.4146 1.47446
3668 21 24 -10.6423 9.70769 6.42398
3671 21 27 -0.701802 -14.9755 -0.537964
3691 21 41 2.47421 -11.1154 6.52491
3700 21 48 0.837763 -3.945 11.5301
3699 21 47 0.0946619 2.39867 -8.89843
3696 21 44 -1.16916 7.00237 0.386055
3698 21 46 9.30214 -21.1873 0.687504
3707 21 53 2.75998 -2.51968 4.32688
3701 21 49 7.36846 -3.80802 0.175636
3683 21 35 8.95737 -4.25499 6.11503
3644 21 14 4.65303 -1.32223 1.81382
3642 21 12 7.44145 -1.84683 -2.82777
3669 21 25 7.61431 -1.64234 11.9174
3672 21 28 9.31447 13.847 0.243778
3697 21 45 15.3498 -19.1301 11.6753
3658 21 20 12.968 -9.49168 -6.68415
3648 21 16 10.8067 -2.15943 16.8604
3673 21 29 10.5819 -1.27895 6.31571
ITEM: TIMESTEP
95000
ITEM: NUMBER OF ATOMS
27
ITEM: BOX BOUNDS pp pp pp
-1.8371993896768235e+01 1.6552974117842798e+01
-2.4495555402572133e+01 1.4268147160484727e+01
-9.0445181885544024e+00 2.0417177015009429e+01
ITEM: ATOMS id type mol x y z
3705 21 51 -14.5982 -21.2168 8.7444
3706 21 52 -14.6719 -1.21071 12.8017
3692 21 42 -14.7045 10.5154 17.4892
3684 21 36 -5.19323 -23.0952 -4.34613
3677 21 31 -7.44553 -18.3762 -2.61108
3709 21 55 -6.59298 -7.57198 10.0918
3678 21 32 -9.83387 7.14682 1.78368
3682 21 34 -8.94238 7.63666 13.0482
3641 21 11 -10.5631 10.7356 1.50132
3668 21 24 -10.6213 10.014 6.41928
3671 21 27 -0.702249 -15.1793 -0.498265
3691 21 41 2.46691 -11.2394 6.51956
3700 21 48 0.833997 -3.92084 11.4928
3699 21 47 0.0924978 2.55395 -8.8054
3696 21 44 -1.1686 7.25281 0.419861
3698 21 46 9.28013 -21.5195 0.719387
3707 21 53 2.75207 -2.46606 4.33555
3701 21 49 7.35062 -3.78103 0.210784
3683 21 35 8.93611 -4.23724 6.11229
3644 21 14 4.64104 -1.24386 1.83852
3708 21 54 9.30207 0.190368 -2.66166
3669 21 25 7.59594 -1.57059 11.8777
3672 21 28 9.29244 14.2389 0.278491
3697 21 45 15.3148 -19.4199 11.6371
3658 21 20 12.9381 -9.58217 -6.60525
3648 21 16 10.7815 -2.09837 16.7891
3673 21 29 10.5571 -1.19969 6.31169
ITEM: TIMESTEP
100000
ITEM: NUMBER OF ATOMS
27
ITEM: BOX BOUNDS pp pp pp
-1.8430635976900472e+01 1.6611616197975035e+01
-2.4296324775084287e+01 1.4068916532996880e+01
-9.1716414903258219e+00 2.0544300316760594e+01
ITEM: ATOMS id type mol x y z
3705 21 51 -14.6441 -21.0512 8.77079
3706 21 52 -14.7181 -1.25083 12.8631
3692 21 42 -14.7508 10.3547 17.591
3684 21 36 -5.20762 -22.9104 -4.4327
3677 21 31 -7.46748 -18.2398 -2.68269
3709 21 55 -6.61206 -7.54671 10.1299
3678 21 32 -9.86384 7.0208 1.75
3682 21 34 -8.96936 7.5056 13.1117
3641 21 11 -10.5955 10.5726 1.4652
3668 21 24 -10.6539 9.85854 6.4256
3671 21 27 -0.701553 -15.0759 -0.551636
3691 21 41 2.47825 -11.1765 6.52675
3700 21 48 0.839852 -3.9331 11.5429
3699 21 47 0.0958627 2.47513 -8.93046
3696 21 44 -1.16947 7.12569 0.374413
3698 21 46 9.31435 -21.3509 0.676524
3707 21 53 2.76437 -2.49328 4.3239
3701 21 49 7.37836 -3.79473 0.163531
3683 21 35 8.96917 -4.24625 6.11597
3644 21 14 4.65968 -1.28364 1.80532
3708 21 54 9.33637 0.135846 -2.7337
3669 21 25 7.6245 -1.60701 11.9311
3672 21 28 9.3267 14.04 0.231823
3697 21 45 15.3692 -19.2728 11.6885
3658 21 20 12.9846 -9.53624 -6.71132
3648 21 16 10.8207 -2.12936 16.8849
3673 21 29 10.5956 -1.23992 6.31709
ITEM: TIMESTEP
105000
ITEM: NUMBER OF ATOMS
6
ITEM: BOX BOUNDS pp pp pp
-1.8231473703639971e+01 1.6412453924714534e+01
-2.4067016031459687e+01 1.3839607789372280e+01
-9.2386223071299298e+00 2.0611281133545411e+01
ITEM: ATOMS id type mol x y z
3692 21 42 -14.5935 10.1698 17.6447
3678 21 32 -9.76205 6.87574 1.73225
3682 21 34 -8.87774 7.35475 13.1452
3713 21 57 1.79905 -4.32848 10.1981
3714 21 58 8.46329 -2.11666 0.512485
3697 21 45 15.1842 -19.1035 11.7155
ITEM: TIMESTEP
110000
ITEM: NUMBER OF ATOMS
8
ITEM: BOX BOUNDS pp pp pp
-1.8416127928106011e+01 1.6597108149180574e+01
-2.3929538218314185e+01 1.3702129976226779e+01
-9.0966630411095295e+00 2.0469321867510466e+01
ITEM: ATOMS id type mol x y z
3692 21 42 -14.7394 10.059 17.531
3678 21 32 -9.85642 6.78877 1.76986
3682 21 34 -8.96268 7.26431 13.0742
3713 21 57 1.82793 -4.33418 10.1552
3719 21 61 0.132358 -0.750951 20.0674
3718 21 60 -0.906515 11.353 15.1861
3714 21 58 8.56321 -2.1384 0.561696
3697 21 45 15.3558 -19.0021 11.6582
ITEM: TIMESTEP
115000
ITEM: NUMBER OF ATOMS
14
ITEM: BOX BOUNDS pp pp pp
-1.8419602525448287e+01 1.6600582746522850e+01
-2.4093145144259342e+01 1.3865736902171935e+01
-9.1313344643028422e+00 2.0503993290685138e+01
ITEM: ATOMS id type mol x y z
3692 21 42 -14.7421 10.1909 17.5588
3720 21 62 -9.19495 -19.3544 -4.44482
3733 21 69 -5.62288 -7.18281 1.65737
3678 21 32 -9.8582 6.89227 1.76068
3682 21 34 -8.96428 7.37194 13.0915
3732 21 68 -10.1789 9.87822 4.26326
3713 21 57 1.82847 -4.3274 10.1657
3719 21 61 0.132565 -0.713016 20.1012
3718 21 60 -0.906514 11.4961 15.2084
3721 21 63 -0.446041 11.191 11.4259
3725 21 65 5.1021 -0.951406 3.75488
3714 21 58 8.56509 -2.11253 0.549677
3697 21 45 15.359 -19.1228 11.6722
3734 21 70 10.0466 -1.89684 15.3646
ITEM: TIMESTEP
120000
ITEM: NUMBER OF ATOMS
14
ITEM: BOX BOUNDS pp pp pp
-1.8631425415373268e+01 1.6812405636447831e+01
-2.4015557093996534e+01 1.3788148851909128e+01
-9.1297057371690826e+00 2.0502364563533821e+01
ITEM: ATOMS id type mol x y z
3692 21 42 -14.9095 10.1283 17.5574
3720 21 62 -9.29518 -19.2962 -4.4437
3733 21 69 -5.6799 -7.17435 1.65781
3678 21 32 -9.96645 6.84319 1.76111
3682 21 34 -9.06172 7.3209 13.0907
3732 21 68 -10.2911 9.81693 4.26342
3713 21 57 1.86159 -4.33061 10.1652
3719 21 61 0.145171 -0.731006 20.0996
3718 21 60 -0.906478 11.4282 15.2074
3721 21 63 -0.440434 11.1243 11.4253
3725 21 65 5.17482 -0.968421 3.75509
3714 21 58 8.6797 -2.1248 0.550242
3697 21 45 15.5558 -19.0656 11.6715
3734 21 70 10.1791 -1.90999 15.3636
ITEM: TIMESTEP
125000
ITEM: NUMBER OF ATOMS
14
ITEM: BOX BOUNDS pp pp pp
-1.8462722046582883e+01 1.6643702267657446e+01
-2.4316703667775080e+01 1.4089295425687673e+01
-8.9755394091998255e+00 2.0348198235551152e+01
ITEM: ATOMS id type mol x y z
3692 21 42 -14.7762 10.3712 17.4339
3720 21 62 -9.21535 -19.5222 -4.3383
3733 21 69 -5.63448 -7.20718 1.69973
3678 21 32 -9.88024 7.03369 1.80195
3682 21 34 -8.98412 7.51901 13.0137
3732 21 68 -10.2017 10.0548 4.27822
3713 21 57 1.83521 -4.31814 10.1186
3719 21 61 0.135131 -0.66118 19.9496
3718 21 60 -0.906507 11.6918 15.1083
3721 21 63 -0.4449 11.383 11.3656
3725 21 65 5.1169 -0.902378 3.77518
3714 21 58 8.58842 -2.07718 0.603685
3697 21 45 15.3991 -19.2878 11.6093
3734 21 70 10.0736 -1.85895 15.2629
ITEM: TIMESTEP
130000
ITEM: NUMBER OF ATOMS
15
ITEM: BOX BOUNDS pp pp pp
-1.8503373088962213e+01 1.6684353310036776e+01
-2.4351479248975075e+01 1.4124071006887668e+01
-8.9840676719625030e+00 2.0356726498295888e+01
ITEM: ATOMS id type mol x y z
3692 21 42 -14.8083 10.3992 17.4408
3720 21 62 -9.23459 -19.5483 -4.34413
3733 21 69 -5.64543 -7.21098 1.69741
3678 21 32 -9.90101 7.05569 1.79969
3682 21 34 -9.00281 7.54188 13.0179
3732 21 68 -10.2233 10.0823 4.2774
3713 21 57 1.84157 -4.3167 10.1212
3719 21 61 0.13755 -0.653117 19.9579
3718 21 60 -0.9065 11.7222 15.1138
3721 21 63 -0.443824 11.4129 11.3689
3725 21 65 5.13086 -0.894752 3.77407
3714 21 58 8.61041 -2.07168 0.600728
3697 21 45 15.4368 -19.3135 11.6127
3741 21 73 13.4467 -1.44377 8.94022
3734 21 70 10.099 -1.85305 15.2685
ITEM: TIMESTEP
135000
ITEM: NUMBER OF ATOMS
17
ITEM: BOX BOUNDS pp pp pp
-1.8335781297229310e+01 1.6516761518303873e+01
-2.4323596717916729e+01 1.4096188475829322e+01
-9.0729281571811065e+00 2.0445586983493939e+01
ITEM: ATOMS id type mol x y z
3692 21 42 -14.6759 10.3767 17.512
3720 21 62 -9.15529 -19.5273 -4.40488
3733 21 69 -5.60031 -7.20794 1.67325
3678 21 32 -9.81536 7.03805 1.77615
3682 21 34 -8.92572 7.52354 13.0624
3732 21 68 -10.1345 10.0603 4.26887
3713 21 57 1.81536 -4.31785 10.148
3719 21 61 0.127577 -0.659582 20.0443
3718 21 60 -0.906529 11.6978 15.1709
3721 21 63 -0.44826 11.3889 11.4033
3746 21 76 5.25319 -10.9338 4.37276
3725 21 65 5.07332 -0.900867 3.76249
3714 21 58 8.51973 -2.07609 0.569924
3697 21 45 15.2811 -19.2929 11.6486
3745 21 75 10.7137 -1.52238 7.16451
3741 21 73 13.31 -1.44909 8.95993
3734 21 70 9.99414 -1.85778 15.3265
ITEM: TIMESTEP
140000
ITEM: NUMBER OF ATOMS
19
ITEM: BOX BOUNDS pp pp pp
-1.8518336168494486e+01 1.6699316389569049e+01
-2.4232241430612724e+01 1.4004833188525318e+01
-8.9854196909742683e+00 2.0358078517272194e+01
ITEM: ATOMS id type mol x y z
3692 21 42 -14.8201 10.3031 17.4418
3720 21 62 -9.24167 -19.4588 -4.34505
3733 21 69 -5.64945 -7.19798 1.69704
3678 21 32 -9.90866 6.98026 1.79933
3682 21 34 -9.0097 7.46344 13.0186
3757 21 81 -9.73034 10.8136 0.448668
3732 21 68 -10.2312 9.98809 4.27727
3713 21 57 1.84391 -4.32164 10.1216
3719 21 61 0.138441 -0.680764 19.9592
3718 21 60 -0.906498 11.6179 15.1146
3721 21 63 -0.443428 11.3105 11.3694
3746 21 76 5.31775 -10.9061 4.38055
3725 21 65 5.13599 -0.920901 3.7739
3714 21 58 8.61851 -2.09053 0.60026
3697 21 45 15.4507 -19.2255 11.6133
3745 21 75 10.8355 -1.53946 7.15574
3741 21 73 13.459 -1.46652 8.94052
3734 21 70 10.1084 -1.87326 15.2693
3747 21 77 10.8506 6.89326 -5.18317
ITEM: TIMESTEP
145000
ITEM: NUMBER OF ATOMS
18
ITEM: BOX BOUNDS pp pp pp
-1.8504944492609670e+01 1.6685924713684233e+01
-2.4237789290752353e+01 1.4010381048664946e+01
-9.0537629374329676e+00 2.0426421763710817e+01
ITEM: ATOMS id type mol x y z
3692 21 42 -14.8096 10.3075 17.4966
3720 21 62 -9.23533 -19.463 -4.39178
3733 21 69 -5.64585 -7.19858 1.67846
3678 21 32 -9.90181 6.98377 1.78123
3682 21 34 -9.00354 7.46709 13.0528
3757 21 81 -9.72363 10.8183 0.42427
3732 21 68 -10.2241 9.99247 4.27071
3713 21 57 1.84182 -4.32141 10.1422
3719 21 61 0.137644 -0.679478 20.0257
3718 21 60 -0.9065 11.6227 15.1586
3721 21 63 -0.443782 11.3152 11.3959
3746 21 76 5.31301 -10.9078 4.37446
3725 21 65 5.1314 -0.919685 3.76499
3714 21 58 8.61127 -2.08966 0.576568
3697 21 45 15.4383 -19.2296 11.6409
3745 21 75 10.8266 -1.53842 7.16259
3741 21 73 13.448 -1.46546 8.95567
3734 21 70 10.1 -1.87232 15.314
ITEM: TIMESTEP
150000
ITEM: NUMBER OF ATOMS
20
ITEM: BOX BOUNDS pp pp pp
-1.8429745946850137e+01 1.6610726167924700e+01
-2.4142880908854913e+01 1.3915472666767506e+01
-9.2150246901585788e+00 2.0587683516413456e+01
ITEM: ATOMS id type mol x y z
3759 21 83 -13.0929 6.53871 0.881247
3692 21 42 -14.7501 10.231 17.6258
3720 21 62 -9.19975 -19.3917 -4.50204
3733 21 69 -5.62561 -7.18823 1.63461
3678 21 32 -9.86338 6.92373 1.7385
3682 21 34 -8.96895 7.40466 13.1334
3757 21 81 -9.68596 10.7392 0.366702
3732 21 68 -10.1843 9.9175 4.25522
3758 21 82 -1.23905 -7.49891 -4.25158
3713 21 57 1.83006 -4.32534 10.191
3719 21 61 0.133169 -0.701484 20.1826
3718 21 60 -0.906513 11.5397 15.2622
3721 21 63 -0.445772 11.2337 11.4583
3746 21 76 5.28642 -10.8791 4.36011
3725 21 65 5.10558 -0.940499 3.74397
3714 21 58 8.57058 -2.10466 0.520665
3697 21 45 15.3684 -19.1595 11.706
3745 21 75 10.7764 -1.55616 7.17874
3741 21 73 13.3867 -1.48356 8.99144
3734 21 70 10.0529 -1.88841 15.4193
ITEM: TIMESTEP
155000
ITEM: NUMBER OF ATOMS
24
ITEM: BOX BOUNDS pp pp pp
-1.8499450376615215e+01 1.6680430597689778e+01
-2.4148824186567214e+01 1.3921415944479808e+01
-9.1330542071251593e+00 2.0505713033365122e+01
ITEM: ATOMS id type mol x y z
3765 21 87 -15.4463 -0.417569 12.1738
3759 21 83 -13.1413 6.54235 0.907679
3692 21 42 -14.8052 10.2358 17.5601
3720 21 62 -9.23273 -19.3962 -4.44599
3766 21 88 -7.67323 -17.6564 -1.86159
3733 21 69 -5.64437 -7.18888 1.6569
3678 21 32 -9.89901 6.92749 1.76022
3682 21 34 -9.00101 7.40857 13.0924
3757 21 81 -9.72088 10.7442 0.395964
3732 21 68 -10.2212 9.9222 4.26309
3763 21 85 1.30049 -12.1155 2.80953
3758 21 82 -1.24036 -7.49965 -4.19692
3713 21 57 1.84096 -4.32509 10.1662
3719 21 61 0.137317 -0.700106 20.1028
3718 21 60 -0.906501 11.5449 15.2095
3721 21 63 -0.443927 11.2388 11.4266
3746 21 76 5.31107 -10.8809 4.36741
3725 21 65 5.12951 -0.939195 3.75465
3714 21 58 8.60829 -2.10372 0.549081
3697 21 45 15.4332 -19.1639 11.6729
3745 21 75 10.8229 -1.55505 7.17053
3741 21 73 13.4435 -1.48243 8.97326
3734 21 70 10.0965 -1.8874 15.3658
3764 21 86 10.9824 5.87115 -8.5096
ITEM: TIMESTEP
160000
ITEM: NUMBER OF ATOMS
24
ITEM: BOX BOUNDS pp pp pp
-1.8570334874364921e+01 1.6751315095439484e+01
-2.4388497267122627e+01 1.4161089025035221e+01
-9.0550072353993478e+00 2.0427666061624265e+01
ITEM: ATOMS id type mol x y z
3765 21 87 -15.5049 -0.35844 12.1397
3759 21 83 -13.1906 6.68911 0.932846
3692 21 42 -14.8612 10.4291 17.4976
3720 21 62 -9.26627 -19.576 -4.39263
3766 21 88 -7.70048 -17.8143 -1.82184
3733 21 69 -5.66345 -7.21501 1.67812
3678 21 32 -9.93523 7.0791 1.7809
3682 21 34 -9.03362 7.56624 13.0534
3757 21 81 -9.75639 10.9438 0.423826
3732 21 68 -10.2587 10.1115 4.27059
3763 21 85 1.3094 -12.2036 2.82468
3758 21 82 -1.24169 -7.5297 -4.14487
3767 21 89 1.74104 2.73744 4.83164
3719 21 61 0.141536 -0.644534 20.0269
3718 21 60 -0.906489 11.7546 15.1594
3721 21 63 -0.442051 11.4447 11.3964
3746 21 76 5.33614 -10.9535 4.37435
3725 21 65 5.15385 -0.886634 3.76483
3714 21 58 8.64665 -2.06582 0.576137
3697 21 45 15.499 -19.3408 11.6414
3745 21 75 10.8702 -1.51025 7.16271
3741 21 73 13.5014 -1.43671 8.95595
3734 21 70 10.1409 -1.84678 15.3148
3764 21 86 11.0303 6.00946 -8.43484
ITEM: TIMESTEP
165000
ITEM: NUMBER OF ATOMS
24
ITEM: BOX BOUNDS pp pp pp
-1.8591956565772406e+01 1.6772936786846969e+01
-2.4227649561002650e+01 1.4000241318915243e+01
-9.0431697113388942e+00 2.0415828537546634e+01
ITEM: ATOMS id type mol x y z
3765 21 87 -15.5228 -0.398122 12.1345
3759 21 83 -13.2057 6.59062 0.936663
3692 21 42 -14.8783 10.2994 17.4881
3720 21 62 -9.2765 -19.4553 -4.38454
3766 21 88 -7.7088 -17.7083 -1.81581
3733 21 69 -5.66927 -7.19748 1.68134
3678 21 32 -9.94628 6.97735 1.78403
3682 21 34 -9.04356 7.46042 13.0475
3757 21 81 -9.76722 10.8098 0.428052
3732 21 68 -10.2702 9.98446 4.27173
3763 21 85 1.31211 -12.1445 2.82698
3768 21 90 -3.45594 -11.9394 7.27945
3758 21 82 -1.2421 -7.50953 -4.13697
3767 21 89 1.74429 2.67192 4.83232
3719 21 61 0.142822 -0.681829 20.0154
3718 21 60 -0.906485 11.6139 15.1518
3721 21 63 -0.441479 11.3065 11.3918
3725 21 65 5.16127 -0.921908 3.76637
3714 21 58 8.65835 -2.09126 0.58024
3697 21 45 15.5191 -19.2221 11.6366
3745 21 75 10.8846 -1.54032 7.16153
3741 21 73 13.519 -1.46739 8.95332
3734 21 70 10.1544 -1.87404 15.3071
3764 21 86 11.0449 5.91664 -8.4235
ITEM: TIMESTEP
170000
ITEM: NUMBER OF ATOMS
26
ITEM: BOX BOUNDS pp pp pp
-1.8674760424702683e+01 1.6855740645777246e+01
-2.4246123412977767e+01 1.4018715170890360e+01
-9.1189878020308832e+00 2.0491646628218426e+01
ITEM: ATOMS id type mol x y z
3771 21 93 -17.5494 -10.7529 8.55658
3765 21 87 -15.5912 -0.393565 12.1677
3759 21 83 -13.2633 6.60193 0.912215
3692 21 42 -14.9437 10.3143 17.5489
3720 21 62 -9.31569 -19.4692 -4.43638
3766 21 88 -7.74064 -17.7205 -1.85443
3733 21 69 -5.69156 -7.19949 1.66072
3678 21 32 -9.9886 6.98904 1.76395
3682 21 34 -9.08165 7.47257 13.0854
3757 21 81 -9.8087 10.8252 0.400986
3732 21 68 -10.314 9.99906 4.26444
3763 21 85 1.32252 -12.1513 2.81226
3768 21 90 -3.46786 -11.946 7.28765
3758 21 82 -1.24366 -7.51185 -4.18753
3767 21 89 1.75671 2.67944 4.82793
3719 21 61 0.14775 -0.677546 20.0892
3718 21 60 -0.906471 11.63 15.2005
3721 21 63 -0.439287 11.3224 11.4211
3725 21 65 5.1897 -0.917857 3.75649
3714 21 58 8.70315 -2.08834 0.553957
3770 21 92 3.28926 0.450652 6.35563
3769 21 91 16.0189 -18.9694 10.7866
3745 21 75 10.9398 -1.53686 7.16912
3741 21 73 13.5866 -1.46387 8.97014
3734 21 70 10.2062 -1.87091 15.3566
3764 21 86 11.1009 5.9273 -8.49613
ITEM: TIMESTEP
175000
ITEM: NUMBER OF ATOMS
26
ITEM: BOX BOUNDS pp pp pp
-1.8560366710958931e+01 1.6741346932033494e+01
-2.4285741896090457e+01 1.4058333654003050e+01
-9.0638888673547555e+00 2.0436547693526816e+01
ITEM: ATOMS id type mol x y z
3771 21 93 -17.4422 -10.7646 8.5459
3765 21 87 -15.4966 -0.38379 12.1435
3759 21 83 -13.1837 6.62619 0.929982
3692 21 42 -14.8533 10.3462 17.5047
3720 21 62 -9.26156 -19.4989 -4.3987
3766 21 88 -7.69665 -17.7466 -1.82636
3733 21 69 -5.66077 -7.20381 1.67571
3678 21 32 -9.93014 7.0141 1.77854
3682 21 34 -9.02903 7.49864 13.0578
3757 21 81 -9.75139 10.8582 0.420656
3775 21 95 -9.57504 9.32078 3.63654
3763 21 85 1.30814 -12.1658 2.82296
3768 21 90 -3.45139 -11.9602 7.28169
3758 21 82 -1.24151 -7.51682 -4.15079
3767 21 89 1.73954 2.69558 4.83112
3719 21 61 0.140942 -0.668359 20.0356
3718 21 60 -0.90649 11.6647 15.1651
3721 21 63 -0.442315 11.3564 11.3998
3725 21 65 5.15042 -0.909168 3.76367
3714 21 58 8.64125 -2.08207 0.573058
3770 21 92 3.26222 0.462174 6.35314
3769 21 91 15.9099 -18.9981 10.7677
3745 21 75 10.8635 -1.52946 7.1636
3741 21 73 13.4933 -1.45631 8.95792
3734 21 70 10.1347 -1.8642 15.3206
3764 21 86 11.0236 5.95016 -8.44335
ITEM: TIMESTEP
180000
ITEM: NUMBER OF ATOMS
26
ITEM: BOX BOUNDS pp pp pp
-1.8591435379629907e+01 1.6772415600704470e+01
-2.4103887765932377e+01 1.3876479523844971e+01
-9.2047048825350046e+00 2.0577363708683606e+01
ITEM: ATOMS id type mol x y z
3771 21 93 -17.4713 -10.711 8.5732
3765 21 87 -15.5223 -0.428655 12.2052
3759 21 83 -13.2053 6.51483 0.884575
3692 21 42 -14.8779 10.1996 17.6175
3720 21 62 -9.27626 -19.3625 -4.49498
3766 21 88 -7.7086 -17.6268 -1.89808
3733 21 69 -5.66913 -7.18398 1.63742
3678 21 32 -9.94602 6.89906 1.74124
3682 21 34 -9.04332 7.379 13.1282
3757 21 81 -9.76696 10.7067 0.370386
3775 21 95 -9.59029 9.18386 3.61697
3763 21 85 1.31205 -12.0989 2.79562
3768 21 90 -3.45586 -11.8952 7.29692
3758 21 82 -1.24209 -7.49402 -4.2447
3767 21 89 1.74421 2.62151 4.82296
3719 21 61 0.142791 -0.710525 20.1725
3718 21 60 -0.906485 11.5056 15.2556
3721 21 63 -0.441493 11.2002 11.4543
3725 21 65 5.16109 -0.94905 3.74531
3714 21 58 8.65806 -2.11083 0.524243
3770 21 92 3.26957 0.409285 6.3595
3769 21 91 15.9395 -18.8664 10.8162
3745 21 75 10.8842 -1.56345 7.17771
3741 21 73 13.5186 -1.491 8.98915
3734 21 70 10.1541 -1.89502 15.4126
3764 21 86 11.0446 5.84522 -8.57824
ITEM: TIMESTEP
185000
ITEM: NUMBER OF ATOMS
25
ITEM: BOX BOUNDS pp pp pp
-1.8430354390116808e+01 1.6611334611191371e+01
-2.4379859774658772e+01 1.4152451532571366e+01
-9.0987858485792970e+00 2.0471444674714292e+01
ITEM: ATOMS id type mol x y z
3771 21 93 -17.3204 -10.7923 8.55267
3765 21 87 -15.3892 -0.360571 12.1588
3759 21 83 -13.0933 6.68382 0.918729
3692 21 42 -14.7506 10.4221 17.5327
3720 21 62 -9.20004 -19.5695 -4.42256
3766 21 88 -7.64666 -17.8086 -1.84414
3733 21 69 -5.62577 -7.21407 1.66622
3678 21 32 -9.86369 7.07364 1.7693
3757 21 81 -9.68626 10.9366 0.408198
3775 21 95 -9.51121 9.39164 3.63169
3763 21 85 1.29181 -12.2005 2.81618
3758 21 82 -1.23906 -7.52861 -4.17406
3767 21 89 1.72003 2.73392 4.8291
3719 21 61 0.133205 -0.646537 20.0695
3718 21 60 -0.906513 11.7471 15.1875
3721 21 63 -0.445756 11.4373 11.4133
3725 21 65 5.10579 -0.888528 3.75912
3714 21 58 8.5709 -2.06719 0.56096
3770 21 92 3.2315 0.489547 6.35472
3769 21 91 15.786 -19.0663 10.7797
3745 21 75 10.7768 -1.51186 7.1671
3741 21 73 13.3872 -1.43836 8.96566
3734 21 70 10.0533 -1.84824 15.3434
3764 21 86 10.9357 6.00448 -8.47678
3785 21 99 12.2949 3.69567 19.4473
ITEM: TIMESTEP
190000
ITEM: NUMBER OF ATOMS
25
ITEM: BOX BOUNDS pp pp pp
-1.8691092530512364e+01 1.6872072751586927e+01
-2.3956643319912075e+01 1.3729235077824669e+01
-9.1442021959876847e+00 2.0516861022102862e+01
ITEM: ATOMS id type mol x y z
3771 21 93 -17.5646 -10.6676 8.56147
3765 21 87 -15.6047 -0.464982 12.1787
3759 21 83 -13.2746 6.42467 0.904085
3692 21 42 -14.9566 10.0808 17.5691
3720 21 62 -9.32341 -19.252 -4.45362
3766 21 88 -7.74692 -17.5297 -1.86727
3733 21 69 -5.69596 -7.16793 1.65387
3678 21 32 -9.99695 6.80592 1.75727
3757 21 81 -9.81688 10.584 0.391985
3775 21 95 -9.63922 9.073 3.62538
3763 21 85 1.32457 -12.0448 2.80737
3758 21 82 -1.24397 -7.47557 -4.20435
3767 21 89 1.75916 2.56153 4.82647
3719 21 61 0.148722 -0.744666 20.1137
3718 21 60 -0.906468 11.3767 15.2167
3721 21 63 -0.438855 11.0737 11.4309
3725 21 65 5.19531 -0.981342 3.7532
3714 21 58 8.71199 -2.13411 0.545217
3770 21 92 3.29312 0.366461 6.35677
3769 21 91 16.0344 -18.7598 10.7953
3745 21 75 10.9507 -1.59098 7.17165
3741 21 73 13.5999 -1.51909 8.97573
3734 21 70 10.2165 -1.91998 15.3731
3764 21 86 11.1119 5.76024 -8.52028
3785 21 99 12.4914 3.50215 19.4896
ITEM: TIMESTEP
195000
ITEM: NUMBER OF ATOMS
25
ITEM: BOX BOUNDS pp pp pp
-1.8473441166103566e+01 1.6654421387178129e+01
-2.4193649602040331e+01 1.3966241359952924e+01
-9.1530282897858086e+00 2.0525687115882864e+01
ITEM: ATOMS id type mol x y z
3771 21 93 -17.3608 -10.7375 8.56318
3765 21 87 -15.4248 -0.40651 12.1826
3759 21 83 -13.1233 6.5698 0.901238
3692 21 42 -14.7847 10.272 17.5761
3720 21 62 -9.22043 -19.4298 -4.45965
3766 21 88 -7.66323 -17.6859 -1.87176
3733 21 69 -5.63737 -7.19377 1.65147
3678 21 32 -9.88571 6.95585 1.75493
3757 21 81 -9.70785 10.7815 0.388834
3775 21 95 -9.53237 9.25144 3.62415
3763 21 85 1.29722 -12.132 2.80565
3758 21 82 -1.23987 -7.50527 -4.21024
3767 21 89 1.7265 2.65807 4.82596
3719 21 61 0.135769 -0.689712 20.1223
3718 21 60 -0.906505 11.5841 15.2223
3721 21 63 -0.444616 11.2773 11.4343
3789 21 101 6.91263 -23.4149 20.0486
3725 21 65 5.12058 -0.929365 3.75205
3714 21 58 8.59422 -2.09663 0.542157
3770 21 92 3.24168 0.435391 6.35717
3769 21 91 15.827 -18.9314 10.7984
3745 21 75 10.8055 -1.54667 7.17253
3741 21 73 13.4223 -1.47388 8.97769
3734 21 70 10.0803 -1.8798 15.3788
3764 21 86 10.9648 5.89702 -8.52874
ITEM: TIMESTEP
200000
ITEM: NUMBER OF ATOMS
25
ITEM: BOX BOUNDS pp pp pp
-1.8478835080353292e+01 1.6659815301427855e+01
-2.4273843519073633e+01 1.4046435276986227e+01
-9.1906840745567635e+00 2.0563342900634236e+01
ITEM: ATOMS id type mol x y z
3771 21 93 -17.3658 -10.7611 8.57048
3765 21 87 -15.4293 -0.386726 12.1991
3759 21 83 -13.127 6.61891 0.889096
3692 21 42 -14.7889 10.3366 17.6063
3720 21 62 -9.22298 -19.49 -4.4854
3766 21 88 -7.6653 -17.7387 -1.89094
3733 21 69 -5.63882 -7.20251 1.64123
3678 21 32 -9.88847 7.00657 1.74495
3757 21 81 -9.71055 10.8483 0.375391
3775 21 95 -9.53501 9.31182 3.61892
3763 21 85 1.2979 -12.1615 2.79834
3758 21 82 -1.23997 -7.51532 -4.23535
3767 21 89 1.72731 2.69073 4.82377
3719 21 61 0.13609 -0.671118 20.1589
3718 21 60 -0.906504 11.6543 15.2465
3721 21 63 -0.444473 11.3462 11.4489
3789 21 101 6.91503 -23.4918 20.0851
3725 21 65 5.12243 -0.911778 3.74714
3714 21 58 8.59714 -2.08395 0.529103
3770 21 92 3.24295 0.458714 6.35887
3769 21 91 15.8322 -18.9895 10.8113
3745 21 75 10.8091 -1.53168 7.1763
3741 21 73 13.4267 -1.45858 8.98604
3734 21 70 10.0836 -1.86621 15.4034
3764 21 86 10.9684 5.9433 -8.56481
ITEM: TIMESTEP
205000
ITEM: NUMBER OF ATOMS
25
ITEM: BOX BOUNDS pp pp pp
-1.8522157855450732e+01 1.6703138076525295e+01
-2.4382208707497938e+01 1.4154800465410531e+01
-8.9838023852472979e+00 2.0356461211316557e+01
ITEM: ATOMS id type mol x y z
3771 21 93 -17.4064 -10.793 8.53038
3765 21 87 -15.4651 -0.359991 12.1085
3759 21 83 -13.1571 6.68526 0.955807
3692 21 42 -14.8231 10.424 17.4405
3793 21 103 -11.5514 12.0236 6.39573
3720 21 62 -9.24348 -19.5713 -4.34395
3766 21 88 -7.68196 -17.8102 -1.78557
3733 21 69 -5.65048 -7.21433 1.69748
3678 21 32 -9.91061 7.07512 1.79976
3757 21 81 -9.73225 10.9386 0.449246
3775 21 95 -9.55628 9.3934 3.64767
3763 21 85 1.30334 -12.2013 2.8385
3758 21 82 -1.24079 -7.52891 -4.09738
3767 21 89 1.73381 2.73487 4.83577
3719 21 61 0.138668 -0.645992 19.9576
3718 21 60 -0.906497 11.7491 15.1136
3721 21 63 -0.443326 11.4393 11.3688
3725 21 65 5.13731 -0.888013 3.77411
3714 21 58 8.62058 -2.06682 0.60082
3770 21 92 3.25319 0.49023 6.34952
3769 21 91 15.8735 -19.068 10.7401
3745 21 75 10.838 -1.51142 7.15558
3741 21 73 13.4621 -1.43791 8.94016
3734 21 70 10.1108 -1.84785 15.2683
3764 21 86 10.9977 6.00583 -8.36663
ITEM: TIMESTEP
210000
ITEM: NUMBER OF ATOMS
25
ITEM: BOX BOUNDS pp pp pp
-1.8515534024945222e+01 1.6696514246019785e+01
-2.4288379489860347e+01 1.4060971247772940e+01
-9.0764690881647674e+00 2.0449127914211974e+01
ITEM: ATOMS id type mol x y z
3771 21 93 -17.4002 -10.7654 8.54834
3765 21 87 -15.4596 -0.38314 12.1491
3759 21 83 -13.1525 6.62781 0.925926
3692 21 42 -14.8179 10.3483 17.5148
3793 21 103 -11.5474 11.9401 6.40021
3720 21 62 -9.24034 -19.5009 -4.40731
3766 21 88 -7.67941 -17.7483 -1.83277
3733 21 69 -5.6487 -7.2041 1.67228
3678 21 32 -9.90723 7.01577 1.77521
3757 21 81 -9.72893 10.8604 0.416165
3775 21 95 -9.55303 9.32276 3.63479
3763 21 85 1.30251 -12.1668 2.82051
3758 21 82 -1.24066 -7.51715 -4.15918
3767 21 89 1.73282 2.69666 4.83039
3719 21 61 0.138274 -0.667748 20.0478
3718 21 60 -0.906498 11.667 15.1732
3721 21 63 -0.443502 11.3587 11.4047
3725 21 65 5.13503 -0.90859 3.76203
3714 21 58 8.61699 -2.08166 0.568697
3770 21 92 3.25163 0.462941 6.35371
3769 21 91 15.8672 -19 10.772
3745 21 75 10.8336 -1.52896 7.16486
3741 21 73 13.4567 -1.45581 8.96071
3734 21 70 10.1066 -1.86375 15.3288
3764 21 86 10.9933 5.95168 -8.4554
ITEM: TIMESTEP
215000
ITEM: NUMBER OF ATOMS
28
ITEM: BOX BOUNDS pp pp pp
-1.8472225248937470e+01 1.6653205470012033e+01
-2.4279116105097351e+01 1.4051707863009945e+01
-9.1658572127482216e+00 2.0538516038773473e+01
ITEM: ATOMS id type mol x y z
3771 21 93 -17.3596 -10.7626 8.56567
3765 21 87 -15.4238 -0.385425 12.1882
3759 21 83 -13.1224 6.62213 0.897102
3692 21 42 -14.7837 10.3409 17.5864
3793 21 103 -11.5212 11.9319 6.40453
3720 21 62 -9.21985 -19.494 -4.46842
3766 21 88 -7.66276 -17.7422 -1.8783
3733 21 69 -5.63704 -7.20309 1.64798
3678 21 32 -9.88509 7.00991 1.75153
3757 21 81 -9.70724 10.8527 0.384254
3775 21 95 -9.53177 9.31579 3.62237
3763 21 85 1.29707 -12.1634 2.80316
3758 21 82 -1.23985 -7.51599 -4.21879
3767 21 89 1.72632 2.69288 4.82521
3719 21 61 0.135697 -0.669896 20.1348
3718 21 60 -0.906505 11.6589 15.2306
3799 21 107 1.40071 10.3638 18.6012
3798 21 106 -1.69034 9.53355 17.9406
3721 21 63 -0.444648 11.3507 11.4393
3797 21 105 8.40275 -13.5124 18.0199
3725 21 65 5.12016 -0.910621 3.75038
3714 21 58 8.59356 -2.08312 0.53771
3770 21 92 3.24139 0.460247 6.35775
3769 21 91 15.8259 -18.9933 10.8028
3745 21 75 10.8047 -1.53069 7.17382
3741 21 73 13.4213 -1.45758 8.98054
3734 21 70 10.0795 -1.86532 15.3872
3764 21 86 10.964 5.94634 -8.54103
ITEM: TIMESTEP
220000
ITEM: NUMBER OF ATOMS
32
ITEM: BOX BOUNDS pp pp pp
-1.8557545449746769e+01 1.6738525670821332e+01
-2.4130233583688934e+01 1.3902825341601527e+01
-9.2130464411755497e+00 2.0585705267180717e+01
ITEM: ATOMS id type mol x y z
3771 21 93 -17.4396 -10.7188 8.57482
3765 21 87 -15.4943 -0.422156 12.2088
3759 21 83 -13.1817 6.53097 0.881885
3692 21 42 -14.8511 10.2208 17.6242
3801 21 109 -16.823 12.4838 17.8908
3793 21 103 -11.5728 11.7995 6.40681
3720 21 62 -9.26022 -19.3822 -4.50069
3800 21 108 -7.51061 -14.9419 1.67043
3766 21 88 -7.69557 -17.6441 -1.90233
3733 21 69 -5.66001 -7.18686 1.63515
3803 21 111 -10.654 -6.75725 -3.02919
3678 21 32 -9.9287 6.91573 1.73903
3757 21 81 -9.74998 10.7287 0.367408
3775 21 95 -9.57366 9.20369 3.61581
3763 21 85 1.30779 -12.1086 2.794
3758 21 82 -1.24145 -7.49732 -4.25026
3767 21 89 1.73912 2.63224 4.82248
3802 21 110 1.0083 2.68454 8.21906
3719 21 61 0.140774 -0.704416 20.1807
3718 21 60 -0.906491 11.5286 15.2609
3799 21 107 1.41193 10.2435 18.6423
3798 21 106 -1.69414 9.41976 17.9796
3721 21 63 -0.44239 11.2228 11.4576
3797 21 105 8.44799 -13.4471 18.0591
3725 21 65 5.14946 -0.943272 3.74423
3714 21 58 8.63973 -2.10666 0.521351
3770 21 92 3.26156 0.416947 6.35988
3769 21 91 15.9072 -18.8855 10.8191
3745 21 75 10.8616 -1.55853 7.17854
3741 21 73 13.4909 -1.48598 8.991
3734 21 70 10.1329 -1.89055 15.418
3764 21 86 11.0217 5.86042 -8.58623
ITEM: TIMESTEP
225000
ITEM: NUMBER OF ATOMS
31
ITEM: BOX BOUNDS pp pp pp
-1.8483224878140689e+01 1.6664205099215252e+01
-2.4376732946595087e+01 1.4149324704507681e+01
-9.1442717246844154e+00 2.0516930550675546e+01
ITEM: ATOMS id type mol x y z
3771 21 93 -17.3699 -10.7914 8.56149
3765 21 87 -15.4329 -0.361342 12.1787
3759 21 83 -13.1301 6.68191 0.904062
3692 21 42 -14.7924 10.4196 17.5691
3801 21 109 -16.7559 12.7119 17.8345
3793 21 103 -11.5279 12.0187 6.40349
3720 21 62 -9.22506 -19.5672 -4.45366
3800 21 108 -7.48281 -15.0693 1.68896
3766 21 88 -7.66699 -17.8065 -1.8673
3803 21 111 -10.6129 -6.77856 -2.98896
3678 21 32 -9.89071 7.07166 1.75725
3757 21 81 -9.71275 10.934 0.39196
3775 21 95 -9.53717 9.38928 3.62537
3763 21 85 1.29845 -12.1993 2.80735
3758 21 82 -1.24006 -7.52822 -4.2044
3767 21 89 1.72797 2.73264 4.82646
3802 21 110 1.00022 2.78563 8.20737
3719 21 61 0.136351 -0.647262 20.1138
3718 21 60 -0.906504 11.7443 15.2167
3799 21 107 1.40215 10.4426 18.5825
3798 21 106 -1.69083 9.60815 17.9228
3721 21 63 -0.444357 11.4346 11.4309
3797 21 105 8.40859 -13.5552 18.002
3725 21 65 5.12394 -0.889214 3.75319
3714 21 58 8.59951 -2.06768 0.545192
3770 21 92 3.24399 0.488638 6.35677
3769 21 91 15.8364 -19.064 10.7954
3745 21 75 10.8121 -1.51244 7.17165
3741 21 73 13.4303 -1.43895 8.97575
3734 21 70 10.0864 -1.84877 15.3731
3764 21 86 10.9714 6.00267 -8.52035
ITEM: TIMESTEP
230000
ITEM: NUMBER OF ATOMS
30
ITEM: BOX BOUNDS pp pp pp
-1.8513221163429609e+01 1.6694201384504172e+01
-2.4231021705825114e+01 1.4003613463737707e+01
-9.2812832430260954e+00 2.0653942068992208e+01
ITEM: ATOMS id type mol x y z
3771 21 93 -17.398 -10.7485 8.58805
3765 21 87 -15.4577 -0.39729 12.2387
3759 21 83 -13.1509 6.59268 0.859881
3692 21 42 -14.8161 10.3021 17.6789
3801 21 109 -16.783 12.577 17.9467
3793 21 103 -11.546 11.8891 6.41011
3720 21 62 -9.23925 -19.4579 -4.54734
3800 21 108 -7.49403 -14.994 1.65204
3766 21 88 -7.67852 -17.7105 -1.93709
3803 21 111 -10.6295 -6.76596 -3.0691
3678 21 32 -9.90604 6.97949 1.72095
3757 21 81 -9.72778 10.8126 0.343048
3775 21 95 -9.5519 9.27958 3.60633
3763 21 85 1.30222 -12.1457 2.78075
3758 21 82 -1.24062 -7.50996 -4.29577
3767 21 89 1.73247 2.67329 4.81852
3802 21 110 1.00348 2.72587 8.23066
3719 21 61 0.138137 -0.681047 20.247
3718 21 60 -0.906498 11.6168 15.3048
3799 21 107 1.4061 10.3249 18.7016
3798 21 106 -1.69217 9.49679 18.0359
3721 21 63 -0.443563 11.3094 11.484
3797 21 105 8.42449 -13.4913 18.1158
3725 21 65 5.13424 -0.921169 3.73533
3714 21 58 8.61574 -2.09073 0.497696
3770 21 92 3.25108 0.44626 6.36297
3769 21 91 15.8649 -18.9585 10.8426
3745 21 75 10.8321 -1.53969 7.18538
3741 21 73 13.4548 -1.46675 9.00614
3764 21 86 10.9917 5.91858 -8.6516
ITEM: TIMESTEP
235000
ITEM: NUMBER OF ATOMS
33
ITEM: BOX BOUNDS pp pp pp
-1.8426933284507033e+01 1.6607913505581596e+01
-2.4089897667181781e+01 1.3862489425094374e+01
-9.3562659405379485e+00 2.0728924766482354e+01
ITEM: ATOMS id type mol x y z
3771 21 93 -17.3172 -10.7069 8.60258
3765 21 87 -15.3864 -0.432107 12.2715
3759 21 83 -13.0909 6.50627 0.835703
3692 21 42 -14.7479 10.1883 17.739
3801 21 109 -16.7052 12.4464 18.0082
3793 21 103 -11.4939 11.7636 6.41374
3720 21 62 -9.19842 -19.352 -4.59861
3800 21 108 -7.46175 -14.9211 1.63182
3766 21 88 -7.64534 -17.6175 -1.97528
3803 21 111 -10.5819 -6.75377 -3.11296
3678 21 32 -9.86195 6.89021 1.70108
3805 21 113 -8.96347 7.58653 12.5479
3757 21 81 -9.68455 10.6951 0.31628
3775 21 95 -9.50953 9.17333 3.59591
3763 21 85 1.29138 -12.0938 2.7662
3758 21 82 -1.239 -7.49227 -4.34578
3767 21 89 1.71952 2.61581 4.81417
3802 21 110 0.994102 2.668 8.24341
3719 21 61 0.133001 -0.713769 20.32
3718 21 60 -0.906513 11.4933 15.353
3799 21 107 1.39475 10.2109 18.7668
3798 21 106 -1.68833 9.38894 18.0977
3721 21 63 -0.445847 11.1882 11.5131
3797 21 105 8.37874 -13.4295 18.1781
3806 21 114 5.82367 -2.90782 1.52688
3725 21 65 5.10461 -0.952118 3.72556
3714 21 58 8.56905 -2.11304 0.471703
3770 21 92 3.23069 0.405216 6.36636
3769 21 91 15.7827 -18.8563 10.8684
3745 21 75 10.7745 -1.56607 7.19289
3741 21 73 13.3844 -1.49367 9.02277
3764 21 86 10.9334 5.83714 -8.72343
3804 21 112 16.5887 6.37424 16.7891
ITEM: TIMESTEP
240000
ITEM: NUMBER OF ATOMS
33
ITEM: BOX BOUNDS pp pp pp
-1.8444160936478500e+01 1.6625141157553063e+01
-2.4273405372990290e+01 1.4045997130902883e+01
-9.2615359346187631e+00 2.0634194760550645e+01
ITEM: ATOMS id type mol x y z
3771 21 93 -17.3334 -10.761 8.58422
3765 21 87 -15.4006 -0.386834 12.2301
3759 21 83 -13.1029 6.61864 0.866249
3692 21 42 -14.7615 10.3363 17.6631
3801 21 109 -16.7207 12.6163 17.9306
3793 21 103 -11.5043 11.9268 6.40916
3720 21 62 -9.20657 -19.4897 -4.53384
3800 21 108 -7.4682 -15.0159 1.65736
3766 21 88 -7.65197 -17.7385 -1.92703
3803 21 111 -10.5914 -6.76963 -3.05755
3678 21 32 -9.87075 7.0063 1.72618
3805 21 113 -8.97139 7.70935 12.5047
3757 21 81 -9.69318 10.8479 0.350098
3775 21 95 -9.51799 9.31149 3.60907
3763 21 85 1.29354 -12.1613 2.78459
3758 21 82 -1.23932 -7.51527 -4.2826
3767 21 89 1.7221 2.69056 4.81966
3802 21 110 0.995974 2.74326 8.2273
3719 21 61 0.134027 -0.67122 20.2278
3718 21 60 -0.90651 11.6539 15.2921
3799 21 107 1.39701 10.3591 18.6844
3798 21 106 -1.6891 9.52918 18.0196
3721 21 63 -0.445391 11.3458 11.4764
3797 21 105 8.38787 -13.5099 18.0994
3806 21 114 5.83029 -2.88649 1.55308
3725 21 65 5.11053 -0.911874 3.73791
3714 21 58 8.57838 -2.08402 0.504542
3770 21 92 3.23476 0.458586 6.36207
3769 21 91 15.7991 -18.9892 10.8358
3745 21 75 10.786 -1.53176 7.1834
3741 21 73 13.3984 -1.45866 9.00176
3764 21 86 10.945 5.94304 -8.63268
3804 21 112 16.606 6.48533 16.7192
ITEM: TIMESTEP
245000
ITEM: NUMBER OF ATOMS
33
ITEM: BOX BOUNDS pp pp pp
-1.8775628858191290e+01 1.6956609079265853e+01
-2.4158537175532278e+01 1.3931128933444871e+01
-9.0636412390189562e+00 2.0436300064943943e+01
ITEM: ATOMS id type mol x y z
3771 21 93 -17.6438 -10.7271 8.54585
3765 21 87 -15.6745 -0.415173 12.1434
3759 21 83 -13.3334 6.5483 0.930062
3692 21 42 -15.0234 10.2436 17.5045
3801 21 109 -17.0196 12.51 17.7685
3793 21 103 -11.7046 11.8247 6.39959
3720 21 62 -9.36342 -19.4035 -4.39854
3800 21 108 -7.59218 -14.9565 1.7107
3766 21 88 -7.77942 -17.6628 -1.82624
3803 21 111 -10.7744 -6.7597 -2.94179
3678 21 32 -10.0401 6.93363 1.77861
3805 21 113 -9.12379 7.63247 12.4144
3757 21 81 -9.85922 10.7522 0.420744
3775 21 95 -9.68072 9.225 3.63657
3763 21 85 1.33519 -12.1191 2.823
3758 21 82 -1.24556 -7.50087 -4.15062
3810 21 116 2.1435 -4.73029 11.0745
3767 21 89 1.77185 2.64377 4.83114
3802 21 110 1.03199 2.69615 8.19366
3719 21 61 0.153753 -0.697854 20.0353
3718 21 60 -0.906454 11.5534 15.1649
3799 21 107 1.44062 10.2664 18.5124
3798 21 106 -1.70383 9.44139 17.8563
3721 21 63 -0.436617 11.2471 11.3997
3797 21 105 8.56363 -13.4595 17.9351
3806 21 114 5.9577 -2.89984 1.6078
3725 21 65 5.22433 -0.937065 3.7637
3714 21 58 8.75773 -2.10219 0.573144
3769 21 91 16.115 -18.906 10.7676
3745 21 75 11.0071 -1.55324 7.16358
3741 21 73 13.6689 -1.48058 8.95787
3764 21 86 11.1691 5.87675 -8.44311
3804 21 112 16.9371 6.41579 16.5732
ITEM: TIMESTEP
250000
ITEM: NUMBER OF ATOMS
34
ITEM: BOX BOUNDS pp pp pp
-1.8460267194652818e+01 1.6641247415727381e+01
-2.4182097837239240e+01 1.3954689595151834e+01
-9.3420469755132984e+00 2.0714705801404605e+01
ITEM: ATOMS id type mol x y z
3771 21 93 -17.3484 -10.734 8.59983
3765 21 87 -15.4139 -0.40936 12.2653
3759 21 83 -13.1141 6.56273 0.840288
3692 21 42 -14.7743 10.2626 17.7276
3801 21 109 -16.7352 12.5318 17.9965
3793 21 103 -11.514 11.8456 6.41305
3720 21 62 -9.21419 -19.4212 -4.58889
3800 21 108 -7.47422 -14.9687 1.63566
3766 21 88 -7.65816 -17.6783 -1.96804
3803 21 111 -10.6003 -6.76174 -3.10465
3678 21 32 -9.87898 6.94854 1.70485
3805 21 113 -8.9788 7.64824 12.5414
3757 21 81 -9.70125 10.7719 0.321356
3775 21 95 -9.5259 9.24274 3.59788
3763 21 85 1.29557 -12.1277 2.76896
3758 21 82 -1.23962 -7.50382 -4.3363
3810 21 116 2.08961 -4.72981 11.1762
3767 21 89 1.72452 2.65336 4.815
3802 21 110 0.997724 2.70581 8.24099
3719 21 61 0.134985 -0.692391 20.3062
3718 21 60 -0.906508 11.574 15.3438
3799 21 107 1.39913 10.2854 18.7545
3798 21 106 -1.68981 9.4594 18.086
3721 21 63 -0.444965 11.2674 11.5075
3797 21 105 8.39641 -13.4699 18.1663
3806 21 114 5.83648 -2.89711 1.53081
3725 21 65 5.11606 -0.931898 3.72741
3714 21 58 8.58709 -2.09846 0.476632
3769 21 91 15.8145 -18.9231 10.8635
3814 21 118 11.849 -7.7514 -7.61562
3745 21 75 10.7968 -1.54883 7.19146
3741 21 73 13.4116 -1.47608 9.01962
3764 21 86 10.9559 5.89035 -8.70981
3804 21 112 16.622 6.43005 16.7786
ITEM: TIMESTEP
255000
ITEM: NUMBER OF ATOMS
34
ITEM: BOX BOUNDS pp pp pp
-1.8485333204427935e+01 1.6666313425502498e+01
-2.4363008084470152e+01 1.4135599842382746e+01
-9.1357825636253054e+00 2.0508441389510846e+01
ITEM: ATOMS id type mol x y z
3771 21 93 -17.3719 -10.7874 8.55984
3765 21 87 -15.4346 -0.364728 12.175
3759 21 83 -13.1315 6.67351 0.9068
3692 21 42 -14.7941 10.4085 17.5623
3801 21 109 -16.7578 12.6992 17.8276
3793 21 103 -11.5292 12.0065 6.40308
3720 21 62 -9.22605 -19.5569 -4.44786
3800 21 108 -7.4836 -15.0622 1.69125
3766 21 88 -7.6678 -17.7975 -1.86298
3803 21 111 -10.6141 -6.77737 -2.98399
3678 21 32 -9.89179 7.06298 1.7595
3805 21 113 -8.99032 7.76932 12.4474
3757 21 81 -9.71381 10.9226 0.39499
3775 21 95 -9.5382 9.37895 3.62655
3763 21 85 1.29872 -12.1943 2.809
3758 21 82 -1.2401 -7.5265 -4.19874
3810 21 116 2.09389 -4.72617 11.1009
3767 21 89 1.72828 2.72705 4.82695
3802 21 110 1.00045 2.78 8.20593
3719 21 61 0.136477 -0.650444 20.1055
3718 21 60 -0.906503 11.7323 15.2113
3799 21 107 1.40243 10.4315 18.5751
3798 21 106 -1.69093 9.59766 17.9158
3721 21 63 -0.444301 11.4228 11.4277
3797 21 105 8.4097 -13.5491 17.995
3806 21 114 5.84612 -2.87608 1.58785
3725 21 65 5.12466 -0.892223 3.7543
3714 21 58 8.60065 -2.06985 0.548135
3769 21 91 15.8384 -19.0541 10.7924
3814 21 118 11.8672 -7.77643 -7.43305
3745 21 75 10.8135 -1.51501 7.1708
3741 21 73 13.432 -1.44157 8.97387
3764 21 86 10.9728 5.99475 -8.51222
3804 21 112 16.6471 6.53957 16.6264
ITEM: TIMESTEP
260000
ITEM: NUMBER OF ATOMS
34
ITEM: BOX BOUNDS pp pp pp
-1.8447600386108547e+01 1.6628580607183110e+01
-2.4410059019141443e+01 1.4182650777054036e+01
-9.1496415115523284e+00 2.0522300337419548e+01
ITEM: ATOMS id type mol x y z
3771 21 93 -17.3366 -10.8012 8.56253
3765 21 87 -15.4035 -0.35312 12.1811
3759 21 83 -13.1053 6.70232 0.902331
3692 21 42 -14.7643 10.4465 17.5734
3801 21 109 -16.7238 12.7427 17.8389
3793 21 103 -11.5064 12.0484 6.40375
3720 21 62 -9.2082 -19.5922 -4.45734
3800 21 108 -7.46948 -15.0865 1.68752
3766 21 88 -7.65329 -17.8285 -1.87004
3803 21 111 -10.5933 -6.78144 -2.9921
3678 21 32 -9.87251 7.09274 1.75583
3805 21 113 -8.97297 7.80081 12.4537
3757 21 81 -9.6949 10.9618 0.390043
3775 21 95 -9.51968 9.41437 3.62462
3763 21 85 1.29398 -12.2116 2.80631
3758 21 82 -1.23939 -7.5324 -4.20798
3810 21 116 2.08744 -4.72522 11.106
3767 21 89 1.72262 2.74622 4.82615
3802 21 110 0.996348 2.79929 8.20828
3719 21 61 0.134231 -0.639534 20.119
3718 21 60 -0.90651 11.7735 15.2202
3799 21 107 1.39747 10.4695 18.5871
3798 21 106 -1.68925 9.63362 17.9273
3721 21 63 -0.4453 11.4632 11.433
3806 21 114 5.83162 -2.87061 1.58402
3725 21 65 5.11171 -0.881905 3.75249
3714 21 58 8.58024 -2.06241 0.543331
3769 21 91 15.8024 -19.0882 10.7972
3814 21 118 11.8398 -7.78294 -7.44532
3815 21 119 11.4227 -2.73621 17.2338
3745 21 75 10.7883 -1.50621 7.17219
3741 21 73 13.4012 -1.4326 8.97694
3764 21 86 10.9473 6.0219 -8.52549
3804 21 112 16.6094 6.56806 16.6366
ITEM: TIMESTEP
265000
ITEM: NUMBER OF ATOMS
33
ITEM: BOX BOUNDS pp pp pp
-1.8431561441221557e+01 1.6612541662296120e+01
-2.4277277347796154e+01 1.4049869105708748e+01
-9.2367028581616815e+00 2.0609361684006121e+01
ITEM: ATOMS id type mol x y z
3771 21 93 -17.3216 -10.7621 8.57941
3765 21 87 -15.3902 -0.385879 12.2192
3759 21 83 -13.0941 6.62101 0.874257
3692 21 42 -14.7516 10.3394 17.6432
3801 21 109 -16.7094 12.6198 17.9102
3793 21 103 -11.4967 11.9303 6.40796
3720 21 62 -9.20061 -19.4926 -4.51686
3800 21 108 -7.46349 -15.0179 1.66405
3766 21 88 -7.64712 -17.741 -1.91438
3803 21 111 -10.5844 -6.76996 -3.04302
3678 21 32 -9.86431 7.00875 1.73276
3805 21 113 -8.9656 7.71194 12.4934
3757 21 81 -9.68687 10.8512 0.358963
3775 21 95 -9.51181 9.3144 3.61252
3763 21 85 1.29196 -12.1627 2.78941
3758 21 82 -1.23908 -7.51575 -4.26604
3810 21 116 2.0847 -4.7279 11.1378
3767 21 89 1.72021 2.69213 4.8211
3802 21 110 0.994605 2.74484 8.22308
3719 21 61 0.133277 -0.670322 20.2037
3799 21 107 1.39536 10.3623 18.6629
3798 21 106 -1.68854 9.53214 17.9991
3721 21 63 -0.445724 11.3491 11.4667
3816 21 120 5.83271 -22.7057 -3.96332
3806 21 114 5.82545 -2.88604 1.55994
3725 21 65 5.1062 -0.911025 3.74114
3714 21 58 8.57156 -2.08341 0.513151
3814 21 118 11.8282 -7.76457 -7.52238
3815 21 119 11.4114 -2.75257 17.3016
3745 21 75 10.7776 -1.53104 7.18091
3741 21 73 13.3881 -1.45793 8.99625
3764 21 86 10.9365 5.94528 -8.60889
3804 21 112 16.5934 6.48767 16.7009
ITEM: TIMESTEP
270000
ITEM: NUMBER OF ATOMS
32
ITEM: BOX BOUNDS pp pp pp
-1.8347701523457783e+01 1.6528681744532346e+01
-2.4375785983336314e+01 1.4148377741248908e+01
-9.2216467934379303e+00 2.0594305619265661e+01
ITEM: ATOMS id type mol x y z
3771 21 93 -17.243 -10.7911 8.57649
3765 21 87 -15.3209 -0.361576 12.2126
3759 21 83 -13.0358 6.68133 0.879112
3692 21 42 -14.6853 10.4188 17.6311
3801 21 109 -16.6337 12.711 17.8979
3793 21 103 -11.446 12.0179 6.40723
3720 21 62 -9.16093 -19.5665 -4.50657
3800 21 108 -7.43212 -15.0688 1.66811
3766 21 88 -7.61488 -17.8059 -1.90671
3803 21 111 -10.5381 -6.77848 -3.03422
3678 21 32 -9.82145 7.07106 1.73675
3805 21 113 -8.92704 7.77787 12.4865
3757 21 81 -9.64486 10.9332 0.364338
3775 21 95 -9.47063 9.38857 3.61462
3763 21 85 1.28143 -12.199 2.79233
3758 21 82 -1.23751 -7.5281 -4.256
3810 21 116 2.07037 -4.72591 11.1323
3767 21 89 1.70763 2.73226 4.82198
3802 21 110 0.985492 2.78524 8.22052
3719 21 61 0.128286 -0.647481 20.189
3799 21 107 1.38433 10.4418 18.6498
3798 21 106 -1.68481 9.60743 17.9867
3721 21 63 -0.447944 11.4338 11.4609
3816 21 120 5.80045 -22.7961 -3.95358
3725 21 65 5.07741 -0.889421 3.74311
3714 21 58 8.52618 -2.06783 0.51837
3814 21 118 11.7672 -7.7782 -7.50905
3815 21 119 11.3524 -2.74044 17.2899
3745 21 75 10.7217 -1.51262 7.1794
3741 21 73 13.3197 -1.43913 8.99291
3764 21 86 10.8798 6.00213 -8.59447
3804 21 112 16.5096 6.54731 16.6898
ITEM: TIMESTEP
275000
ITEM: NUMBER OF ATOMS
31
ITEM: BOX BOUNDS pp pp pp
-1.8272304387015943e+01 1.6453284608090506e+01
-2.4402159323244927e+01 1.4174751081157520e+01
-9.3609485241017332e+00 2.0733607349903004e+01
ITEM: ATOMS id type mol x y z
3771 21 93 -17.1724 -10.7989 8.60349
3765 21 87 -15.2586 -0.355069 12.2736
3759 21 83 -12.9834 6.69748 0.834193
3692 21 42 -14.6258 10.4401 17.7427
3801 21 109 -16.5658 12.7354 18.012
3793 21 103 -11.4004 12.0413 6.41397
3720 21 62 -9.12525 -19.5863 -4.60181
3800 21 108 -7.40392 -15.0825 1.63056
3766 21 88 -7.58588 -17.8233 -1.97766
3803 21 111 -10.4965 -6.78075 -3.1157
3678 21 32 -9.78292 7.08774 1.69984
3805 21 113 -8.89238 7.79552 12.5501
3757 21 81 -9.60709 10.9552 0.314608
3775 21 95 -9.43362 9.40843 3.59526
3763 21 85 1.27195 -12.2087 2.76529
3758 21 82 -1.23609 -7.53141 -4.3489
3810 21 116 2.05749 -4.72538 11.1832
3767 21 89 1.69631 2.743 4.8139
3802 21 110 0.977298 2.79605 8.2442
3719 21 61 0.123799 -0.641366 20.3245
3799 21 107 1.37441 10.4631 18.7709
3798 21 106 -1.68146 9.62758 18.1016
3721 21 63 -0.44994 11.4564 11.5149
3816 21 120 5.77143 -22.8203 -4.04366
3725 21 65 5.05153 -0.883637 3.72495
3714 21 58 8.48539 -2.06366 0.47008
3815 21 119 11.2994 -2.73719 17.3983
3745 21 75 10.6714 -1.50769 7.19335
3741 21 73 13.2582 -1.4341 9.02381
3764 21 86 10.8288 6.01734 -8.72791
3804 21 112 16.4343 6.56327 16.7926
ITEM: TIMESTEP
280000
ITEM: NUMBER OF ATOMS
31
ITEM: BOX BOUNDS pp pp pp
-1.8346571146943916e+01 1.6527551368018479e+01
-2.4336655766994646e+01 1.4109247524907239e+01
-9.2201489366378695e+00 2.0592807762430471e+01
ITEM: ATOMS id type mol x y z
3771 21 93 -17.242 -10.7796 8.5762
3765 21 87 -15.32 -0.371229 12.212
3759 21 83 -13.035 6.65737 0.879595
3692 21 42 -14.6844 10.3873 17.6299
3801 21 109 -16.6327 12.6748 17.8967
3793 21 103 -11.4453 11.9831 6.40716
3720 21 62 -9.16039 -19.5371 -4.50554
3800 21 108 -7.4317 -15.0486 1.66851
3766 21 88 -7.61444 -17.7801 -1.90595
3803 21 111 -10.5375 -6.77509 -3.03334
3678 21 32 -9.82088 7.04631 1.73715
3805 21 113 -8.92652 7.75168 12.4858
3757 21 81 -9.64429 10.9006 0.364872
3775 21 95 -9.47008 9.35911 3.61482
3763 21 85 1.28128 -12.1846 2.79262
3758 21 82 -1.23749 -7.5232 -4.255
3810 21 116 2.07018 -4.7267 11.1317
3767 21 89 1.70746 2.71632 4.82206
3802 21 110 0.985369 2.76919 8.22027
3719 21 61 0.128219 -0.656554 20.1876
3799 21 107 1.38418 10.4102 18.6485
3798 21 106 -1.68476 9.57752 17.9854
3721 21 63 -0.447974 11.4002 11.4603
3816 21 120 5.80001 -22.7602 -3.95261
3725 21 65 5.07702 -0.898003 3.7433
3714 21 58 8.52557 -2.07402 0.518889
3815 21 119 11.3517 -2.74526 17.2887
3745 21 75 10.7209 -1.51994 7.17925
3741 21 73 13.3188 -1.4466 8.99258
3764 21 86 10.879 5.97954 -8.59304
3804 21 112 16.5085 6.52362 16.6887
ITEM: TIMESTEP
285000
ITEM: NUMBER OF ATOMS
31
ITEM: BOX BOUNDS pp pp pp
-1.8536291395938015e+01 1.6717271617012578e+01
-2.4572097589369552e+01 1.4344689347282145e+01
-8.9557854166885669e+00 2.0328444242480842e+01
ITEM: ATOMS id type mol x y z
3771 21 93 -17.4197 -10.849 8.52494
3765 21 87 -15.4768 -0.313144 12.0962
3759 21 83 -13.167 6.80154 0.964841
3820 21 122 -12.5923 6.01322 17.0522
3692 21 42 -14.8343 10.5771 17.4181
3801 21 109 -16.8038 12.8927 17.6801
3793 21 103 -11.5599 12.1925 6.39437
3720 21 62 -9.25017 -19.7138 -4.32479
3800 21 108 -7.50266 -15.1703 1.73977
3766 21 88 -7.68739 -17.9353 -1.7713
3803 21 111 -10.6422 -6.79544 -2.8787
3805 21 113 -9.01375 7.90926 12.3652
3757 21 81 -9.73933 11.0968 0.459247
3775 21 95 -9.56322 9.53637 3.65156
3763 21 85 1.30512 -12.2712 2.84394
3758 21 82 -1.24105 -7.55271 -4.07869
3810 21 116 2.1026 -4.72196 11.0351
3767 21 89 1.73593 2.81222 4.83739
3802 21 110 1.00599 2.86574 8.17533
3719 21 61 0.139509 -0.601963 19.9304
3799 21 107 1.40913 10.6004 18.4186
3798 21 106 -1.69319 9.75746 17.7673
3721 21 63 -0.442952 11.6024 11.3579
3816 21 120 5.87301 -22.9763 -3.78167
3725 21 65 5.14216 -0.846369 3.77776
3714 21 58 8.62823 -2.03679 0.610533
3815 21 119 11.4851 -2.71625 17.083
3745 21 75 10.8475 -1.47592 7.15278
3741 21 73 13.4736 -1.40168 8.93394
3764 21 86 11.0073 6.11541 -8.33979
3804 21 112 16.698 6.66615 16.4935
ITEM: TIMESTEP
290000
ITEM: NUMBER OF ATOMS
30
ITEM: BOX BOUNDS pp pp pp
-1.8357895265645446e+01 1.6538875486720009e+01
-2.4400040393580696e+01 1.4172632151493289e+01
-9.1947185818822454e+00 2.0567377407641164e+01
ITEM: ATOMS id type mol x y z
3771 21 93 -17.2526 -10.7983 8.57127
3765 21 87 -15.3293 -0.355592 12.2008
3759 21 83 -13.0429 6.69618 0.887795
3820 21 122 -12.474 5.91484 17.2377
3692 21 42 -14.6934 10.4384 17.6095
3801 21 109 -16.6429 12.7334 17.8758
3793 21 103 -11.4522 12.0395 6.40593
3720 21 62 -9.16575 -19.5847 -4.48816
3800 21 108 -7.43593 -15.0814 1.67537
3766 21 88 -7.6188 -17.8219 -1.893
3803 21 111 -10.5437 -6.78057 -3.01846
3805 21 113 -8.93173 7.7941 12.4742
3757 21 81 -9.64997 10.9534 0.373951
3775 21 95 -9.47564 9.40683 3.61836
3763 21 85 1.28271 -12.2079 2.79756
3758 21 82 -1.2377 -7.53114 -4.23804
3810 21 116 2.07211 -4.72542 11.1224
3767 21 89 1.70916 2.74214 4.82354
3802 21 110 0.986599 2.79519 8.21595
3719 21 61 0.128893 -0.641857 20.1628
3799 21 107 1.38567 10.4614 18.6263
3798 21 106 -1.68526 9.62596 17.9645
3721 21 63 -0.447674 11.4546 11.4505
3816 21 120 5.80437 -22.8184 -3.93617
3725 21 65 5.08091 -0.884102 3.74662
3714 21 58 8.5317 -2.064 0.527705
3815 21 119 11.3596 -2.73745 17.2689
3745 21 75 10.7285 -1.50809 7.17671
3741 21 73 13.328 -1.43451 8.98694
3804 21 112 16.5198 6.56199 16.6699
ITEM: TIMESTEP
295000
ITEM: NUMBER OF ATOMS
29
ITEM: BOX BOUNDS pp pp pp
-1.8634541880737554e+01 1.6815522101812117e+01
-2.4275784570237001e+01 1.4048376328149594e+01
-9.0628166130226262e+00 2.0435475438772720e+01
ITEM: ATOMS id type mol x y z
3765 21 87 -15.5579 -0.386247 12.1431
3759 21 83 -13.2353 6.62009 0.930328
3820 21 122 -12.6574 5.84378 17.1353
3692 21 42 -14.9119 10.3382 17.5039
3801 21 109 -16.8924 12.6185 17.7678
3793 21 103 -11.6193 11.9289 6.39955
3720 21 62 -9.29666 -19.4915 -4.39797
3800 21 108 -7.53941 -15.0171 1.71092
3766 21 88 -7.72517 -17.74 -1.82582
3803 21 111 -10.6965 -6.76983 -2.94131
3805 21 113 -9.05892 7.71094 12.4141
3757 21 81 -9.78855 10.8499 0.421038
3775 21 95 -9.61146 9.31328 3.63669
3763 21 85 1.31746 -12.1622 2.82316
3758 21 82 -1.2429 -7.51557 -4.15007
3810 21 116 2.11939 -4.72793 11.0742
3767 21 89 1.75068 2.69153 4.83119
3802 21 110 1.01666 2.74423 8.19352
3719 21 61 0.145357 -0.670668 20.0345
3799 21 107 1.42206 10.3611 18.5116
3798 21 106 -1.69756 9.531 17.8556
3721 21 63 -0.440352 11.3479 11.3994
3816 21 120 5.91082 -22.7043 -3.85088
3725 21 65 5.17589 -0.911352 3.76381
3714 21 58 8.68139 -2.08365 0.573429
3815 21 119 11.5541 -2.75276 17.1663
3745 21 75 10.913 -1.53132 7.1635
3741 21 73 13.5538 -1.45821 8.95768
3804 21 112 16.7961 6.48677 16.5725
ITEM: TIMESTEP
300000
ITEM: NUMBER OF ATOMS
29
ITEM: BOX BOUNDS pp pp pp
-1.8390156428032153e+01 1.6571136649106716e+01
-2.4397379751300551e+01 1.4169971509213145e+01
-9.2174487684255659e+00 2.0590107594147355e+01
ITEM: ATOMS id type mol x y z
3765 21 87 -15.356 -0.356248 12.2108
3759 21 83 -13.0653 6.69455 0.880465
3820 21 122 -12.4954 5.91331 17.2553
3692 21 42 -14.7189 10.4362 17.6277
3801 21 109 -16.672 12.731 17.8945
3793 21 103 -11.4717 12.0371 6.40703
3720 21 62 -9.18102 -19.5827 -4.5037
3800 21 108 -7.448 -15.08 1.66924
3766 21 88 -7.6312 -17.8202 -1.90457
3803 21 111 -10.5616 -6.78034 -3.03176
3805 21 113 -8.94656 7.79232 12.4846
3757 21 81 -9.66613 10.9512 0.365836
3775 21 95 -9.49148 9.40483 3.6152
3763 21 85 1.28676 -12.2069 2.79315
3758 21 82 -1.23831 -7.53081 -4.2532
3810 21 116 2.07762 -4.72548 11.1307
3767 21 89 1.714 2.74105 4.82222
3802 21 110 0.990105 2.79409 8.21981
3719 21 61 0.130813 -0.642474 20.1849
3799 21 107 1.38991 10.4593 18.6461
3798 21 106 -1.6867 9.62393 17.9832
3721 21 63 -0.44682 11.4523 11.4593
3816 21 120 5.81678 -22.8159 -3.95087
3725 21 65 5.09199 -0.884686 3.74365
3714 21 58 8.54915 -2.06442 0.519825
3815 21 119 11.3823 -2.73778 17.2866
3745 21 75 10.75 -1.50858 7.17898
3741 21 73 13.3544 -1.43501 8.99198
3804 21 112 16.552 6.56038 16.6867
ITEM: TIMESTEP
305000
ITEM: NUMBER OF ATOMS
31
ITEM: BOX BOUNDS pp pp pp
-1.8603119187783893e+01 1.6784099408858456e+01
-2.4406340299250065e+01 1.4178932057162658e+01
-8.9913470898924821e+00 2.0364005915612424e+01
ITEM: ATOMS id type mol x y z
3765 21 87 -15.532 -0.354038 12.1118
3759 21 83 -13.2134 6.70004 0.953374
3820 21 122 -12.6366 5.91844 17.0798
3692 21 42 -14.8871 10.4435 17.4466
3801 21 109 -16.8641 12.7393 17.7092
3793 21 103 -11.6003 12.0451 6.39609
3720 21 62 -9.28179 -19.5894 -4.34911
3800 21 108 -7.52766 -15.0846 1.73018
3766 21 88 -7.71309 -17.8261 -1.78941
3803 21 111 -10.6791 -6.78112 -2.8995
3805 21 113 -9.04448 7.79832 12.3815
3757 21 81 -9.77281 10.9587 0.446552
3775 21 95 -9.59603 9.41157 3.64662
3763 21 85 1.31352 -12.2102 2.83704
3821 21 123 -2.02986 -9.13271 17.399
3758 21 82 -1.24231 -7.53193 -4.10241
3810 21 116 2.11402 -4.7253 11.0481
3767 21 89 1.74596 2.7447 4.83533
3802 21 110 1.01325 2.79777 8.18137
3719 21 61 0.143487 -0.640397 19.965
3799 21 107 1.41792 10.4665 18.4495
3798 21 106 -1.69616 9.63078 17.7967
3721 21 63 -0.441183 11.46 11.3717
3816 21 120 5.89873 -22.8241 -3.80467
3725 21 65 5.1651 -0.88272 3.77312
3714 21 58 8.66439 -2.063 0.598205
3825 21 125 8.56962 -2.33521 13.2489
3815 21 119 11.532 -2.73667 17.1106
3745 21 75 10.892 -1.50691 7.15634
3741 21 73 13.5281 -1.4333 8.94183
3804 21 112 16.7647 6.56581 16.5198
ITEM: TIMESTEP
310000
ITEM: NUMBER OF ATOMS
30
ITEM: BOX BOUNDS pp pp pp
-1.8398580380634439e+01 1.6579560601709002e+01
-2.4324874896799500e+01 1.4097466654712093e+01
-9.1206375532200603e+00 2.0493296378913147e+01
ITEM: ATOMS id type mol x y z
3765 21 87 -15.3629 -0.374136 12.1684
3759 21 83 -13.0712 6.65015 0.911683
3820 21 122 -12.501 5.87185 17.1802
3692 21 42 -14.7255 10.3778 17.5502
3801 21 109 -16.6796 12.6639 17.8152
3793 21 103 -11.4767 11.9726 6.40235
3720 21 62 -9.185 -19.5283 -4.4375
3800 21 108 -7.45115 -15.0425 1.69533
3766 21 88 -7.63444 -17.7724 -1.85527
3803 21 111 -10.5662 -6.77408 -2.97513
3805 21 113 -8.95044 7.7438 12.4404
3757 21 81 -9.67035 10.8908 0.400397
3775 21 95 -9.49561 9.35024 3.62865
3763 21 85 1.28782 -12.1802 2.81194
3821 21 123 -2.01691 -9.11574 17.5022
3758 21 82 -1.23846 -7.52172 -4.18863
3810 21 116 2.07906 -4.72694 11.0954
3767 21 89 1.71526 2.71152 4.82783
3802 21 110 0.991021 2.76436 8.20335
3719 21 61 0.131314 -0.659286 20.0908
3799 21 107 1.39102 10.4007 18.5619
3798 21 106 -1.68707 9.56852 17.9033
3721 21 63 -0.446597 11.39 11.4218
3725 21 65 5.09488 -0.900586 3.75627
3714 21 58 8.55371 -2.07588 0.553385
3825 21 125 8.46005 -2.34694 13.3156
3815 21 119 11.3882 -2.74671 17.2113
3745 21 75 10.7556 -1.52214 7.16929
3741 21 73 13.3612 -1.44885 8.97051
3804 21 112 16.5604 6.51649 16.6152
ITEM: TIMESTEP
315000
ITEM: NUMBER OF ATOMS
31
ITEM: BOX BOUNDS pp pp pp
-1.8677266502267830e+01 1.6858246723342393e+01
-2.4293726925218060e+01 1.4066318683130653e+01
-9.0862464540108654e+00 2.0458905279688768e+01
ITEM: ATOMS id type mol x y z
3765 21 87 -15.5933 -0.38182 12.1533
3759 21 83 -13.265 6.63108 0.922773
3820 21 122 -12.6857 5.85404 17.1535
3692 21 42 -14.9457 10.3527 17.5226
3801 21 109 -16.9309 12.6351 17.787
3793 21 103 -11.6451 11.9449 6.40068
3720 21 62 -9.31687 -19.5049 -4.41399
3800 21 108 -7.55539 -15.0264 1.7046
3766 21 88 -7.7416 -17.7519 -1.83775
3803 21 111 -10.7201 -6.77138 -2.95501
3805 21 113 -9.07857 7.72295 12.4248
3757 21 81 -9.80995 10.8649 0.412674
3775 21 95 -9.63243 9.32679 3.63343
3763 21 85 1.32283 -12.1688 2.81862
3821 21 123 -2.03455 -9.10925 17.4747
3758 21 82 -1.24371 -7.51782 -4.1657
3810 21 116 2.12669 -4.72756 11.0828
3767 21 89 1.75709 2.69883 4.82983
3802 21 110 1.02131 2.75159 8.19751
3719 21 61 0.147899 -0.666508 20.0573
3799 21 107 1.42768 10.3756 18.532
3798 21 106 -1.69946 9.54471 17.875
3721 21 63 -0.439221 11.3633 11.4085
3725 21 65 5.19056 -0.907417 3.76075
3714 21 58 8.70451 -2.08081 0.565307
3825 21 125 8.60935 -2.35143 13.2978
3815 21 119 11.5842 -2.75055 17.1845
3745 21 75 10.9415 -1.52796 7.16584
3741 21 73 13.5886 -1.45479 8.96288
3829 21 127 12.2253 5.88704 1.13759
3804 21 112 16.8388 6.49763 16.5898
ITEM: TIMESTEP
320000
ITEM: NUMBER OF ATOMS
31
ITEM: BOX BOUNDS pp pp pp
-1.8450033081252609e+01 1.6631013302327172e+01
-2.4216422974271964e+01 1.3989014732184557e+01
-9.3108167365196479e+00 2.0683475562163355e+01
ITEM: ATOMS id type mol x y z
3765 21 87 -15.4055 -0.400892 12.2516
3759 21 83 -13.107 6.58374 0.850358
3820 21 122 -12.5351 5.80984 17.3278
3692 21 42 -14.7662 10.2903 17.7026
3801 21 109 -16.726 12.5635 17.9709
3793 21 103 -11.5078 11.8761 6.41154
3720 21 62 -9.20935 -19.4469 -4.56753
3800 21 108 -7.47039 -14.9865 1.64407
3766 21 88 -7.65422 -17.7009 -1.95213
3803 21 111 -10.5946 -6.7647 -3.08638
3805 21 113 -8.97409 7.67121 12.5272
3757 21 81 -9.69612 10.8005 0.332505
3775 21 95 -9.52087 9.26859 3.60222
3763 21 85 1.29428 -12.1403 2.77502
3821 21 123 -2.02016 -9.09315 17.6539
3758 21 82 -1.23943 -7.50813 -4.31547
3810 21 116 2.08786 -4.72912 11.1648
3767 21 89 1.72299 2.66735 4.81681
3802 21 110 0.996612 2.71989 8.23568
3719 21 61 0.134376 -0.684432 20.2758
3799 21 107 1.39779 10.3131 18.7273
3798 21 106 -1.68936 9.48563 18.0602
3721 21 63 -0.445235 11.2969 11.4955
3725 21 65 5.11254 -0.92437 3.73148
3714 21 58 8.58155 -2.09303 0.487458
3825 21 125 8.48761 -2.36256 13.4136
3815 21 119 11.4244 -2.76007 17.3593
3745 21 75 10.7899 -1.54242 7.18833
3741 21 73 13.4032 -1.46953 9.01269
3829 21 127 12.0573 5.8427 1.06844
3804 21 112 16.6118 6.45083 16.7556
ITEM: TIMESTEP
325000
ITEM: NUMBER OF ATOMS
33
ITEM: BOX BOUNDS pp pp pp
-1.8466808415312780e+01 1.6647788636387343e+01
-2.4456608506851147e+01 1.4229200264763740e+01
-9.2111013392207290e+00 2.0583760164853729e+01
ITEM: ATOMS id type mol x y z
3765 21 87 -15.4193 -0.341636 12.208
3759 21 83 -13.1186 6.73082 0.882512
3820 21 122 -12.5462 5.94718 17.2504
3692 21 42 -14.7794 10.484 17.6227
3801 21 109 -16.7411 12.7858 17.8893
3793 21 103 -11.518 12.0898 6.40672
3720 21 62 -9.21729 -19.6271 -4.49936
3800 21 108 -7.47667 -15.1106 1.67095
3766 21 88 -7.66067 -17.8592 -1.90134
3803 21 111 -10.6039 -6.78546 -3.02805
3805 21 113 -8.9818 7.83196 12.4817
3757 21 81 -9.70453 11.0006 0.368102
3775 21 95 -9.52911 9.44942 3.61608
3763 21 85 1.29639 -12.2287 2.79438
3833 21 129 -2.89254 -10.7414 7.442
3821 21 123 -2.02123 -9.14318 17.5744
3758 21 82 -1.23975 -7.53823 -4.24897
3810 21 116 2.09072 -4.72428 11.1284
3767 21 89 1.7255 2.76518 4.82259
3802 21 110 0.998435 2.81838 8.21873
3719 21 61 0.135374 -0.628741 20.1788
3799 21 107 1.39999 10.5071 18.6406
3798 21 106 -1.6901 9.6692 17.978
3721 21 63 -0.444791 11.5032 11.4568
3834 21 130 5.16591 -9.19267 2.63078
3725 21 65 5.1183 -0.871696 3.74448
3714 21 58 8.59063 -2.05505 0.522025
3825 21 125 8.4966 -2.32797 13.3622
3815 21 119 11.4362 -2.73048 17.2817
3745 21 75 10.8011 -1.49751 7.17835
3741 21 73 13.4169 -1.42372 8.99057
3829 21 127 12.0697 5.98046 1.09914
3804 21 112 16.6286 6.59624 16.682
ITEM: TIMESTEP
330000
ITEM: NUMBER OF ATOMS
32
ITEM: BOX BOUNDS pp pp pp
-1.8471528277308479e+01 1.6652508498383042e+01
-2.4416843242061834e+01 1.4189434999974427e+01
-9.1096427887818550e+00 2.0482301614404751e+01
ITEM: ATOMS id type mol x y z
3765 21 87 -15.4232 -0.351446 12.1636
3759 21 83 -13.1219 6.70647 0.915229
3820 21 122 -12.5494 5.92444 17.1716
3692 21 42 -14.7832 10.4519 17.5414
3793 21 103 -11.5208 12.0544 6.40181
3720 21 62 -9.21952 -19.5973 -4.42999
3800 21 108 -7.47843 -15.09 1.6983
3766 21 88 -7.66249 -17.833 -1.84967
3803 21 111 -10.6065 -6.78202 -2.9687
3805 21 113 -8.98397 7.80535 12.4354
3757 21 81 -9.70689 10.9674 0.404322
3775 21 95 -9.53143 9.41948 3.63018
3763 21 85 1.29698 -12.2141 2.81407
3833 21 129 -2.89308 -10.7298 7.43004
3821 21 123 -2.02153 -9.1349 17.4934
3758 21 82 -1.23984 -7.53325 -4.1813
3810 21 116 2.09153 -4.72509 11.0913
3767 21 89 1.72621 2.74898 4.82847
3802 21 110 0.998948 2.80208 8.20148
3719 21 61 0.135655 -0.637961 20.0801
3799 21 107 1.40061 10.475 18.5524
3798 21 106 -1.69031 9.63881 17.8943
3721 21 63 -0.444666 11.469 11.4175
3834 21 130 5.16754 -9.18429 2.65159
3725 21 65 5.11992 -0.880417 3.7577
3714 21 58 8.59318 -2.06134 0.557197
3825 21 125 8.49913 -2.3337 13.3099
3815 21 119 11.4395 -2.73538 17.2027
3745 21 75 10.8043 -1.50495 7.16819
3741 21 73 13.4208 -1.4313 8.96807
3829 21 127 12.0732 5.95765 1.13038
3804 21 112 16.6333 6.57216 16.6071
ITEM: TIMESTEP
335000
ITEM: NUMBER OF ATOMS
31
ITEM: BOX BOUNDS pp pp pp
-1.8566432404037254e+01 1.6747412625111817e+01
-2.4275207087679558e+01 1.4047798845592151e+01
-9.0998894247901383e+00 2.0472548250395931e+01
ITEM: ATOMS id type mol x y z
3765 21 87 -15.5017 -0.386389 12.1593
3759 21 83 -13.1879 6.61974 0.918374
3820 21 122 -12.6123 5.84345 17.1641
3692 21 42 -14.8581 10.3377 17.5336
3793 21 103 -11.5782 11.9284 6.40134
3720 21 62 -9.26443 -19.491 -4.42332
3800 21 108 -7.51393 -15.0168 1.70093
3766 21 88 -7.69898 -17.7396 -1.8447
3803 21 111 -10.6589 -6.76978 -2.96299
3805 21 113 -9.02761 7.71056 12.431
3757 21 81 -9.75443 10.8494 0.407804
3775 21 95 -9.57802 9.31284 3.63154
3763 21 85 1.30891 -12.162 2.81597
3833 21 129 -2.9038 -10.6886 7.42889
3821 21 123 -2.02753 -9.10539 17.4856
3758 21 82 -1.24162 -7.5155 -4.1748
3810 21 116 2.10775 -4.72794 11.0878
3767 21 89 1.74045 2.69129 4.82904
3802 21 110 1.00926 2.74399 8.19983
3719 21 61 0.141303 -0.670802 20.0706
3799 21 107 1.4131 10.3606 18.5439
3798 21 106 -1.69453 9.53056 17.8862
3721 21 63 -0.442154 11.3474 11.4137
3834 21 130 5.20038 -9.15442 2.65359
3725 21 65 5.15251 -0.911479 3.75898
3714 21 58 8.64454 -2.08374 0.560578
3825 21 125 8.54997 -2.3541 13.3049
3745 21 75 10.8676 -1.53143 7.16721
3741 21 73 13.4982 -1.45832 8.96591
3829 21 127 12.1434 5.87642 1.13339
3804 21 112 16.7281 6.48642 16.5999
ITEM: TIMESTEP
340000
ITEM: NUMBER OF ATOMS
34
ITEM: BOX BOUNDS pp pp pp
-1.8615719474833593e+01 1.6796699695908156e+01
-2.4354225173485116e+01 1.4126816931397709e+01
-9.1590692708794670e+00 2.0531728096462722e+01
ITEM: ATOMS id type mol x y z
3765 21 87 -15.5424 -0.366895 12.1852
3759 21 83 -13.2222 6.66813 0.899291
3820 21 122 -12.6449 5.88864 17.21
3692 21 42 -14.8971 10.4014 17.581
3793 21 103 -11.6079 11.9987 6.4042
3720 21 62 -9.28775 -19.5503 -4.46378
3836 21 132 -9.62927 -22.9516 9.08665
3800 21 108 -7.53237 -15.0577 1.68498
3766 21 88 -7.71793 -17.7917 -1.87484
3803 21 111 -10.6861 -6.77661 -2.99761
3805 21 113 -9.05027 7.76344 12.458
3757 21 81 -9.77912 10.9153 0.386677
3775 21 95 -9.60222 9.37234 3.62331
3763 21 85 1.3151 -12.191 2.80448
3833 21 129 -2.90936 -10.7116 7.43587
3821 21 123 -2.03066 -9.12185 17.5328
3758 21 82 -1.24255 -7.5254 -4.21427
3810 21 116 2.11617 -4.72635 11.1094
3767 21 89 1.74785 2.72348 4.8256
3802 21 110 1.01462 2.7764 8.20989
3719 21 61 0.144236 -0.65248 20.1281
3799 21 107 1.41958 10.4244 18.5953
3798 21 106 -1.69672 9.59095 17.935
3721 21 63 -0.44085 11.4152 11.4367
3834 21 130 5.21744 -9.17108 2.64146
3838 21 134 7.50968 -12.4579 16.0242
3725 21 65 5.16943 -0.89415 3.75126
3714 21 58 8.6712 -2.07124 0.540063
3825 21 125 8.57637 -2.34272 13.3354
3745 21 75 10.9004 -1.51665 7.17314
3741 21 73 13.5384 -1.44325 8.97903
3835 21 131 14.6594 0.418335 10.9214
3829 21 127 12.1798 5.92174 1.11517
3804 21 112 16.7773 6.53426 16.6436
ITEM: TIMESTEP
345000
ITEM: NUMBER OF ATOMS
34
ITEM: BOX BOUNDS pp pp pp
-1.8438617230902526e+01 1.6619597451977089e+01
-2.4488871880954235e+01 1.4261463638866829e+01
-9.1542904898415607e+00 2.0526949315407361e+01
ITEM: ATOMS id type mol x y z
3765 21 87 -15.396 -0.333676 12.1831
3759 21 83 -13.099 6.75058 0.900831
3820 21 122 -12.5275 5.96563 17.2063
3692 21 42 -14.7572 10.51 17.5771
3793 21 103 -11.5009 12.1185 6.40397
3720 21 62 -9.20395 -19.6513 -4.46051
3836 21 132 -9.54205 -23.0764 9.08556
3800 21 108 -7.46612 -15.1273 1.68626
3766 21 88 -7.64983 -17.8804 -1.87241
3803 21 111 -10.5883 -6.78825 -2.99482
3805 21 113 -8.96884 7.85356 12.4558
3757 21 81 -9.6904 11.0274 0.388383
3775 21 95 -9.51527 9.47371 3.62398
3763 21 85 1.29285 -12.2406 2.80541
3833 21 129 -2.88936 -10.7508 7.4353
3821 21 123 -2.01944 -9.1499 17.529
3758 21 82 -1.23922 -7.54228 -4.21108
3810 21 116 2.08591 -4.72364 11.1077
3767 21 89 1.72127 2.77832 4.82588
3802 21 110 0.995371 2.83161 8.20907
3719 21 61 0.133697 -0.62126 20.1235
3799 21 107 1.39628 10.5331 18.5912
3798 21 106 -1.68885 9.69385 17.9311
3721 21 63 -0.445538 11.5309 11.4348
3834 21 130 5.15615 -9.19948 2.64244
3838 21 134 7.42547 -12.5093 16.0209
3725 21 65 5.10863 -0.864621 3.75188
3714 21 58 8.57538 -2.04995 0.541719
3825 21 125 8.48149 -2.32333 13.3329
3839 21 135 15.7983 -14.6823 0.876347
3745 21 75 10.7823 -1.49148 7.17266
3741 21 73 13.3939 -1.41756 8.97797
3829 21 127 12.0489 5.99897 1.11664
3804 21 112 16.6004 6.61577 16.6401
ITEM: TIMESTEP
350000
ITEM: NUMBER OF ATOMS
34
ITEM: BOX BOUNDS pp pp pp
-1.8664249006626783e+01 1.6845229227701346e+01
-2.4396775760973242e+01 1.4169367518885835e+01
-9.1048848035746026e+00 2.0477543629126526e+01
ITEM: ATOMS id type mol x y z
3765 21 87 -15.5825 -0.356397 12.1615
3759 21 83 -13.2559 6.69418 0.916763
3820 21 122 -12.6771 5.91297 17.168
3692 21 42 -14.9354 10.4357 17.5376
3793 21 103 -11.6373 12.0365 6.40158
3720 21 62 -9.31071 -19.5822 -4.42673
3836 21 132 -9.65317 -22.991 9.07424
3800 21 108 -7.55052 -15.0797 1.69958
3766 21 88 -7.7366 -17.8198 -1.84724
3803 21 111 -10.7129 -6.78029 -2.96592
3805 21 113 -9.07258 7.79192 12.4333
3757 21 81 -9.80343 10.9507 0.40602
3775 21 95 -9.62604 9.40437 3.63084
3763 21 85 1.3212 -12.2067 2.815
3833 21 129 -2.91484 -10.724 7.42948
3821 21 123 -2.03373 -9.13072 17.4896
3758 21 82 -1.24346 -7.53073 -4.17813
3810 21 116 2.12446 -4.72549 11.0896
3767 21 89 1.75513 2.74081 4.82875
3802 21 110 1.01989 2.79385 8.20067
3719 21 61 0.147125 -0.642614 20.0754
3799 21 107 1.42596 10.4588 18.5482
3798 21 106 -1.69888 9.62347 17.8903
3721 21 63 -0.439565 11.4518 11.4157
3834 21 130 5.23423 -9.18006 2.65257
3838 21 134 7.53275 -12.4741 15.9865
3725 21 65 5.18609 -0.884818 3.75832
3714 21 58 8.69746 -2.06452 0.558846
3825 21 125 8.60237 -2.33659 13.3074
3839 21 135 16.0133 -14.6369 0.89236
3745 21 75 10.9328 -1.5087 7.16771
3741 21 73 13.578 -1.43513 8.96701
3829 21 127 12.2157 5.94614 1.13185
3804 21 112 16.8258 6.56002 16.6036
ITEM: TIMESTEP
355000
ITEM: NUMBER OF ATOMS
34
ITEM: BOX BOUNDS pp pp pp
-1.8388292751268665e+01 1.6569272972343228e+01
-2.4467086110212172e+01 1.4239677868124765e+01
-9.3304054818069702e+00 2.0703064307322794e+01
ITEM: ATOMS id type mol x y z
3765 21 87 -15.3544 -0.339051 12.2602
3759 21 83 -13.064 6.73724 0.844042
3820 21 122 -12.4942 5.95317 17.343
3692 21 42 -14.7174 10.4924 17.7183
3793 21 103 -11.4705 12.0991 6.41249
3720 21 62 -9.18013 -19.635 -4.58093
3836 21 132 -9.51727 -23.0562 9.12589
3800 21 108 -7.4473 -15.116 1.63879
3766 21 88 -7.63048 -17.8661 -1.96211
3803 21 111 -10.5605 -6.78637 -3.09784
3805 21 113 -8.94571 7.83897 12.5361
3757 21 81 -9.66519 11.0093 0.325512
3775 21 95 -9.49056 9.45731 3.5995
3763 21 85 1.28653 -12.2325 2.77122
3833 21 129 -2.88368 -10.7444 7.45606
3821 21 123 -2.01626 -9.14536 17.6696
3758 21 82 -1.23827 -7.53955 -4.32853
3810 21 116 2.07731 -4.72407 11.172
3767 21 89 1.71372 2.76945 4.81567
3802 21 110 0.989903 2.82268 8.23901
3719 21 61 0.130702 -0.626312 20.2948
3799 21 107 1.38966 10.5156 18.7443
3798 21 106 -1.68661 9.6772 18.0764
3721 21 63 -0.44687 11.5122 11.503
3834 21 130 5.13874 -9.19488 2.60631
3838 21 134 7.40154 -12.501 16.1436
3725 21 65 5.09135 -0.869399 3.72893
3714 21 58 8.54815 -2.0534 0.480668
3825 21 125 8.45453 -2.32646 13.4236
3839 21 135 15.7503 -14.6716 0.819267
3745 21 75 10.7488 -1.49555 7.1903
3741 21 73 13.3528 -1.42172 9.01703
3829 21 127 12.0117 5.98647 1.06241
3804 21 112 16.5501 6.60258 16.77
ITEM: TIMESTEP
360000
ITEM: NUMBER OF ATOMS
33
ITEM: BOX BOUNDS pp pp pp
-1.8542449257497271e+01 1.6723429478571834e+01
-2.4389070836647328e+01 1.4161662594559921e+01
-9.0833729699399974e+00 2.0456031795458522e+01
ITEM: ATOMS id type mol x y z
3765 21 87 -15.4818 -0.358298 12.1521
3759 21 83 -13.1712 6.68946 0.9237
3820 21 122 -12.5964 5.90856 17.1513
3692 21 42 -14.8392 10.4295 17.5203
3793 21 103 -11.5637 12.0297 6.40054
3720 21 62 -9.25308 -19.5765 -4.41203
3836 21 132 -9.59319 -22.9839 9.06931
3800 21 108 -7.50496 -15.0757 1.70538
3766 21 88 -7.68976 -17.8147 -1.83629
3803 21 111 -10.6456 -6.77962 -2.95333
3805 21 113 -9.01658 7.78676 12.4234
3757 21 81 -9.74242 10.9443 0.4137
3775 21 95 -9.56624 9.39857 3.63383
3763 21 85 1.30589 -12.2038 2.81917
3833 21 129 -2.90109 -10.7217 7.42695
3821 21 123 -2.02602 -9.12911 17.4724
3758 21 82 -1.24117 -7.52977 -4.16378
3810 21 116 2.10365 -4.72564 11.0818
3767 21 89 1.73686 2.73767 4.82999
3802 21 110 1.00665 2.79069 8.19702
3719 21 61 0.139876 -0.644401 20.0545
3799 21 107 1.40994 10.4526 18.5295
3798 21 106 -1.69347 9.61758 17.8726
3721 21 63 -0.442789 11.4452 11.4074
3834 21 130 5.19208 -9.17843 2.65698
3838 21 134 7.47484 -12.4712 15.9715
3725 21 65 5.14427 -0.886508 3.76113
3714 21 58 8.63156 -2.06573 0.566303
3825 21 125 8.53712 -2.3377 13.2964
3839 21 135 15.8972 -14.6331 0.899332
3745 21 75 10.8516 -1.51014 7.16555
3829 21 127 12.1256 5.94173 1.13847
3804 21 112 16.7041 6.55535 16.5877
ITEM: TIMESTEP
365000
ITEM: NUMBER OF ATOMS
33
ITEM: BOX BOUNDS pp pp pp
-1.8674547347736233e+01 1.6855527568810796e+01
-2.4381864411541013e+01 1.4154456169453606e+01
-9.0663419686032469e+00 2.0439000794105493e+01
ITEM: ATOMS id type mol x y z
3765 21 87 -15.591 -0.360076 12.1446
3759 21 83 -13.2631 6.68505 0.929191
3820 21 122 -12.6839 5.90444 17.138
3692 21 42 -14.9435 10.4237 17.5067
3793 21 103 -11.6435 12.0233 6.39972
3720 21 62 -9.31559 -19.5711 -4.40038
3836 21 132 -9.65824 -22.9772 9.06541
3800 21 108 -7.55437 -15.072 1.70997
3766 21 88 -7.74056 -17.8099 -1.82761
3803 21 111 -10.7186 -6.779 -2.94337
3805 21 113 -9.07732 7.78194 12.4157
3757 21 81 -9.80859 10.9383 0.41978
3775 21 95 -9.6311 9.39315 3.6362
3763 21 85 1.32249 -12.2012 2.82248
3833 21 129 -2.91601 -10.7196 7.42494
3821 21 123 -2.03438 -9.12761 17.4588
3758 21 82 -1.24366 -7.52886 -4.15242
3810 21 116 2.12622 -4.72579 11.0755
3767 21 89 1.75668 2.73473 4.83098
3802 21 110 1.02101 2.78773 8.19412
3719 21 61 0.147737 -0.646072 20.0379
3799 21 107 1.42732 10.4467 18.5147
3721 21 63 -0.439293 11.439 11.4008
3843 21 137 -1.96144 10.3365 16.1981
3834 21 130 5.23779 -9.17691 2.66047
3838 21 134 7.53765 -12.4684 15.9597
3725 21 65 5.18963 -0.888088 3.76335
3714 21 58 8.70304 -2.06687 0.572207
3825 21 125 8.60789 -2.33874 13.2876
3839 21 135 16.0231 -14.6295 0.904852
3745 21 75 10.9397 -1.51149 7.16385
3829 21 127 12.2233 5.93759 1.14372
3804 21 112 16.8361 6.55099 16.5751
ITEM: TIMESTEP
370000
ITEM: NUMBER OF ATOMS
33
ITEM: BOX BOUNDS pp pp pp
-1.8561305863965831e+01 1.6742286085040394e+01
-2.4502886580024633e+01 1.4275478337937226e+01
-9.0555144388425433e+00 2.0428173264328098e+01
ITEM: ATOMS id type mol x y z
3765 21 87 -15.4974 -0.330219 12.1399
3759 21 83 -13.1844 6.75916 0.932683
3820 21 122 -12.6089 5.97365 17.1296
3692 21 42 -14.8541 10.5213 17.498
3793 21 103 -11.5751 12.1309 6.3992
3720 21 62 -9.262 -19.6619 -4.39298
3836 21 132 -9.60247 -23.0894 9.06293
3800 21 108 -7.51202 -15.1345 1.71289
3766 21 88 -7.69701 -17.8897 -1.8221
3803 21 111 -10.6561 -6.78946 -2.93704
3805 21 113 -9.02525 7.86293 12.4107
3757 21 81 -9.75186 11.0391 0.423645
3775 21 95 -9.5755 9.48426 3.6377
3763 21 85 1.30826 -12.2457 2.82458
3833 21 129 -2.90322 -10.7549 7.42366
3821 21 123 -2.02721 -9.15282 17.4502
3758 21 82 -1.24153 -7.54403 -4.1452
3810 21 116 2.10687 -4.72335 11.0716
3767 21 89 1.73969 2.78403 4.83161
3802 21 110 1.0087 2.83736 8.19228
3719 21 61 0.140998 -0.618011 20.0274
3843 21 137 -1.95473 10.4335 16.1904
3799 21 107 1.41242 10.5445 18.5053
3721 21 63 -0.44229 11.543 11.3966
3834 21 130 5.19861 -9.20243 2.6627
3838 21 134 7.4838 -12.5146 15.9521
3725 21 65 5.15075 -0.861547 3.76476
3714 21 58 8.64176 -2.04774 0.575961
3825 21 125 8.54722 -2.32131 13.282
3839 21 135 15.9152 -14.6893 0.908362
3745 21 75 10.8642 -1.48886 7.16276
3829 21 127 12.1396 6.007 1.14705
3804 21 112 16.723 6.62425 16.5672
ITEM: TIMESTEP
375000
ITEM: NUMBER OF ATOMS
34
ITEM: BOX BOUNDS pp pp pp
-1.8729817708152861e+01 1.6910797929227424e+01
-2.4330127105656185e+01 1.4102718863568779e+01
-9.1118317401378874e+00 2.0484490565600815e+01
ITEM: ATOMS id type mol x y z
3765 21 87 -15.6367 -0.37284 12.1645
3759 21 83 -13.3015 6.65337 0.914523
3820 21 122 -12.7205 5.87486 17.1733
3692 21 42 -14.9872 10.382 17.5431
3793 21 103 -11.6769 11.9773 6.40192
3720 21 62 -9.34174 -19.5322 -4.43148
3836 21 132 -9.68546 -22.9293 9.07583
3800 21 108 -7.57505 -15.0452 1.69771
3766 21 88 -7.76181 -17.7758 -1.85078
3803 21 111 -10.7491 -6.77453 -2.96998
3805 21 113 -9.10273 7.74731 12.4364
3757 21 81 -9.83628 10.8952 0.40354
3775 21 95 -9.65823 9.35419 3.62988
3763 21 85 1.32943 -12.1822 2.81365
3833 21 129 -2.92225 -10.7046 7.4303
3821 21 123 -2.03788 -9.11683 17.4951
3758 21 82 -1.24469 -7.52238 -4.18276
3810 21 116 2.13567 -4.72683 11.0921
3767 21 89 1.76498 2.71366 4.82834
3802 21 110 1.02702 2.76652 8.20186
3719 21 61 0.151027 -0.658068 20.0822
3843 21 137 -1.96471 10.295 16.2306
3799 21 107 1.43459 10.4049 18.5543
3721 21 63 -0.43783 11.3945 11.4184
3834 21 130 5.25692 -9.166 2.65114
3838 21 134 7.56393 -12.4487 15.9914
3725 21 65 5.2086 -0.899434 3.75742
3714 21 58 8.73294 -2.07505 0.556438
3825 21 125 8.6375 -2.34619 13.311
3839 21 135 16.0758 -14.6039 0.890109
3745 21 75 10.9765 -1.52116 7.1684
3829 21 127 12.2642 5.90792 1.12971
3804 21 112 16.8913 6.51967 16.6087
3844 21 138 10.0761 13.8368 11.6175
ITEM: TIMESTEP
380000
ITEM: NUMBER OF ATOMS
35
ITEM: BOX BOUNDS pp pp pp
-1.8696801788684919e+01 1.6877782009759482e+01
-2.4291662033813431e+01 1.4064253791726024e+01
-9.1288853711405977e+00 2.0501544196584465e+01
ITEM: ATOMS id type mol x y z
3765 21 87 -15.6094 -0.38233 12.172
3759 21 83 -13.2786 6.62982 0.909024
3820 21 122 -12.6987 5.85286 17.1866
3692 21 42 -14.9611 10.351 17.5568
3793 21 103 -11.6569 11.9431 6.40274
3720 21 62 -9.32612 -19.5034 -4.44314
3836 21 132 -9.6692 -22.8936 9.07974
3800 21 108 -7.5627 -15.0253 1.69311
3766 21 88 -7.74911 -17.7505 -1.85947
3803 21 111 -10.7309 -6.7712 -2.97996
3805 21 113 -9.08755 7.72157 12.4442
3757 21 81 -9.81974 10.8631 0.397452
3775 21 95 -9.64202 9.32523 3.62751
3763 21 85 1.32529 -12.168 2.81034
3833 21 129 -2.91852 -10.6934 7.43231
3821 21 123 -2.03579 -9.10882 17.5087
3758 21 82 -1.24407 -7.51756 -4.19414
3810 21 116 2.13002 -4.72761 11.0984
3767 21 89 1.76002 2.69799 4.82735
3802 21 110 1.02343 2.75074 8.20475
3719 21 61 0.149062 -0.666987 20.0988
3843 21 137 -1.96275 10.2642 16.2427
3799 21 107 1.43025 10.3739 18.5691
3721 21 63 -0.438704 11.3615 11.425
3834 21 130 5.24549 -9.15789 2.64765
3838 21 134 7.54823 -12.434 16.0032
3725 21 65 5.19727 -0.90787 3.7552
3714 21 58 8.71508 -2.08114 0.550526
3825 21 125 8.61981 -2.35173 13.3198
3839 21 135 16.0444 -14.585 0.884581
3848 21 140 15.1763 -17.875 11.8456
3745 21 75 10.9545 -1.52835 7.17011
3829 21 127 12.2397 5.88586 1.12446
3804 21 112 16.8583 6.49638 16.6213
3844 21 138 10.0558 13.7988 11.6244
ITEM: TIMESTEP
385000
ITEM: NUMBER OF ATOMS
35
ITEM: BOX BOUNDS pp pp pp
-1.8537645783665454e+01 1.6718626004740017e+01
-2.4410359695657043e+01 1.4182951453569636e+01
-9.1995921338154147e+00 2.0572250959235255e+01
ITEM: ATOMS id type mol x y z
3765 21 87 -15.4779 -0.353046 12.203
3759 21 83 -13.1679 6.7025 0.886224
3820 21 122 -12.5932 5.92074 17.2415
3692 21 42 -14.8354 10.4467 17.6134
3793 21 103 -11.5608 12.0486 6.40616
3720 21 62 -9.25081 -19.5924 -4.49149
3836 21 132 -9.59082 -23.0036 9.09593
3800 21 108 -7.50317 -15.0867 1.67405
3766 21 88 -7.68791 -17.8287 -1.89548
3849 21 141 -10.7311 -7.27287 -3.03713
3805 21 113 -9.01437 7.80101 12.4765
3757 21 81 -9.74001 10.962 0.372211
3775 21 95 -9.56389 9.4146 3.61768
3763 21 85 1.30529 -12.2117 2.79661
3833 21 129 -2.90055 -10.7279 7.44064
3821 21 123 -2.02571 -9.13355 17.5652
3758 21 82 -1.24108 -7.53244 -4.24129
3810 21 116 2.10283 -4.72522 11.1242
3767 21 89 1.73613 2.74634 4.82326
3802 21 110 1.00613 2.79942 8.21677
3719 21 61 0.13959 -0.639465 20.1676
3843 21 137 -1.95333 10.3593 16.2931
3799 21 107 1.40931 10.4697 18.6306
3721 21 63 -0.442916 11.4635 11.4524
3834 21 130 5.19042 -9.18292 2.63314
3838 21 134 7.47255 -12.4793 16.0525
3725 21 65 5.14262 -0.881839 3.74598
3714 21 58 8.62896 -2.06237 0.526015
3825 21 125 8.53455 -2.33463 13.3562
3839 21 135 15.8927 -14.6436 0.861665
3848 21 140 15.0324 -17.9539 11.875
3745 21 75 10.8484 -1.50616 7.17719
3829 21 127 12.1221 5.95394 1.10269
3804 21 112 16.6993 6.56824 16.6735
3844 21 138 9.95768 13.9159 11.6527
ITEM: TIMESTEP
390000
ITEM: NUMBER OF ATOMS
35
ITEM: BOX BOUNDS pp pp pp
-1.8829291550761241e+01 1.7010271771835804e+01
-2.4575812477702737e+01 1.4348404235615330e+01
-8.9478505520866563e+00 2.0320509377511595e+01
ITEM: ATOMS id type mol x y z
3765 21 87 -15.7189 -0.312227 12.0928
3759 21 83 -13.3707 6.80381 0.9674
3820 21 122 -12.7865 6.01535 17.0461
3692 21 42 -15.0658 10.5801 17.4117
3793 21 103 -11.737 12.1958 6.39399
3720 21 62 -9.38881 -19.7166 -4.31937
3836 21 132 -9.73445 -23.157 9.03827
3800 21 108 -7.61225 -15.1722 1.74191
3766 21 88 -7.80006 -17.9377 -1.76726
3849 21 141 -10.8936 -7.29138 -2.88961
3805 21 113 -9.14846 7.91174 12.3616
3757 21 81 -9.8861 11.0999 0.46208
3775 21 95 -9.70707 9.53917 3.65266
3763 21 85 1.34193 -12.2725 2.84548
3833 21 129 -2.93349 -10.7761 7.41098
3821 21 123 -2.04418 -9.16801 17.3643
3758 21 82 -1.24657 -7.55317 -4.0734
3810 21 116 2.15267 -4.72189 11.0322
3767 21 89 1.7799 2.81373 4.83785
3802 21 110 1.03783 2.86727 8.17398
3719 21 61 0.156947 -0.601102 19.9227
3843 21 137 -1.9706 10.492 16.1137
3799 21 107 1.44767 10.6034 18.4117
3721 21 63 -0.435197 11.6056 11.3549
3834 21 130 5.29134 -9.21781 2.68478
3838 21 134 7.61123 -12.5425 15.8772
3725 21 65 5.24275 -0.845554 3.77879
3714 21 58 8.78677 -2.0362 0.613283
3825 21 125 8.69079 -2.3108 13.2265
3839 21 135 16.1706 -14.7253 0.943256
3848 21 140 15.2962 -18.064 11.7703
3745 21 75 11.0429 -1.47523 7.15198
3829 21 127 12.3377 6.04883 1.1802
3804 21 112 16.9907 6.6684 16.4877
3844 21 138 10.1375 14.0791 11.5518
ITEM: TIMESTEP
395000
ITEM: NUMBER OF ATOMS
34
ITEM: BOX BOUNDS pp pp pp
-1.8522156273871406e+01 1.6703136494945969e+01
-2.4367976796204360e+01 1.4140568554116953e+01
-9.3071154240535918e+00 2.0679774249427787e+01
ITEM: ATOMS id type mol x y z
3765 21 87 -15.4651 -0.363502 12.25
3759 21 83 -13.1571 6.67655 0.851552
3820 21 122 -12.5829 5.8965 17.3249
3692 21 42 -14.8231 10.4125 17.6996
3793 21 103 -11.5514 12.0109 6.41136
3720 21 62 -9.24348 -19.5606 -4.565
3836 21 132 -9.58319 -22.9643 9.12056
3800 21 108 -7.49737 -15.0648 1.64507
3766 21 88 -7.68196 -17.8008 -1.95024
3850 21 142 -10.6765 -9.8334 8.54063
3849 21 141 -10.7225 -7.26812 -3.10015
3805 21 113 -9.00725 7.77264 12.5255
3757 21 81 -9.73225 10.9267 0.333826
3775 21 95 -9.55628 9.38269 3.60274
3763 21 85 1.30334 -12.1961 2.77574
3833 21 129 -2.8988 -10.7156 7.45331
3821 21 123 -2.02473 -9.12472 17.651
3758 21 82 -1.24079 -7.52712 -4.313
3810 21 116 2.10018 -4.72607 11.1635
3767 21 89 1.73381 2.72908 4.81702
3802 21 110 1.00445 2.78204 8.23505
3719 21 61 0.138668 -0.649292 20.2722
3843 21 137 -1.95241 10.3254 16.3697
3799 21 107 1.40727 10.4355 18.7241
3721 21 63 -0.443326 11.4271 11.494
3834 21 130 5.18506 -9.17398 2.61109
3838 21 134 7.46519 -12.4631 16.1273
3725 21 65 5.13731 -0.891134 3.73196
3714 21 58 8.62058 -2.06907 0.488741
3825 21 125 8.52625 -2.34074 13.4116
3839 21 135 15.8779 -14.6226 0.826815
3745 21 75 10.838 -1.51408 7.18796
3804 21 112 16.6839 6.54258 16.7529
3844 21 138 9.94813 13.8741 11.6958
ITEM: TIMESTEP
400000
ITEM: NUMBER OF ATOMS
34
ITEM: BOX BOUNDS pp pp pp
-1.8600883304528807e+01 1.6781863525603370e+01
-2.4404458558539798e+01 1.4177050316452391e+01
-9.0939773458754232e+00 2.0466636171251476e+01
ITEM: ATOMS id type mol x y z
3765 21 87 -15.5301 -0.354502 12.1567
3759 21 83 -13.2119 6.69889 0.92028
3820 21 122 -12.6351 5.91736 17.1595
3692 21 42 -14.8853 10.4419 17.5288
3793 21 103 -11.599 12.0434 6.40106
3720 21 62 -9.28073 -19.588 -4.41928
3836 21 132 -9.62196 -22.9982 9.07174
3800 21 108 -7.52682 -15.0836 1.70252
3766 21 88 -7.71223 -17.8248 -1.84169
3850 21 142 -10.7202 -9.84234 8.50006
3849 21 141 -10.7664 -7.2722 -2.97524
3805 21 113 -9.04345 7.79706 12.4283
3757 21 81 -9.77169 10.9571 0.409914
3775 21 95 -9.59493 9.41016 3.63236
3763 21 85 1.31323 -12.2095 2.81712
3833 21 129 -2.90769 -10.7262 7.4282
3821 21 123 -2.02972 -9.13232 17.4809
3758 21 82 -1.24227 -7.5317 -4.17085
3810 21 116 2.11363 -4.72533 11.0856
3767 21 89 1.74562 2.74394 4.82938
3802 21 110 1.013 2.797 8.19882
3719 21 61 0.143354 -0.640833 20.0648
3843 21 137 -1.95707 10.3546 16.2178
3799 21 107 1.41763 10.465 18.5387
3721 21 63 -0.441243 11.4584 11.4115
3834 21 130 5.2123 -9.18168 2.65481
3838 21 134 7.50262 -12.4771 15.9789
3725 21 65 5.16433 -0.883133 3.75975
3714 21 58 8.66318 -2.0633 0.562627
3825 21 125 8.56843 -2.33548 13.3018
3839 21 135 15.9529 -14.6407 0.895895
3745 21 75 10.8905 -1.50726 7.16662
3804 21 112 16.7625 6.56467 16.5955
3844 21 138 9.99666 13.9101 11.6104
ITEM: TIMESTEP
405000
ITEM: NUMBER OF ATOMS
33
ITEM: BOX BOUNDS pp pp pp
-1.8615932050181538e+01 1.6796912271256101e+01
-2.4434561003703934e+01 1.4207152761616527e+01
-9.1461751065352530e+00 2.0518833931888704e+01
ITEM: ATOMS id type mol x y z
3765 21 87 -15.5426 -0.347075 12.1796
3759 21 83 -13.2223 6.71732 0.903448
3820 21 122 -12.6451 5.93458 17.2
3692 21 42 -14.8972 10.4662 17.5706
3793 21 103 -11.6081 12.0702 6.40358
3720 21 62 -9.28785 -19.6106 -4.45497
3836 21 132 -9.62937 -23.0261 9.0837
3800 21 108 -7.53245 -15.0992 1.68845
3766 21 88 -7.71802 -17.8447 -1.86827
3849 21 141 -10.7747 -7.27557 -3.00583
3805 21 113 -9.05037 7.81721 12.4521
3757 21 81 -9.77923 10.9822 0.39128
3775 21 95 -9.60232 9.43282 3.6251
3763 21 85 1.31513 -12.2206 2.80698
3833 21 129 -2.90939 -10.735 7.43435
3821 21 123 -2.03067 -9.13859 17.5225
3758 21 82 -1.24255 -7.53547 -4.20567
3810 21 116 2.11621 -4.72473 11.1047
3767 21 89 1.74788 2.7562 4.82635
3802 21 110 1.01464 2.80934 8.20769
3719 21 61 0.144249 -0.633853 20.1156
3843 21 137 -1.95797 10.3787 16.255
3799 21 107 1.41961 10.4893 18.5841
3721 21 63 -0.440844 11.4843 11.4317
3834 21 130 5.21751 -9.18802 2.6441
3838 21 134 7.50978 -12.4886 16.0153
3725 21 65 5.1695 -0.876532 3.75294
3714 21 58 8.67132 -2.05854 0.544533
3825 21 125 8.57649 -2.33115 13.3287
3839 21 135 15.9673 -14.6555 0.878978
3745 21 75 10.9006 -1.50163 7.17184
3804 21 112 16.7775 6.58289 16.6341
3844 21 138 10.0059 13.9398 11.6313
ITEM: TIMESTEP
410000
ITEM: NUMBER OF ATOMS
33
ITEM: BOX BOUNDS pp pp pp
-1.8531608882034217e+01 1.6712589103108780e+01
-2.4416177405446025e+01 1.4188769163358618e+01
-9.1529950135250893e+00 2.0525653838860190e+01
ITEM: ATOMS id type mol x y z
3765 21 87 -15.4729 -0.351611 12.1826
3759 21 83 -13.1637 6.70606 0.901249
3820 21 122 -12.5892 5.92406 17.2053
3692 21 42 -14.8306 10.4514 17.5761
3793 21 103 -11.5571 12.0538 6.40391
3720 21 62 -9.24795 -19.5968 -4.45963
3836 21 132 -9.58785 -23.009 9.08526
3800 21 108 -7.50091 -15.0897 1.68661
3766 21 88 -7.68559 -17.8325 -1.87175
3849 21 141 -10.7278 -7.27352 -3.00983
3805 21 113 -9.0116 7.8049 12.4552
3757 21 81 -9.73699 10.9669 0.388846
3775 21 95 -9.56092 9.41898 3.62416
3763 21 85 1.30453 -12.2138 2.80566
3833 21 129 -2.89986 -10.7296 7.43515
3821 21 123 -2.02533 -9.13476 17.528
3758 21 82 -1.24097 -7.53317 -4.21021
3810 21 116 2.1018 -4.7251 11.1072
3767 21 89 1.73523 2.74871 4.82596
3802 21 110 1.00548 2.8018 8.20885
3719 21 61 0.139231 -0.638116 20.1222
3843 21 137 -1.95297 10.364 16.2599
3799 21 107 1.40852 10.4744 18.5901
3721 21 63 -0.443076 11.4685 11.4343
3834 21 130 5.18833 -9.18415 2.6427
3838 21 134 7.46968 -12.4815 16.02
3725 21 65 5.14055 -0.880563 3.75205
3714 21 58 8.62569 -2.06145 0.542168
3825 21 125 8.53131 -2.3338 13.3322
3839 21 135 15.8869 -14.6464 0.876767
3745 21 75 10.8443 -1.50507 7.17253
3804 21 112 16.6933 6.57176 16.6391
3844 21 138 9.95396 13.9216 11.634
ITEM: TIMESTEP
415000
ITEM: NUMBER OF ATOMS
31
ITEM: BOX BOUNDS pp pp pp
-1.8540898220459500e+01 1.6721878441534063e+01
-2.4459797133760635e+01 1.4232388891673228e+01
-9.1788874520487305e+00 2.0551546277363549e+01
ITEM: ATOMS id type mol x y z
3765 21 87 -15.4806 -0.340849 12.1939
3759 21 83 -13.1702 6.73277 0.8929
3820 21 122 -12.5953 5.94901 17.2254
3692 21 42 -14.838 10.4866 17.5969
3793 21 103 -11.5627 12.0926 6.40516
3720 21 62 -9.25234 -19.6295 -4.47733
3836 21 132 -9.59242 -23.0495 9.09119
3800 21 108 -7.50438 -15.1122 1.67963
3766 21 88 -7.68916 -17.8613 -1.88493
3849 21 141 -10.7329 -7.2784 -3.025
3805 21 113 -9.01587 7.8341 12.467
3757 21 81 -9.74164 11.0032 0.379602
3775 21 95 -9.56548 9.45182 3.62056
3763 21 85 1.3057 -12.2299 2.80063
3833 21 129 -2.90091 -10.7423 7.4382
3821 21 123 -2.02592 -9.14385 17.5486
3758 21 82 -1.24114 -7.53863 -4.22748
3810 21 116 2.10338 -4.72422 11.1166
3767 21 89 1.73662 2.76648 4.82446
3802 21 110 1.00649 2.81969 8.21325
3719 21 61 0.139784 -0.628002 20.1474
3843 21 137 -1.95352 10.399 16.2783
3799 21 107 1.40974 10.5097 18.6126
3721 21 63 -0.44283 11.5059 11.4443
3834 21 130 5.19155 -9.19334 2.63739
3838 21 134 7.4741 -12.4982 16.038
3714 21 58 8.63072 -2.05455 0.533193
3825 21 125 8.53629 -2.32751 13.3456
3839 21 135 15.8958 -14.668 0.868375
3804 21 112 16.7026 6.59817 16.6582
3844 21 138 9.95969 13.9647 11.6444
ITEM: TIMESTEP
420000
ITEM: NUMBER OF ATOMS
30
ITEM: BOX BOUNDS pp pp pp
-1.8671473072686240e+01 1.6852453293760803e+01
-2.4317104260044573e+01 1.4089696017957166e+01
-9.1502881599191284e+00 2.0522946985219011e+01
ITEM: ATOMS id type mol x y z
3765 21 87 -15.5885 -0.376053 12.1814
3759 21 83 -13.261 6.6454 0.902122
3820 21 122 -12.6819 5.86741 17.2032
3692 21 42 -14.9411 10.3715 17.5739
3793 21 103 -11.6416 11.9657 6.40378
3720 21 62 -9.31413 -19.5225 -4.45778
3836 21 132 -9.65673 -22.9172 9.08464
3800 21 108 -7.55322 -15.0385 1.68734
3766 21 88 -7.73937 -17.7673 -1.87037
3849 21 141 -10.8057 -7.26243 -3.00824
3805 21 113 -9.0759 7.7386 12.454
3757 21 81 -9.80705 10.8843 0.389812
3775 21 95 -9.62959 9.34439 3.62453
3763 21 85 1.3221 -12.1774 2.80618
3833 21 129 -2.91566 -10.7008 7.43483
3821 21 123 -2.03419 -9.11412 17.5258
3758 21 82 -1.2436 -7.52075 -4.20841
3810 21 116 2.1257 -4.72709 11.1062
3767 21 89 1.75622 2.70836 4.82611
3802 21 110 1.02068 2.76118 8.20839
3719 21 61 0.147555 -0.661087 20.1196
3843 21 137 -1.96125 10.2846 16.258
3721 21 63 -0.439374 11.3834 11.4333
3834 21 130 5.23673 -9.16325 2.64326
3838 21 134 7.53619 -12.4437 16.0181
3714 21 58 8.70137 -2.07711 0.543107
3825 21 125 8.60624 -2.34806 13.3308
3839 21 135 16.0202 -14.5975 0.877645
3804 21 112 16.833 6.51178 16.6371
3844 21 138 10.0402 13.8239 11.6329
ITEM: TIMESTEP
425000
ITEM: NUMBER OF ATOMS
31
ITEM: BOX BOUNDS pp pp pp
-1.8516360398874099e+01 1.6697340619948662e+01
-2.4631551441110272e+01 1.4404143199022865e+01
-9.0559636923581301e+00 2.0428622517649519e+01
ITEM: ATOMS id type mol x y z
3765 21 87 -15.4603 -0.298476 12.1401
3759 21 83 -13.1531 6.83795 0.932538
3820 21 122 -12.5791 6.04722 17.13
3857 21 145 -12.8489 14.2797 2.92359
3692 21 42 -14.8186 10.6251 17.4984
3793 21 103 -11.5479 12.2454 6.39922
3720 21 62 -9.24073 -19.7584 -4.39329
3836 21 132 -9.58034 -23.2087 9.06303
3800 21 108 -7.4952 -15.201 1.71277
3766 21 88 -7.67973 -17.9745 -1.82233
3849 21 141 -10.7193 -7.29762 -2.95297
3805 21 113 -9.00459 7.94905 12.4109
3757 21 81 -9.72935 11.1463 0.423485
3775 21 95 -9.55344 9.58113 3.63764
3763 21 85 1.30262 -12.293 2.82449
3833 21 129 -2.89814 -10.7923 7.42372
3821 21 123 -2.02436 -9.17962 17.4506
3758 21 82 -1.24068 -7.56016 -4.1455
3810 21 116 2.09919 -4.72076 11.0717
3767 21 89 1.73294 2.83644 4.83158
3802 21 110 1.00382 2.89012 8.19236
3719 21 61 0.138323 -0.588178 20.0278
3843 21 137 -1.95207 10.5367 16.1908
3721 21 63 -0.44348 11.6535 11.3967
3834 21 130 5.18305 -9.22956 2.6626
3838 21 134 7.46243 -12.5637 15.9524
3714 21 58 8.61744 -2.02739 0.575805
3825 21 125 8.52314 -2.30278 13.2822
3839 21 135 15.8724 -14.7528 0.908216
3804 21 112 16.6781 6.70215 16.5675
3844 21 138 9.94456 14.134 11.5951
ITEM: TIMESTEP
430000
ITEM: NUMBER OF ATOMS
31
ITEM: BOX BOUNDS pp pp pp
-1.8638242000743020e+01 1.6819222221817583e+01
-2.4408294167473890e+01 1.4180885925386484e+01
-9.0295244077034447e+00 2.0402183232979535e+01
ITEM: ATOMS id type mol x y z
3765 21 87 -15.561 -0.353556 12.1285
3759 21 83 -13.2379 6.70124 0.941063
3820 21 122 -12.6598 5.91956 17.1095
3857 21 145 -12.9316 14.0578 2.92855
3692 21 42 -14.9149 10.445 17.4772
3793 21 103 -11.6215 12.0468 6.39794
3720 21 62 -9.29841 -19.5909 -4.37521
3836 21 132 -9.64036 -23.0017 9.05698
3800 21 108 -7.54079 -15.0856 1.71989
3766 21 88 -7.72659 -17.8273 -1.80886
3849 21 141 -10.7872 -7.27263 -2.93747
3805 21 113 -9.06062 7.79963 12.3989
3757 21 81 -9.7904 10.9603 0.432923
3775 21 95 -9.61327 9.41304 3.64131
3763 21 85 1.31793 -12.2109 2.82963
3833 21 129 -2.91191 -10.7273 7.4206
3821 21 123 -2.03208 -9.13312 17.4295
3758 21 82 -1.24297 -7.53218 -4.12787
3810 21 116 2.12002 -4.72526 11.0621
3767 21 89 1.75123 2.7455 4.83312
3802 21 110 1.01706 2.79857 8.18786
3719 21 61 0.145577 -0.639944 20.0021
3843 21 137 -1.95929 10.3577 16.1719
3721 21 63 -0.440254 11.4617 11.3865
3834 21 130 5.22523 -9.18248 2.66803
3838 21 134 7.52039 -12.4785 15.934
3714 21 58 8.68339 -2.06269 0.58497
3825 21 125 8.58844 -2.33493 13.2686
3839 21 135 15.9885 -14.6426 0.916785
3804 21 112 16.7998 6.56699 16.548
3844 21 138 10.0197 13.9139 11.5845
ITEM: TIMESTEP
435000
ITEM: NUMBER OF ATOMS
32
ITEM: BOX BOUNDS pp pp pp
-1.8544452205121768e+01 1.6725432426196331e+01
-2.4380561816704788e+01 1.4153153574617381e+01
-9.2294602786414224e+00 2.0602119103879300e+01
ITEM: ATOMS id type mol x y z
3765 21 87 -15.4835 -0.360397 12.216
3759 21 83 -13.1726 6.68425 0.876592
3820 21 122 -12.5977 5.9037 17.2647
3865 21 149 -15.6992 7.05464 17.2755
3857 21 145 -12.868 14.0303 2.89108
3692 21 42 -14.8408 10.4227 17.6374
3793 21 103 -11.5649 12.0221 6.40761
3720 21 62 -9.25403 -19.5701 -4.51191
3800 21 108 -7.50571 -15.0713 1.666
3766 21 88 -7.69053 -17.8091 -1.91069
3849 21 141 -10.7349 -7.26953 -3.05464
3805 21 113 -9.0175 7.78107 12.4901
3757 21 81 -9.74342 10.9372 0.361548
3775 21 95 -9.56723 9.39216 3.61353
3763 21 85 1.30614 -12.2007 2.79081
3833 21 129 -2.90131 -10.7193 7.44416
3821 21 123 -2.02614 -9.12734 17.589
3758 21 82 -1.24121 -7.5287 -4.26121
3810 21 116 2.10399 -4.72582 11.1351
3767 21 89 1.73716 2.7342 4.82152
3802 21 110 1.00687 2.7872 8.22185
3719 21 61 0.139995 -0.646374 20.1966
3843 21 137 -1.95373 10.3354 16.3144
3721 21 63 -0.442736 11.4379 11.4639
3834 21 130 5.19278 -9.17664 2.62702
3838 21 134 7.47579 -12.4679 16.0733
3714 21 58 8.63264 -2.06708 0.515661
3825 21 125 8.53819 -2.33892 13.3716
3864 21 148 2.7821 0.563126 6.46933
3839 21 135 15.8991 -14.6289 0.851984
3804 21 112 16.7061 6.5502 16.6955
3844 21 138 9.96188 13.8865 11.6647
ITEM: TIMESTEP
440000
ITEM: NUMBER OF ATOMS
32
ITEM: BOX BOUNDS pp pp pp
-1.8583518433746658e+01 1.6764498654821221e+01
-2.4388628791914183e+01 1.4161220549826776e+01
-9.2279907224231614e+00 2.0600649547643311e+01
ITEM: ATOMS id type mol x y z
3765 21 87 -15.5158 -0.358407 12.2154
3759 21 83 -13.1998 6.68919 0.877066
3820 21 122 -12.6236 5.90831 17.2635
3865 21 149 -15.732 7.05974 17.2743
3857 21 145 -12.8944 14.0383 2.89136
3692 21 42 -14.8716 10.4292 17.6362
3793 21 103 -11.5885 12.0293 6.40754
3720 21 62 -9.27251 -19.5761 -4.5109
3800 21 108 -7.52032 -15.0755 1.6664
3766 21 88 -7.70555 -17.8144 -1.90994
3849 21 141 -10.7567 -7.27043 -3.05378
3805 21 113 -9.03546 7.78647 12.4894
3757 21 81 -9.76299 10.9439 0.362073
3775 21 95 -9.58641 9.39824 3.61373
3763 21 85 1.31105 -12.2037 2.7911
3833 21 129 -2.90573 -10.7216 7.44399
3821 21 123 -2.02862 -9.12902 17.5878
3758 21 82 -1.24194 -7.52971 -4.26023
3810 21 116 2.11067 -4.72565 11.1346
3767 21 89 1.74302 2.73749 4.82161
3802 21 110 1.01112 2.79051 8.2216
3719 21 61 0.14232 -0.644503 20.1952
3843 21 137 -1.95605 10.3419 16.3133
3721 21 63 -0.441702 11.4448 11.4634
3834 21 130 5.20629 -9.17834 2.62732
3838 21 134 7.49437 -12.471 16.0722
3825 21 125 8.55912 -2.33776 13.3709
3864 21 148 2.79028 0.565503 6.46925
3839 21 135 15.9364 -14.6328 0.85246
3867 21 151 12.511 -2.28016 16.8219
3804 21 112 16.7452 6.55508 16.6945
3844 21 138 9.98596 13.8945 11.6641
ITEM: TIMESTEP
445000
ITEM: NUMBER OF ATOMS
33
ITEM: BOX BOUNDS pp pp pp
-1.8535850287709120e+01 1.6716830508783683e+01
-2.4418516353768673e+01 1.4191108111681267e+01
-9.1355682611773865e+00 2.0508227086389450e+01
ITEM: ATOMS id type mol x y z
3765 21 87 -15.4764 -0.351034 12.1749
3759 21 83 -13.1667 6.7075 0.906869
3820 21 122 -12.592 5.9254 17.1918
3865 21 149 -15.692 7.07861 17.2025
3857 21 145 -12.8621 14.068 2.90868
3692 21 42 -14.834 10.4533 17.5621
3793 21 103 -11.5597 12.0559 6.40307
3720 21 62 -9.24996 -19.5986 -4.44771
3800 21 108 -7.50249 -15.0909 1.69131
3766 21 88 -7.68722 -17.8341 -1.86287
3849 21 141 -10.7301 -7.27378 -2.99962
3805 21 113 -9.01355 7.80647 12.4473
3757 21 81 -9.73911 10.9688 0.395067
3775 21 95 -9.563 9.42074 3.62658
3763 21 85 1.30506 -12.2147 2.80904
3833 21 129 -2.90034 -10.7303 7.4331
3821 21 123 -2.0256 -9.13525 17.5141
3758 21 82 -1.24105 -7.53346 -4.19859
3810 21 116 2.10252 -4.72505 11.1008
3767 21 89 1.73586 2.74966 4.82697
3802 21 110 1.00594 2.80276 8.20589
3719 21 61 0.139483 -0.637573 20.1053
3843 21 137 -1.95322 10.3659 16.2475
3721 21 63 -0.442964 11.4705 11.4276
3834 21 130 5.1898 -9.18464 2.64628
3838 21 134 7.4717 -12.4824 16.0079
3868 21 152 8.49792 -2.42868 -0.0665996
3825 21 125 8.53359 -2.33346 13.3233
3864 21 148 2.7803 0.574309 6.4644
3839 21 135 15.8909 -14.6476 0.882415
3867 21 151 12.4748 -2.27576 16.7529
3804 21 112 16.6975 6.57318 16.6262
3844 21 138 9.95657 13.9239 11.627
ITEM: TIMESTEP
450000
ITEM: NUMBER OF ATOMS
35
ITEM: BOX BOUNDS pp pp pp
-1.8684712508125546e+01 1.6865692729200109e+01
-2.4439915712018351e+01 1.4212507469930944e+01
-9.1724542265409923e+00 2.0545113051731459e+01
ITEM: ATOMS id type mol x y z
3765 21 87 -15.5994 -0.345754 12.1911
3759 21 83 -13.2702 6.7206 0.894974
3820 21 122 -12.6906 5.93764 17.2204
3865 21 149 -15.8169 7.09213 17.2312
3857 21 145 -12.9631 14.0893 2.90176
3692 21 42 -14.9516 10.4705 17.5917
3793 21 103 -11.6496 12.0749 6.40485
3720 21 62 -9.3204 -19.6146 -4.47293
3800 21 108 -7.55817 -15.102 1.68137
3766 21 88 -7.74446 -17.8482 -1.88166
3849 21 141 -10.8131 -7.27617 -3.02123
3869 21 153 -10.3642 -0.165347 -4.29478
3805 21 113 -9.08199 7.82079 12.4641
3757 21 81 -9.81368 10.9867 0.381899
3775 21 95 -9.63609 9.43685 3.62145
3871 21 155 0.266011 -14.9441 -8.99191
3763 21 85 1.32377 -12.2226 2.80188
3833 21 129 -2.91716 -10.7365 7.43744
3821 21 123 -2.03502 -9.1397 17.5435
3758 21 82 -1.24385 -7.53614 -4.22319
3810 21 116 2.12796 -4.72462 11.1143
3802 21 110 1.02211 2.81154 8.21216
3719 21 61 0.148342 -0.632612 20.1412
3843 21 137 -1.96204 10.383 16.2738
3721 21 63 -0.439024 11.4889 11.4419
3870 21 154 8.6824 -15.8527 18.8728
3834 21 130 5.24131 -9.18915 2.63871
3838 21 134 7.54248 -12.4906 16.0336
3868 21 152 8.57737 -2.42571 -0.0809164
3825 21 125 8.61334 -2.33038 13.3423
3864 21 148 2.81146 0.580615 6.46634
3839 21 135 16.0328 -14.6582 0.87046
3872 21 156 11.4943 -1.01986 8.73619
3867 21 151 12.5878 -2.27262 16.7805
3804 21 112 16.8462 6.58613 16.6535
ITEM: TIMESTEP
455000
ITEM: NUMBER OF ATOMS
35
ITEM: BOX BOUNDS pp pp pp
-1.8396805480236747e+01 1.6577785701311310e+01
-2.4362994660722961e+01 1.4135586418635555e+01
-9.4363573401932825e+00 2.0809016165337852e+01
ITEM: ATOMS id type mol x y z
3765 21 87 -15.3615 -0.364731 12.3066
3759 21 83 -13.07 6.6735 0.809876
3820 21 122 -12.4998 5.89365 17.4253
3865 21 149 -15.5754 7.04355 17.4362
3857 21 145 -12.7678 14.0128 2.85231
3692 21 42 -14.7241 10.4085 17.8031
3793 21 103 -11.4757 12.0065 6.41761
3720 21 62 -9.18416 -19.5569 -4.65337
3873 21 157 -5.17621 -18.9504 19.1393
3800 21 108 -7.45049 -15.0622 1.61024
3766 21 88 -7.63376 -17.7975 -2.01607
3869 21 153 -10.2111 -0.185042 -4.47205
3805 21 113 -8.94962 7.76931 12.5845
3757 21 81 -9.66946 10.9226 0.287688
3775 21 95 -9.49474 9.37894 3.58478
3871 21 155 0.246971 -14.905 -9.2526
3763 21 85 1.28759 -12.1943 2.75065
3833 21 129 -2.88464 -10.7142 7.46855
3821 21 123 -2.01679 -9.12368 17.7541
3758 21 82 -1.23843 -7.5265 -4.39919
3810 21 116 2.07876 -4.72617 11.2107
3802 21 110 0.990828 2.77999 8.25702
3719 21 61 0.131208 -0.650447 20.3979
3843 21 137 -1.94499 10.3214 16.4618
3721 21 63 -0.446644 11.4228 11.5441
3870 21 154 8.52704 -15.8099 19.107
3834 21 130 5.14168 -9.17293 2.58458
3838 21 134 7.40558 -12.4612 16.2173
3868 21 152 8.42371 -2.4364 -0.183347
3825 21 125 8.45909 -2.34145 13.4782
3864 21 148 2.75119 0.55795 6.48019
3839 21 135 15.7584 -14.6202 0.784927
3872 21 156 11.2934 -1.03615 8.79036
3867 21 151 12.3692 -2.28392 16.9775
3804 21 112 16.5586 6.53956 16.8483
ITEM: TIMESTEP
460000
ITEM: NUMBER OF ATOMS
36
ITEM: BOX BOUNDS pp pp pp
-1.8452199531229912e+01 1.6633179752304475e+01
-2.4316137224863340e+01 1.4088728982775933e+01
-9.2471621121362517e+00 2.0619820937283144e+01
ITEM: ATOMS id type mol x y z
3765 21 87 -15.4073 -0.376292 12.2238
3759 21 83 -13.1085 6.6448 0.870884
3820 21 122 -12.5365 5.86686 17.2784
3865 21 149 -15.6219 7.01395 17.2892
3857 21 145 -12.8054 13.9663 2.88776
3692 21 42 -14.7679 10.3707 17.6516
3793 21 103 -11.5091 11.9648 6.40846
3720 21 62 -9.21037 -19.5217 -4.52401
3873 21 157 -5.18973 -18.9167 18.971
3800 21 108 -7.47121 -15.038 1.66123
3766 21 88 -7.65506 -17.7666 -1.91971
3869 21 153 -10.2406 -0.19704 -4.34497
3805 21 113 -8.97509 7.73795 12.4982
3757 21 81 -9.69721 10.8835 0.355229
3775 21 95 -9.52194 9.34366 3.61107
3877 21 159 1.56949 -23.6078 20.1679
3871 21 155 0.250635 -14.8811 -9.06571
3763 21 85 1.29455 -12.177 2.78738
3833 21 129 -2.89089 -10.7005 7.44625
3821 21 123 -2.0203 -9.11392 17.6031
3758 21 82 -1.23947 -7.52063 -4.27302
3810 21 116 2.08823 -4.72711 11.1416
3802 21 110 0.996847 2.76078 8.22486
3719 21 61 0.134505 -0.661312 20.2138
3843 21 137 -1.94827 10.2838 16.327
3721 21 63 -0.445178 11.3825 11.4708
3870 21 154 8.55693 -15.7839 18.9391
3834 21 130 5.16085 -9.16305 2.62339
3838 21 134 7.43192 -12.4434 16.0856
3868 21 152 8.45328 -2.44292 -0.109913
3825 21 125 8.48877 -2.3482 13.3808
3864 21 148 2.76279 0.544144 6.47026
3839 21 135 15.8112 -14.597 0.846247
3872 21 156 11.3321 -1.04608 8.75153
3867 21 151 12.4113 -2.29081 16.8362
3804 21 112 16.614 6.5112 16.7086
ITEM: TIMESTEP
465000
ITEM: NUMBER OF ATOMS
36
ITEM: BOX BOUNDS pp pp pp
-1.8737924499759014e+01 1.6918904720833577e+01
-2.4192028815405145e+01 1.3964620573317738e+01
-9.2070825332598396e+00 2.0579741358392919e+01
ITEM: ATOMS id type mol x y z
3765 21 87 -15.6434 -0.40691 12.2062
3759 21 83 -13.3072 6.56881 0.883808
3820 21 122 -12.7259 5.79589 17.2473
3865 21 149 -15.8615 6.93557 17.2581
3857 21 145 -12.9991 13.8429 2.89527
3692 21 42 -14.9936 10.2706 17.6194
3793 21 103 -11.6818 11.8544 6.40653
3720 21 62 -9.34557 -19.4286 -4.49661
3873 21 157 -5.25944 -18.8275 18.9354
3800 21 108 -7.57808 -14.9738 1.67203
3766 21 88 -7.76493 -17.6848 -1.89929
3869 21 153 -10.3926 -0.228817 -4.31804
3805 21 113 -9.10645 7.65489 12.4799
3757 21 81 -9.84034 10.7801 0.369537
3775 21 95 -9.66221 9.25022 3.61664
3877 21 159 1.60987 -23.4883 20.129
3871 21 155 0.26953 -14.818 -9.02612
3763 21 85 1.33045 -12.1314 2.79516
3833 21 129 -2.92317 -10.6644 7.44153
3821 21 123 -2.03839 -9.08806 17.5711
3758 21 82 -1.24485 -7.50507 -4.24629
3810 21 116 2.13705 -4.72961 11.1269
3802 21 110 1.0279 2.70988 8.21805
3719 21 61 0.151509 -0.690088 20.1749
3843 21 137 -1.96519 10.1843 16.2984
3721 21 63 -0.437615 11.2759 11.4553
3870 21 154 8.71111 -15.7149 18.9036
3834 21 130 5.25972 -9.13688 2.63161
3838 21 134 7.56778 -12.396 16.0577
3868 21 152 8.60577 -2.46018 -0.0943569
3825 21 125 8.64184 -2.36608 13.3601
3864 21 148 2.8226 0.507577 6.46815
3839 21 135 16.0836 -14.5357 0.859237
3872 21 156 11.5315 -1.07237 8.7433
3867 21 151 12.6282 -2.30906 16.8063
3804 21 112 16.8994 6.43606 16.679
ITEM: TIMESTEP
470000
ITEM: NUMBER OF ATOMS
36
ITEM: BOX BOUNDS pp pp pp
-1.8742578975929117e+01 1.6923559197003680e+01
-2.4490646012928170e+01 1.4263237770840764e+01
-9.1723821182353902e+00 2.0545040943354717e+01
ITEM: ATOMS id type mol x y z
3765 21 87 -15.6472 -0.333239 12.191
3759 21 83 -13.3104 6.75166 0.894998
3820 21 122 -12.729 5.96665 17.2203
3865 21 149 -15.8654 7.12417 17.2311
3857 21 145 -13.0023 14.1397 2.90178
3692 21 42 -14.9973 10.5114 17.5916
3793 21 103 -11.6846 12.12 6.40485
3720 21 62 -9.34778 -19.6527 -4.47288
3873 21 157 -5.26058 -19.0421 18.9045
3800 21 108 -7.57982 -15.1282 1.68139
3766 21 88 -7.76671 -17.8816 -1.88162
3869 21 153 -10.395 -0.152358 -4.29473
3805 21 113 -9.10859 7.85474 12.464
3757 21 81 -9.84267 11.0289 0.381925
3775 21 95 -9.6645 9.47505 3.62146
3877 21 159 1.61052 -23.7759 20.0954
3871 21 155 0.269838 -14.9699 -8.99184
3763 21 85 1.33104 -12.2412 2.8019
3833 21 129 -2.92369 -10.7513 7.43744
3821 21 123 -2.03869 -9.15027 17.5435
3758 21 82 -1.24493 -7.5425 -4.22314
3810 21 116 2.13785 -4.7236 11.1143
3802 21 110 1.0284 2.83234 8.21215
3719 21 61 0.151786 -0.620849 20.1411
3843 21 137 -1.96546 10.4237 16.2737
3721 21 63 -0.437492 11.5324 11.4418
3870 21 154 8.71362 -15.8809 18.8728
3834 21 130 5.26133 -9.19985 2.63872
3838 21 134 7.57 -12.51 16.0335
3868 21 152 8.60826 -2.41865 -0.0808884
3825 21 125 8.64434 -2.32307 13.3422
3864 21 148 2.82358 0.595562 6.46633
3839 21 135 16.088 -14.6832 0.870484
3872 21 156 11.5347 -1.00911 8.73618
3867 21 151 12.6318 -2.26516 16.7804
3804 21 112 16.904 6.61684 16.6534
ITEM: TIMESTEP
475000
ITEM: NUMBER OF ATOMS
38
ITEM: BOX BOUNDS pp pp pp
-1.8816582311950274e+01 1.6997562533024837e+01
-2.4469118118013277e+01 1.4241709875925871e+01
-9.2044423504257793e+00 2.0577101175523460e+01
ITEM: ATOMS id type mol x y z
3885 21 163 -17.9065 -20.4027 5.48975
3765 21 87 -15.7084 -0.33855 12.2051
3759 21 83 -13.3619 6.73848 0.88466
3820 21 122 -12.778 5.95434 17.2452
3857 21 145 -13.0525 14.1183 2.89577
3692 21 42 -15.0557 10.4941 17.6173
3793 21 103 -11.7293 12.1009 6.4064
3720 21 62 -9.38279 -19.6365 -4.4948
3873 21 157 -5.27863 -19.0267 18.933
3800 21 108 -7.6075 -15.1171 1.67275
3766 21 88 -7.79517 -17.8674 -1.89795
3881 21 161 -11.1016 -3.96983 -5.29119
3869 21 153 -10.4344 -0.15787 -4.31627
3805 21 113 -9.14262 7.84033 12.4787
3757 21 81 -9.87974 11.011 0.370479
3775 21 95 -9.70083 9.45884 3.61701
3877 21 159 1.62098 -23.7551 20.1265
3871 21 155 0.274732 -14.959 -9.02351
3763 21 85 1.34034 -12.2333 2.79567
3833 21 129 -2.93205 -10.745 7.44121
3821 21 123 -2.04337 -9.14579 17.569
3758 21 82 -1.24633 -7.5398 -4.24453
3810 21 116 2.15049 -4.72403 11.126
3802 21 110 1.03644 2.82351 8.2176
3719 21 61 0.15619 -0.625841 20.1723
3843 21 137 -1.96985 10.4065 16.2966
3721 21 63 -0.435533 11.5139 11.4542
3870 21 154 8.75356 -15.8689 18.9012
3834 21 130 5.28694 -9.19531 2.63215
3838 21 134 7.60519 -12.5017 16.0558
3868 21 152 8.64775 -2.42164 -0.0933322
3825 21 125 8.68398 -2.32617 13.3587
3864 21 148 2.83907 0.589219 6.46801
3839 21 135 16.1585 -14.6726 0.860093
3886 21 164 13.5249 -11.1423 -6.52012
3872 21 156 11.5864 -1.01367 8.74276
3867 21 151 12.688 -2.26832 16.8043
3804 21 112 16.978 6.60381 16.6771
ITEM: TIMESTEP
480000
ITEM: NUMBER OF ATOMS
37
ITEM: BOX BOUNDS pp pp pp
-1.8302627796258822e+01 1.6483608017333385e+01
-2.4753136503499729e+01 1.4525728261412322e+01
-9.2259322768658585e+00 2.0598591101943384e+01
ITEM: ATOMS id type mol x y z
3765 21 87 -15.2836 -0.26848 12.2145
3759 21 83 -13.0045 6.9124 0.87773
3820 21 122 -12.4374 6.11675 17.2619
3857 21 145 -12.704 14.4005 2.89174
3793 21 103 -11.4188 12.3535 6.40744
3720 21 62 -9.1396 -19.8496 -4.5095
3873 21 157 -5.15323 -19.2308 18.9521
3800 21 108 -7.41526 -15.2638 1.66695
3766 21 88 -7.59754 -18.0546 -1.90889
3881 21 161 -10.809 -3.95305 -5.30703
3869 21 153 -10.161 -0.0851491 -4.33071
3805 21 113 -8.90632 8.03042 12.4885
3757 21 81 -9.62228 11.2476 0.362808
3775 21 95 -9.44851 9.67267 3.61402
3877 21 159 1.54835 -24.0287 20.1473
3871 21 155 0.240743 -15.1034 -9.04474
3763 21 85 1.27576 -12.3378 2.7915
3833 21 129 -2.874 -10.8277 7.44375
3821 21 123 -2.01083 -9.20495 17.5862
3758 21 82 -1.23666 -7.5754 -4.25886
3810 21 116 2.06267 -4.71832 11.1338
3802 21 110 0.980593 2.93998 8.22125
3719 21 61 0.125604 -0.559986 20.1932
3843 21 137 -1.93941 10.6342 16.3119
3887 21 165 -3.04253 11.688 13.4303
3721 21 63 -0.449137 11.7579 11.4626
3870 21 154 8.47622 -16.0267 18.9203
3834 21 130 5.1091 -9.2552 2.62774
3838 21 134 7.3608 -12.6102 16.0708
3868 21 152 8.37345 -2.38214 -0.101673
3825 21 125 8.40864 -2.28527 13.3698
3864 21 148 2.73148 0.672903 6.46914
3839 21 135 15.6687 -14.8129 0.853128
3886 21 164 13.1106 -11.2307 -6.53774
3872 21 156 11.2277 -0.953508 8.74717
3867 21 151 12.2977 -2.22657 16.8204
3804 21 112 16.4646 6.77575 16.6929
ITEM: TIMESTEP
485000
ITEM: NUMBER OF ATOMS
36
ITEM: BOX BOUNDS pp pp pp
-1.8560677350004081e+01 1.6741657571078644e+01
-2.4339831493264793e+01 1.4112423251177386e+01
-9.3211662441793663e+00 2.0693825069227980e+01
ITEM: ATOMS id type mol x y z
3765 21 87 -15.4969 -0.370446 12.2562
3759 21 83 -13.1839 6.65931 0.847021
3820 21 122 -12.6084 5.88041 17.3358
3793 21 103 -11.5747 11.9859 6.41204
3720 21 62 -9.2617 -19.5395 -4.57461
3800 21 108 -7.51178 -15.0502 1.64129
3766 21 88 -7.69677 -17.7822 -1.9574
3881 21 161 -10.9559 -3.97748 -5.37724
3869 21 153 -10.2983 -0.190973 -4.39468
3805 21 113 -9.02496 7.75381 12.5319
3757 21 81 -9.75155 10.9033 0.32881
3775 21 95 -9.57519 9.3615 3.60079
3877 21 159 1.58482 -23.6306 20.2397
3871 21 155 0.257808 -14.8932 -9.13881
3763 21 85 1.30818 -12.1857 2.77301
3833 21 129 -2.90315 -10.7074 7.45497
3821 21 123 -2.02717 -9.11885 17.6622
3758 21 82 -1.24151 -7.5236 -4.32237
3810 21 116 2.10676 -4.72664 11.1686
3802 21 110 1.00864 2.7705 8.23744
3719 21 61 0.140961 -0.655818 20.2858
3888 21 166 1.57374 4.34641 2.59417
3843 21 137 -1.95469 10.3028 16.3797
3887 21 165 -3.07418 11.3344 13.4798
3721 21 63 -0.442307 11.4029 11.4995
3870 21 154 8.61547 -15.797 19.0048
3834 21 130 5.19839 -9.16805 2.60821
3838 21 134 7.4835 -12.4524 16.1371
3868 21 152 8.51117 -2.43963 -0.138637
3825 21 125 8.54689 -2.34479 13.4189
3864 21 148 2.7855 0.551126 6.47414
3839 21 135 15.9146 -14.6087 0.822261
3886 21 164 13.3186 -11.102 -6.6158
3872 21 156 11.4078 -1.04106 8.76672
3867 21 151 12.4936 -2.28733 16.8915
3804 21 112 16.7223 6.52554 16.7632
ITEM: TIMESTEP
490000
ITEM: NUMBER OF ATOMS
35
ITEM: BOX BOUNDS pp pp pp
-1.8628001631325112e+01 1.6808981852399675e+01
-2.4317401076487311e+01 1.4089992834399904e+01
-9.2796919756163092e+00 2.0652350800651597e+01
ITEM: ATOMS id type mol x y z
3765 21 87 -15.5525 -0.37598 12.238
3759 21 83 -13.2307 6.64558 0.860395
3820 21 122 -12.6531 5.86758 17.3036
3793 21 103 -11.6154 11.966 6.41004
3720 21 62 -9.29356 -19.5227 -4.54625
3800 21 108 -7.53696 -15.0386 1.65246
3766 21 88 -7.72266 -17.7675 -1.93628
3881 21 161 -10.9942 -3.9788 -5.34666
3869 21 153 -10.3341 -0.196716 -4.36682
3805 21 113 -9.05592 7.73879 12.513
3757 21 81 -9.78527 10.8846 0.343616
3775 21 95 -9.60825 9.34461 3.60655
3877 21 159 1.59433 -23.609 20.1995
3871 21 155 0.262261 -14.8818 -9.09784
3763 21 85 1.31664 -12.1775 2.78106
3833 21 129 -2.91075 -10.7009 7.45008
3821 21 123 -2.03143 -9.11418 17.6291
3758 21 82 -1.24278 -7.52078 -4.29471
3810 21 116 2.11827 -4.72709 11.1535
3802 21 110 1.01595 2.7613 8.23039
3888 21 166 1.58322 4.33537 2.60272
3843 21 137 -1.95868 10.2848 16.3502
3887 21 165 -3.08244 11.3152 13.4582
3721 21 63 -0.440525 11.3836 11.4834
3870 21 154 8.6518 -15.7846 18.968
3834 21 130 5.22169 -9.16332 2.61672
3838 21 134 7.51552 -12.4438 16.1082
3868 21 152 8.54711 -2.44275 -0.122539
3825 21 125 8.58295 -2.34802 13.3975
3864 21 148 2.79959 0.544517 6.47196
3839 21 135 15.9788 -14.5977 0.835704
3886 21 164 13.3729 -11.095 -6.5818
3872 21 156 11.4548 -1.04581 8.7582
3867 21 151 12.5448 -2.29063 16.8605
3804 21 112 16.7896 6.51196 16.7326
ITEM: TIMESTEP
495000
ITEM: NUMBER OF ATOMS
35
ITEM: BOX BOUNDS pp pp pp
-1.8564665646359515e+01 1.6745645867434078e+01
-2.4347866494056159e+01 1.4120458251968753e+01
-9.2701557298530233e+00 2.0642814554871681e+01
ITEM: ATOMS id type mol x y z
3765 21 87 -15.5002 -0.368464 12.2338
3759 21 83 -13.1867 6.66423 0.86347
3820 21 122 -12.6111 5.885 17.2962
3793 21 103 -11.5771 11.993 6.40958
3720 21 62 -9.26359 -19.5455 -4.53973
3800 21 108 -7.51327 -15.0544 1.65503
3766 21 88 -7.6983 -17.7875 -1.93142
3890 21 168 -11.1369 -6.22677 -3.44899
3881 21 161 -10.9582 -3.977 -5.33963
3869 21 153 -10.3004 -0.188916 -4.36041
3805 21 113 -9.0268 7.75918 12.5086
3757 21 81 -9.75355 10.91 0.34702
3775 21 95 -9.57715 9.36755 3.60787
3877 21 159 1.58538 -23.6384 20.1902
3871 21 155 0.258072 -14.8973 -9.08842
3763 21 85 1.30868 -12.1887 2.78291
3833 21 129 -2.9036 -10.7098 7.44896
3821 21 123 -2.02742 -9.12053 17.6215
3758 21 82 -1.24159 -7.5246 -4.28835
3810 21 116 2.10745 -4.72647 11.15
3889 21 167 1.5406 2.70945 4.98488
3802 21 110 1.00907 2.77379 8.22877
3843 21 137 -1.95493 10.3092 16.3434
3887 21 165 -3.07467 11.3413 13.4533
3721 21 63 -0.442201 11.4098 11.4797
3870 21 154 8.61762 -15.8015 18.9595
3834 21 130 5.19977 -9.16974 2.61867
3838 21 134 7.4854 -12.4555 16.1016
3868 21 152 8.5133 -2.43851 -0.118838
3825 21 125 8.54902 -2.34363 13.3926
3864 21 148 2.78633 0.553493 6.47146
3839 21 135 15.9184 -14.6127 0.838794
3872 21 156 11.4106 -1.03936 8.75625
3867 21 151 12.4967 -2.28615 16.8534
3804 21 112 16.7263 6.53041 16.7256
ITEM: TIMESTEP
500000
ITEM: NUMBER OF ATOMS
36
ITEM: BOX BOUNDS pp pp pp
-1.8361812155544442e+01 1.6542792376619005e+01
-2.4468229096382920e+01 1.4240820854295514e+01
-9.2999731202974125e+00 2.0672631945295123e+01
ITEM: ATOMS id type mol x y z
3765 21 87 -15.3326 -0.338769 12.2469
3759 21 83 -13.0456 6.73794 0.853855
3820 21 122 -12.4766 5.95383 17.3194
3793 21 103 -11.4545 12.1001 6.41102
3720 21 62 -9.1676 -19.6359 -4.56012
3800 21 108 -7.4374 -15.1166 1.647
3766 21 88 -7.6203 -17.8668 -1.94661
3890 21 168 -11.0194 -6.23374 -3.4672
3881 21 161 -10.8427 -3.96989 -5.36161
3891 21 169 -4.48948 2.5526 -5.78757
3869 21 153 -10.1925 -0.158098 -4.38044
3805 21 113 -8.93353 7.83974 12.5222
3757 21 81 -9.65193 11.0102 0.336376
3775 21 95 -9.47756 9.45817 3.60373
3877 21 159 1.55672 -23.7543 20.2191
3871 21 155 0.244657 -14.9585 -9.11788
3763 21 85 1.2832 -12.233 2.77713
3833 21 129 -2.88069 -10.7448 7.45247
3821 21 123 -2.01458 -9.1456 17.6453
3758 21 82 -1.23777 -7.53969 -4.30824
3810 21 116 2.07278 -4.72405 11.1609
3889 21 167 1.51245 2.75841 4.98348
3802 21 110 0.987025 2.82315 8.23384
3843 21 137 -1.94292 10.4057 16.3646
3887 21 165 -3.04979 11.4442 13.4687
3721 21 63 -0.447571 11.5132 11.4913
3870 21 154 8.50815 -15.8684 18.986
3834 21 130 5.12958 -9.19512 2.61256
3838 21 134 7.38895 -12.5014 16.1224
3868 21 152 8.40504 -2.42177 -0.130411
3825 21 125 8.44035 -2.3263 13.408
3864 21 148 2.74387 0.588957 6.47303
3839 21 135 15.7251 -14.6722 0.82913
3872 21 156 11.269 -1.01386 8.76237
3867 21 151 12.3426 -2.26845 16.8757
3804 21 112 16.5237 6.60327 16.7476
ITEM: TIMESTEP
505000
ITEM: NUMBER OF ATOMS
36
ITEM: BOX BOUNDS pp pp pp
-1.8443161004964399e+01 1.6624141226038962e+01
-2.4437890645236919e+01 1.4210482403149513e+01
-9.2788996168503708e+00 2.0651558441832712e+01
ITEM: ATOMS id type mol x y z
3765 21 87 -15.3998 -0.346254 12.2377
3759 21 83 -13.1022 6.71936 0.86065
3820 21 122 -12.5306 5.93648 17.303
3793 21 103 -11.5037 12.0731 6.41
3720 21 62 -9.2061 -19.6131 -4.54571
3800 21 108 -7.46782 -15.1009 1.65268
3766 21 88 -7.65158 -17.8468 -1.93587
3890 21 168 -11.0665 -6.23198 -3.45433
3881 21 161 -10.889 -3.97168 -5.34608
3891 21 169 -4.50617 2.54059 -5.77144
3869 21 153 -10.2358 -0.165866 -4.36629
3805 21 113 -8.97093 7.81943 12.5126
3757 21 81 -9.69268 10.985 0.343899
3775 21 95 -9.5175 9.43533 3.60666
3877 21 159 1.56821 -23.7251 20.1987
3871 21 155 0.250037 -14.9431 -9.09706
3763 21 85 1.29342 -12.2218 2.78122
3892 21 170 1.27487 -8.02842 20.0385
3833 21 129 -2.88987 -10.7359 7.44999
3821 21 123 -2.01973 -9.13928 17.6285
3758 21 82 -1.2393 -7.53589 -4.29418
3810 21 116 2.08668 -4.72466 11.1532
3889 21 167 1.52374 2.74607 4.98447
3802 21 110 0.995865 2.81071 8.23026
3843 21 137 -1.94774 10.3814 16.3496
3887 21 165 -3.05977 11.4183 13.4578
3870 21 154 8.55205 -15.8515 18.9673
3834 21 130 5.15773 -9.18873 2.61688
3838 21 134 7.42763 -12.4898 16.1077
3868 21 152 8.44845 -2.42599 -0.122232
3825 21 125 8.48393 -2.33067 13.3971
3864 21 148 2.7609 0.580018 6.47192
3839 21 135 15.8026 -14.6572 0.83596
3872 21 156 11.3258 -1.02029 8.75804
3867 21 151 12.4044 -2.27291 16.8599
3804 21 112 16.605 6.58491 16.732
ITEM: TIMESTEP
510000
ITEM: NUMBER OF ATOMS
36
ITEM: BOX BOUNDS pp pp pp
-1.8527942038800674e+01 1.6708922259875237e+01
-2.4481876809500505e+01 1.4254468567413099e+01
-9.2005054274903735e+00 2.0573164252464363e+01
ITEM: ATOMS id type mol x y z
3765 21 87 -15.4699 -0.335402 12.2034
3759 21 83 -13.1612 6.74629 0.885929
3820 21 122 -12.5867 5.96163 17.2422
3793 21 103 -11.5549 12.1122 6.40621
3720 21 62 -9.24621 -19.6461 -4.49211
3800 21 108 -7.49954 -15.1237 1.67381
3766 21 88 -7.68418 -17.8758 -1.89594
3890 21 168 -11.1156 -6.23453 -3.40645
3881 21 161 -10.9373 -3.96908 -5.28829
3891 21 169 -4.52356 2.55801 -5.71142
3869 21 153 -10.2809 -0.154603 -4.31363
3805 21 113 -9.00991 7.84887 12.4769
3757 21 81 -9.73515 11.0216 0.371885
3775 21 95 -9.55912 9.46844 3.61755
3877 21 159 1.58019 -23.7674 20.1227
3871 21 155 0.255644 -14.9654 -9.01962
3763 21 85 1.30407 -12.238 2.79644
3892 21 170 1.28543 -8.03505 19.9633
3833 21 129 -2.89945 -10.7487 7.44075
3821 21 123 -2.0251 -9.14844 17.5659
3758 21 82 -1.2409 -7.5414 -4.2419
3810 21 116 2.10117 -4.72378 11.1245
3889 21 167 1.5355 2.76396 4.98814
3802 21 110 1.00508 2.82874 8.21693
3843 21 137 -1.95276 10.4167 16.2937
3887 21 165 -3.07017 11.4559 13.4171
3870 21 154 8.5978 -15.876 18.8977
3834 21 130 5.18706 -9.198 2.63296
3838 21 134 7.46794 -12.5066 16.0531
3868 21 152 8.4937 -2.41987 -0.0918041
3825 21 125 8.52935 -2.32433 13.3567
3864 21 148 2.77865 0.592978 6.46781
3839 21 135 15.8834 -14.6789 0.861369
3872 21 156 11.3849 -1.01097 8.74195
3867 21 151 12.4688 -2.26645 16.8014
3804 21 112 16.6896 6.61153 16.6742
ITEM: TIMESTEP
515000
ITEM: NUMBER OF ATOMS
36
ITEM: BOX BOUNDS pp pp pp
-1.8497641991739048e+01 1.6678622212813611e+01
-2.4373251219707207e+01 1.4145842977619800e+01
-9.3588757918194538e+00 2.0731534616756523e+01
ITEM: ATOMS id type mol x y z
3765 21 87 -15.4448 -0.362201 12.2727
3759 21 83 -13.1401 6.67978 0.834861
3820 21 122 -12.5667 5.89952 17.3651
3793 21 103 -11.5366 12.0156 6.41387
3897 21 173 -15.9109 12.2341 16.0677
3720 21 62 -9.23188 -19.5646 -4.60039
3800 21 108 -7.4882 -15.0675 1.63112
3766 21 88 -7.67253 -17.8043 -1.97661
3890 21 168 -11.0981 -6.22824 -3.50318
3881 21 161 -10.92 -3.9755 -5.40504
3891 21 169 -4.51735 2.51498 -5.83267
3869 21 153 -10.2647 -0.182416 -4.42001
3896 21 172 -8.27016 -0.210395 19.417
3805 21 113 -8.99598 7.77617 12.5491
3757 21 81 -9.71997 10.9311 0.315348
3877 21 159 1.57591 -23.6628 20.2762
3871 21 155 0.25364 -14.9102 -9.17606
3763 21 85 1.30026 -12.198 2.76569
3892 21 170 1.28165 -8.01867 20.1152
3821 21 123 -2.02318 -9.12582 17.6923
3758 21 82 -1.24033 -7.52778 -4.34752
3810 21 116 2.09599 -4.72596 11.1824
3889 21 167 1.5313 2.71978 4.98072
3802 21 110 1.00179 2.7842 8.24385
3843 21 137 -1.95096 10.3296 16.4066
3887 21 165 -3.06645 11.363 13.4993
3870 21 154 8.58145 -15.8156 19.0383
3834 21 130 5.17658 -9.17509 2.60047
3838 21 134 7.45353 -12.4652 16.1634
3868 21 152 8.47753 -2.43498 -0.153274
3825 21 125 8.51312 -2.33998 13.4383
3864 21 148 2.7723 0.560972 6.47612
3839 21 135 15.8545 -14.6252 0.810039
3872 21 156 11.3638 -1.03398 8.77446
3867 21 151 12.4458 -2.28242 16.9196
3804 21 112 16.6594 6.54577 16.7911
ITEM: TIMESTEP
520000
ITEM: NUMBER OF ATOMS
36
ITEM: BOX BOUNDS pp pp pp
-1.8448128953068828e+01 1.6629109174143391e+01
-2.4451406484235651e+01 1.4223998242148244e+01
-9.4039738302005631e+00 2.0776632655114522e+01
ITEM: ATOMS id type mol x y z
3765 21 87 -15.4039 -0.342919 12.2924
3759 21 83 -13.1057 6.72764 0.820319
3820 21 122 -12.5338 5.94421 17.4001
3793 21 103 -11.5067 12.0851 6.41605
3897 21 173 -15.8686 12.3045 16.0988
3720 21 62 -9.20845 -19.6232 -4.63123
3800 21 108 -7.46968 -15.1079 1.61897
3766 21 88 -7.65349 -17.8558 -1.99958
3890 21 168 -11.0694 -6.23277 -3.53073
3881 21 161 -10.8919 -3.97088 -5.43828
3891 21 169 -4.50719 2.54594 -5.8672
3869 21 153 -10.2384 -0.162405 -4.4503
3896 21 172 -8.24944 -0.190497 19.4581
3805 21 113 -8.97322 7.82848 12.5697
3757 21 81 -9.69517 10.9962 0.299249
3877 21 159 1.56891 -23.7381 20.32
3871 21 155 0.250365 -14.9499 -9.22061
3763 21 85 1.29404 -12.2268 2.75694
3892 21 170 1.27549 -8.03046 20.1585
3821 21 123 -2.02004 -9.1421 17.7283
3758 21 82 -1.2394 -7.53758 -4.3776
3810 21 116 2.08753 -4.72439 11.1989
3889 21 167 1.52443 2.75157 4.9786
3802 21 110 0.996405 2.81625 8.25152
3843 21 137 -1.94803 10.3923 16.4387
3887 21 165 -3.06038 11.4299 13.5228
3870 21 154 8.55473 -15.859 19.0783
3834 21 130 5.15944 -9.19158 2.59122
3838 21 134 7.42999 -12.495 16.1948
3868 21 152 8.4511 -2.42411 -0.170778
3825 21 125 8.48659 -2.32872 13.4616
3864 21 148 2.76194 0.584 6.47849
3839 21 135 15.8073 -14.6638 0.795423
3872 21 156 11.3292 -1.01742 8.78371
3867 21 151 12.4082 -2.27093 16.9533
3804 21 112 16.6099 6.59309 16.8243
ITEM: TIMESTEP
525000
ITEM: NUMBER OF ATOMS
37
ITEM: BOX BOUNDS pp pp pp
-1.8757382487452663e+01 1.6938362708527226e+01
-2.4282797848007540e+01 1.4055389605920134e+01
-9.2106038252001383e+00 2.0583262650120254e+01
ITEM: ATOMS id type mol x y z
3898 21 174 -13.3831 -7.73238 5.82535
3765 21 87 -15.6595 -0.384517 12.2078
3759 21 83 -13.3207 6.62439 0.882673
3820 21 122 -12.7388 5.84779 17.25
3793 21 103 -11.6935 11.9352 6.4067
3897 21 173 -16.1324 12.1526 15.9653
3720 21 62 -9.35478 -19.4967 -4.49902
3800 21 108 -7.58536 -15.0208 1.67109
3766 21 88 -7.77241 -17.7446 -1.90109
3890 21 168 -11.2485 -6.22301 -3.41262
3881 21 161 -11.0679 -3.98085 -5.29573
3891 21 169 -4.57063 2.47915 -5.71915
3869 21 153 -10.4029 -0.205576 -4.32041
3896 21 172 -8.37886 -0.233423 19.2817
3805 21 113 -9.1154 7.71564 12.4815
3757 21 81 -9.85008 10.8558 0.36828
3877 21 159 1.61262 -23.5757 20.1325
3871 21 155 0.270817 -14.8642 -9.02959
3763 21 85 1.3329 -12.1648 2.79448
3892 21 170 1.31401 -8.00503 19.973
3821 21 123 -2.03963 -9.10697 17.574
3758 21 82 -1.24521 -7.51645 -4.24863
3810 21 116 2.14038 -4.72778 11.1282
3889 21 167 1.56734 2.68299 4.98767
3802 21 110 1.03001 2.74711 8.21865
3843 21 137 -1.96634 10.2571 16.3009
3887 21 165 -3.0983 11.2856 13.4223
3870 21 154 8.72161 -15.7654 18.9067
3834 21 130 5.26646 -9.15602 2.63089
3838 21 134 7.57704 -12.4306 16.0601
3868 21 152 8.61616 -2.44756 -0.0957236
3825 21 125 8.65227 -2.353 13.3619
3864 21 148 2.82668 0.534321 6.46834
3839 21 135 16.1021 -14.5806 0.858096
3872 21 156 11.545 -1.05314 8.74402
3867 21 151 12.643 -2.29571 16.8089
3804 21 112 16.9188 6.49101 16.6816
ITEM: TIMESTEP
530000
ITEM: NUMBER OF ATOMS
35
ITEM: BOX BOUNDS pp pp pp
-1.8342127190350876e+01 1.6523107411425439e+01
-2.4270600955622744e+01 1.4043192713535337e+01
-9.5562080656889066e+00 2.0928866890548520e+01
ITEM: ATOMS id type mol x y z
3898 21 174 -13.0929 -7.73071 5.82858
3765 21 87 -15.3163 -0.387526 12.3591
3759 21 83 -13.0319 6.61692 0.771229
3820 21 122 -12.4636 5.84082 17.5183
3793 21 103 -11.4426 11.9243 6.42341
3897 21 173 -15.7782 12.1416 16.2038
3720 21 62 -9.15829 -19.4876 -4.73531
3800 21 108 -7.43003 -15.0145 1.57793
3766 21 88 -7.61273 -17.7366 -2.07711
3890 21 168 -11.008 -6.2223 -3.62371
3881 21 161 -10.8315 -3.98157 -5.55051
3869 21 153 -10.182 -0.208699 -4.55256
3896 21 172 -8.20508 -0.236529 19.5971
3805 21 113 -8.92448 7.70747 12.6391
3757 21 81 -9.64207 10.8456 0.244903
3899 21 175 -0.748392 -17.8324 -2.31043
3763 21 85 1.28072 -12.1603 2.72739
3892 21 170 1.26228 -8.00319 20.3045
3821 21 123 -2.01333 -9.10443 17.8497
3758 21 82 -1.2374 -7.51492 -4.47912
3810 21 116 2.06942 -4.72803 11.2545
3889 21 167 1.50972 2.67803 4.97146
3802 21 110 0.984886 2.74211 8.2774
3843 21 137 -1.94175 10.2473 16.5472
3887 21 165 -3.04738 11.2752 13.6018
3870 21 154 8.49753 -15.7586 19.2134
3834 21 130 5.12276 -9.15345 2.56
3838 21 134 7.37959 -12.426 16.3008
3868 21 152 8.39453 -2.44926 -0.229865
3825 21 125 8.4298 -2.35476 13.54
3864 21 148 2.73975 0.530727 6.48648
3839 21 135 15.7063 -14.5746 0.746082
3872 21 156 11.2553 -1.05572 8.81496
3867 21 151 12.3277 -2.29751 17.067
3804 21 112 16.504 6.48363 16.9367
ITEM: TIMESTEP
535000
ITEM: NUMBER OF ATOMS
35
ITEM: BOX BOUNDS pp pp pp
-1.8490694677341118e+01 1.6671674898415681e+01
-2.4432394651421998e+01 1.4204986409334591e+01
-9.4240847179243481e+00 2.0796743542782448e+01
ITEM: ATOMS id type mol x y z
3898 21 174 -13.1967 -7.75281 5.82735
3765 21 87 -15.4391 -0.34761 12.3012
3759 21 83 -13.1353 6.71599 0.813834
3820 21 122 -12.5621 5.93334 17.4157
3793 21 103 -11.5324 12.0682 6.41702
3897 21 173 -15.9049 12.2874 16.1126
3720 21 62 -9.22859 -19.609 -4.64498
3900 21 176 -7.24525 -19.4677 8.434
3800 21 108 -7.4856 -15.0981 1.61355
3766 21 88 -7.66986 -17.8432 -2.00982
3890 21 168 -11.094 -6.23166 -3.54301
3881 21 161 -10.9161 -3.97201 -5.45311
3869 21 153 -10.261 -0.167273 -4.46381
3896 21 172 -8.26725 -0.195337 19.4765
3805 21 113 -8.99279 7.81576 12.5789
3757 21 81 -9.71649 10.9804 0.292069
3899 21 175 -0.747019 -17.9398 -2.24111
3763 21 85 1.29939 -12.2198 2.75303
3892 21 170 1.28079 -8.02759 20.1777
3821 21 123 -2.02274 -9.13814 17.7443
3758 21 82 -1.2402 -7.5352 -4.39101
3810 21 116 2.0948 -4.72477 11.2062
3889 21 167 1.53034 2.74384 4.97766
3802 21 110 1.00103 2.80845 8.25494
3843 21 137 -1.95055 10.377 16.4531
3887 21 165 -3.0656 11.4136 13.5332
3870 21 154 8.5777 -15.8485 19.0962
3834 21 130 5.17417 -9.18757 2.5871
3838 21 134 7.45023 -12.4877 16.2088
3868 21 152 8.47382 -2.42675 -0.178584
3825 21 125 8.50939 -2.33146 13.4719
3864 21 148 2.77085 0.578399 6.47954
3839 21 135 15.8479 -14.6545 0.788905
3872 21 156 11.3589 -1.02145 8.78784
3867 21 151 12.4405 -2.27372 16.9683
ITEM: TIMESTEP
540000
ITEM: NUMBER OF ATOMS
34
ITEM: BOX BOUNDS pp pp pp
-1.8449912802847173e+01 1.6630893023921736e+01
-2.4385487364719740e+01 1.4158079122632333e+01
-9.4171107439000252e+00 2.0789769568741221e+01
ITEM: ATOMS id type mol x y z
3898 21 174 -13.1682 -7.74641 5.82728
3765 21 87 -15.4054 -0.359182 12.2982
3759 21 83 -13.1069 6.68727 0.816083
3820 21 122 -12.535 5.90651 17.4103
3793 21 103 -11.5078 12.0265 6.41668
3897 21 173 -15.8701 12.2451 16.1078
3720 21 62 -9.20929 -19.5738 -4.64021
3900 21 176 -7.23055 -19.4329 8.43273
3800 21 108 -7.47035 -15.0738 1.61542
3766 21 88 -7.65418 -17.8123 -2.00627
3890 21 168 -11.0704 -6.22895 -3.53875
3881 21 161 -10.8929 -3.97478 -5.44797
3869 21 153 -10.2394 -0.179283 -4.45913
3896 21 172 -8.25019 -0.20728 19.4701
3805 21 113 -8.97404 7.78436 12.5757
3757 21 81 -9.69606 10.9413 0.294559
3899 21 175 -0.747395 -17.9087 -2.23746
3763 21 85 1.29427 -12.2025 2.75439
3892 21 170 1.27571 -8.02051 20.1711
3821 21 123 -2.02016 -9.12837 17.7387
3758 21 82 -1.23943 -7.52932 -4.38636
3810 21 116 2.08784 -4.72572 11.2037
3889 21 167 1.52468 2.72476 4.97799
3802 21 110 0.996599 2.78922 8.25375
3843 21 137 -1.94814 10.3394 16.4481
3887 21 165 -3.0606 11.3735 13.5296
3870 21 154 8.5557 -15.8224 19.09
3834 21 130 5.16006 -9.17767 2.58853
3868 21 152 8.45206 -2.43328 -0.175877
3825 21 125 8.48755 -2.33822 13.4683
3864 21 148 2.76231 0.564578 6.47918
3839 21 135 15.809 -14.6313 0.791165
3872 21 156 11.3305 -1.03139 8.78641
3867 21 151 12.4095 -2.28062 16.9631
ITEM: TIMESTEP
545000
ITEM: NUMBER OF ATOMS
35
ITEM: BOX BOUNDS pp pp pp
-1.8560734481793528e+01 1.6741714702868091e+01
-2.4413653144674512e+01 1.4186244902587106e+01
-9.3249701866817141e+00 2.0697629011517005e+01
ITEM: ATOMS id type mol x y z
3898 21 174 -13.2457 -7.75025 5.82642
3765 21 87 -15.497 -0.352233 12.2578
3759 21 83 -13.184 6.70452 0.845794
3820 21 122 -12.6085 5.92262 17.3388
3793 21 103 -11.5747 12.0516 6.41223
3897 21 173 -15.9647 12.2705 16.0443
3720 21 62 -9.26173 -19.5949 -4.57721
3900 21 176 -7.27049 -19.4538 8.41598
3800 21 108 -7.5118 -15.0884 1.64026
3766 21 88 -7.69679 -17.8309 -1.95934
3890 21 168 -11.1346 -6.23058 -3.48247
3881 21 161 -10.956 -3.97311 -5.38004
3869 21 153 -10.2983 -0.172072 -4.39723
3896 21 172 -8.29656 -0.200109 19.386
3805 21 113 -9.02499 7.80321 12.5337
3757 21 81 -9.75158 10.9648 0.327452
3899 21 175 -0.746371 -17.9274 -2.18912
3763 21 85 1.30819 -12.2129 2.77227
3892 21 170 1.28951 -8.02476 20.0827
3821 21 123 -2.02717 -9.13423 17.6652
3758 21 82 -1.24151 -7.53285 -4.32491
3810 21 116 2.10677 -4.72515 11.17
3889 21 167 1.54005 2.73621 4.98231
3802 21 110 1.00864 2.80077 8.23809
3843 21 137 -1.9547 10.362 16.3824
3887 21 165 -3.07419 11.3976 13.4817
3901 21 177 4.3406 -24.2254 20.071
3870 21 154 8.6155 -15.8381 19.0082
3834 21 130 5.19841 -9.18361 2.60743
3868 21 152 8.5112 -2.42936 -0.140113
3825 21 125 8.54692 -2.33416 13.4208
3864 21 148 2.78551 0.572877 6.47434
3839 21 135 15.9147 -14.6452 0.821029
3872 21 156 11.4078 -1.02542 8.7675
3867 21 151 12.4937 -2.27648 16.8943
ITEM: TIMESTEP
550000
ITEM: NUMBER OF ATOMS
35
ITEM: BOX BOUNDS pp pp pp
-1.8613966234415088e+01 1.6794946455489651e+01
-2.4439685892238678e+01 1.4212277650151272e+01
-9.3436804484627203e+00 2.0716339273277718e+01
ITEM: ATOMS id type mol x y z
3898 21 174 -13.2829 -7.75381 5.82659
3765 21 87 -15.5409 -0.345811 12.266
3759 21 83 -13.221 6.72046 0.839761
3820 21 122 -12.6438 5.93751 17.3533
3793 21 103 -11.6069 12.0747 6.41313
3897 21 173 -16.0101 12.2939 16.0572
3720 21 62 -9.28692 -19.6144 -4.59
3900 21 176 -7.28967 -19.4732 8.41938
3800 21 108 -7.53171 -15.1018 1.63522
3766 21 88 -7.71726 -17.848 -1.96887
3890 21 168 -11.1655 -6.23209 -3.4939
3881 21 161 -10.9863 -3.97157 -5.39383
3869 21 153 -10.3266 -0.165406 -4.4098
3896 21 172 -8.31884 -0.193481 19.4031
3805 21 113 -9.04946 7.82064 12.5422
3757 21 81 -9.77824 10.9865 0.320773
3899 21 175 -0.745879 -17.9446 -2.19893
3763 21 85 1.31488 -12.2225 2.76864
3892 21 170 1.29615 -8.02869 20.1006
3821 21 123 -2.03054 -9.13966 17.6802
3758 21 82 -1.24252 -7.53611 -4.33739
3810 21 116 2.11587 -4.72463 11.1768
3889 21 167 1.54744 2.7468 4.98143
3802 21 110 1.01443 2.81144 8.24127
3843 21 137 -1.95785 10.3829 16.3958
3887 21 165 -3.08071 11.4198 13.4914
3901 21 177 4.35644 -24.2512 20.0889
3870 21 154 8.64422 -15.8525 19.0248
3834 21 130 5.21683 -9.1891 2.60359
3868 21 152 8.53961 -2.42574 -0.147376
3825 21 125 8.57544 -2.33041 13.4305
3864 21 148 2.79665 0.580547 6.47532
3839 21 135 15.9654 -14.6581 0.814964
3872 21 156 11.445 -1.01991 8.77134
3867 21 151 12.5341 -2.27265 16.9083
ITEM: TIMESTEP
555000
ITEM: NUMBER OF ATOMS
36
ITEM: BOX BOUNDS pp pp pp
-1.8397519451185421e+01 1.6578499672259984e+01
-2.4511606735653370e+01 1.4284198493565963e+01
-9.3893839325766422e+00 2.0762042757367883e+01
ITEM: ATOMS id type mol x y z
3898 21 174 -13.1316 -7.76364 5.82702
3765 21 87 -15.3621 -0.328067 12.286
3759 21 83 -13.0705 6.7645 0.825023
3820 21 122 -12.5003 5.97863 17.3888
3793 21 103 -11.4761 12.1387 6.41534
3897 21 173 -15.8255 12.3587 16.0887
3905 21 179 -18.1686 14.254 17.8652
3720 21 62 -9.1845 -19.6684 -4.62125
3900 21 176 -7.21167 -19.5266 8.42769
3800 21 108 -7.45075 -15.139 1.6229
3766 21 88 -7.63403 -17.8954 -1.99215
3890 21 168 -11.0401 -6.23625 -3.52181
3881 21 161 -10.8631 -3.96732 -5.42753
3869 21 153 -10.2115 -0.146991 -4.4405
3896 21 172 -8.22826 -0.175171 19.4448
3805 21 113 -8.94995 7.86877 12.563
3757 21 81 -9.66982 11.0464 0.304457
3899 21 175 -0.74788 -17.9924 -2.22291
3763 21 85 1.28768 -12.2489 2.75977
3892 21 170 1.26918 -8.03954 20.1445
3821 21 123 -2.01684 -9.15464 17.7166
3758 21 82 -1.23844 -7.54513 -4.36787
3810 21 116 2.07888 -4.72318 11.1935
3889 21 167 1.5174 2.77605 4.97929
3802 21 110 0.990905 2.84094 8.24904
3843 21 137 -1.94503 10.4405 16.4283
3887 21 165 -3.05417 11.4814 13.5152
3901 21 177 4.29206 -24.3224 20.1327
3870 21 154 8.52742 -15.8925 19.0654
3834 21 130 5.14193 -9.20427 2.59422
3868 21 152 8.42409 -2.41573 -0.165115
3825 21 125 8.45948 -2.32005 13.454
3864 21 148 2.75134 0.601738 6.47772
3839 21 135 15.7591 -14.6936 0.800151
3872 21 156 11.2939 -1.00467 8.78072
3867 21 151 12.3698 -2.26208 16.9424
ITEM: TIMESTEP
560000
ITEM: NUMBER OF ATOMS
35
ITEM: BOX BOUNDS pp pp pp
-1.8415280795202744e+01 1.6596261016277307e+01
-2.4468585605391411e+01 1.4241177363304004e+01
-9.4690667291746564e+00 2.0841725553937938e+01
ITEM: ATOMS id type mol x y z
3898 21 174 -13.144 -7.75776 5.82777
3765 21 87 -15.3767 -0.338681 12.3209
3759 21 83 -13.0828 6.73816 0.799329
3820 21 122 -12.5121 5.95403 17.4506
3905 21 179 -18.1861 14.211 17.9296
3793 21 103 -11.4868 12.1004 6.41919
3897 21 173 -15.8406 12.32 16.1437
3720 21 62 -9.19291 -19.6361 -4.67573
3900 21 176 -7.21807 -19.4946 8.44218
3800 21 108 -7.4574 -15.1168 1.60142
3766 21 88 -7.64086 -17.8671 -2.03273
3890 21 168 -11.0504 -6.23376 -3.57048
3881 21 161 -10.8732 -3.96987 -5.48627
3869 21 153 -10.2209 -0.158007 -4.49403
3896 21 172 -8.23569 -0.186124 19.5175
3805 21 113 -8.95811 7.83998 12.5994
3757 21 81 -9.67871 11.0105 0.276011
3899 21 175 -0.747716 -17.9638 -2.26471
3763 21 85 1.28992 -12.2331 2.7443
3892 21 170 1.27139 -8.03305 20.2209
3821 21 123 -2.01796 -9.14568 17.7802
3758 21 82 -1.23878 -7.53973 -4.42101
3810 21 116 2.08192 -4.72404 11.2226
3889 21 167 1.51987 2.75856 4.97555
3802 21 110 0.992835 2.82329 8.26258
3843 21 137 -1.94608 10.406 16.4851
3887 21 165 -3.05635 11.4445 13.5566
3901 21 177 4.29734 -24.2798 20.2091
3870 21 154 8.53701 -15.8686 19.1361
3834 21 130 5.14808 -9.1952 2.57787
3868 21 152 8.43357 -2.42172 -0.196043
3825 21 125 8.46899 -2.32625 13.4951
3839 21 135 15.776 -14.6723 0.774325
3872 21 156 11.3063 -1.01378 8.79707
3867 21 151 12.3832 -2.2684 17.0019
ITEM: TIMESTEP
565000
ITEM: NUMBER OF ATOMS
38
ITEM: BOX BOUNDS pp pp pp
-1.8587709540666893e+01 1.6768689761741456e+01
-2.4535737405999054e+01 1.4308329163911647e+01
-9.3259615532145048e+00 2.0698620377978941e+01
ITEM: ATOMS id type mol x y z
3898 21 174 -13.2645 -7.76693 5.82643
3909 21 181 -13.3313 2.58649 -3.07638
3765 21 87 -15.5192 -0.322114 12.2583
3759 21 83 -13.2027 6.77928 0.845475
3820 21 122 -12.6264 5.99243 17.3396
3905 21 179 -18.3563 14.2781 17.814
3793 21 103 -11.591 12.1601 6.41227
3897 21 173 -15.9877 12.3804 16.0449
3720 21 62 -9.2745 -19.6865 -4.57789
3900 21 176 -7.28021 -19.5445 8.41616
3800 21 108 -7.52189 -15.1515 1.63999
3766 21 88 -7.70716 -17.9113 -1.95984
3890 21 168 -11.1502 -6.23765 -3.48308
3881 21 161 -10.9713 -3.9659 -5.38077
3869 21 153 -10.3127 -0.140813 -4.3979
3896 21 172 -8.30785 -0.169027 19.3869
3805 21 113 -9.03739 7.88492 12.5341
3757 21 81 -9.76509 11.0665 0.327098
3899 21 175 -0.746122 -18.0084 -2.18964
3763 21 85 1.31158 -12.2578 2.77208
3892 21 170 1.29288 -8.04318 20.0836
3821 21 123 -2.02888 -9.15966 17.666
3758 21 82 -1.24202 -7.54815 -4.32557
3810 21 116 2.11138 -4.72269 11.1704
3889 21 167 1.5438 2.78587 4.98226
3802 21 110 1.01157 2.85083 8.23826
3843 21 137 -1.95629 10.4599 16.3831
3887 21 165 -3.07749 11.502 13.4822
3911 21 183 -0.742433 11.2684 11.6642
3901 21 177 4.34863 -24.3463 20.072
3870 21 154 8.63005 -15.9059 19.0091
3910 21 182 6.05311 -14.9748 14.851
3834 21 130 5.20774 -9.20936 2.60722
3868 21 152 8.5256 -2.41238 -0.140498
3825 21 125 8.56137 -2.31658 13.4214
3839 21 135 15.9404 -14.7055 0.820707
3872 21 156 11.4266 -0.99956 8.7677
3867 21 151 12.5142 -2.25853 16.8951
ITEM: TIMESTEP
570000
ITEM: NUMBER OF ATOMS
37
ITEM: BOX BOUNDS pp pp pp
-1.8740450615614748e+01 1.6921430836689311e+01
-2.4423027081258347e+01 1.4195618839170940e+01
-9.2381941886799730e+00 2.0610853013438433e+01
ITEM: ATOMS id type mol x y z
3898 21 174 -13.3713 -7.75154 5.82561
3909 21 181 -13.4386 2.5418 -3.02515
3765 21 87 -15.6455 -0.349921 12.2199
3759 21 83 -13.3089 6.71026 0.873776
3820 21 122 -12.7276 5.92798 17.2714
3905 21 179 -18.507 14.1655 17.7431
3793 21 103 -11.6833 12.0599 6.40803
3897 21 173 -16.118 12.2789 15.9844
3720 21 62 -9.34677 -19.6019 -4.51788
3900 21 176 -7.33525 -19.4608 8.4002
3800 21 108 -7.57902 -15.0932 1.66365
3766 21 88 -7.7659 -17.8371 -1.91514
3890 21 168 -11.2387 -6.23112 -3.42947
3881 21 161 -11.0582 -3.97256 -5.31607
3869 21 153 -10.3939 -0.169672 -4.33894
3896 21 172 -8.37178 -0.197722 19.3068
3805 21 113 -9.10762 7.80949 12.4941
3757 21 81 -9.8416 10.9726 0.35843
3899 21 175 -0.74471 -17.9336 -2.14359
3763 21 85 1.33077 -12.2163 2.78912
3821 21 123 -2.03855 -9.13619 17.596
3758 21 82 -1.24489 -7.53402 -4.26703
3810 21 116 2.13748 -4.72496 11.1383
3889 21 167 1.565 2.74003 4.98638
3802 21 110 1.02817 2.80461 8.22334
3843 21 137 -1.96534 10.3695 16.3206
3887 21 165 -3.09623 11.4056 13.4367
3911 21 183 -0.740989 11.1734 11.6292
3901 21 177 4.39406 -24.2347 19.9879
3870 21 154 8.71248 -15.8433 18.9312
3910 21 182 6.11326 -14.9176 14.7975
3834 21 130 5.2606 -9.18559 2.62523
3868 21 152 8.60712 -2.42806 -0.106432
3825 21 125 8.6432 -2.33281 13.3761
3839 21 135 16.086 -14.6498 0.849153
3872 21 156 11.5332 -1.02344 8.74969
3867 21 151 12.6302 -2.2751 16.8295
ITEM: TIMESTEP
575000
ITEM: NUMBER OF ATOMS
36
ITEM: BOX BOUNDS pp pp pp
-1.8765421165399715e+01 1.6946401386474278e+01
-2.4467643952640643e+01 1.4240235710553236e+01
-9.3970366822773741e+00 2.0769695506996563e+01
ITEM: ATOMS id type mol x y z
3898 21 174 -13.3887 -7.75763 5.82709
3909 21 181 -13.4561 2.55949 -3.11786
3765 21 87 -15.6661 -0.338913 12.2894
3759 21 83 -13.3263 6.73758 0.822556
3820 21 122 -12.7441 5.95349 17.3947
3905 21 179 -18.5317 14.2101 17.8714
3793 21 103 -11.6984 12.0996 6.41571
3897 21 173 -16.1393 12.3191 16.094
3720 21 62 -9.35858 -19.6354 -4.62648
3900 21 176 -7.34425 -19.4939 8.42908
3800 21 108 -7.58836 -15.1163 1.62084
3766 21 88 -7.7755 -17.8664 -1.99604
3890 21 168 -11.2532 -6.2337 -3.52649
3881 21 161 -11.0725 -3.96992 -5.43317
3869 21 153 -10.4072 -0.158248 -4.44564
3896 21 172 -8.38223 -0.186363 19.4518
3805 21 113 -9.1191 7.83935 12.5665
3757 21 81 -9.85411 11.0098 0.301725
3899 21 175 -0.744479 -17.9632 -2.22692
3763 21 85 1.33391 -12.2328 2.75828
3821 21 123 -2.04013 -9.14548 17.7227
3758 21 82 -1.24536 -7.53962 -4.37297
3810 21 116 2.14175 -4.72406 11.1963
3889 21 167 1.56846 2.75817 4.97893
3802 21 110 1.03088 2.82291 8.25034
3843 21 137 -1.96682 10.4053 16.4338
3887 21 165 -3.09929 11.4437 13.5192
3911 21 183 -0.740753 11.211 11.6925
3901 21 177 4.40148 -24.2788 20.1401
3910 21 182 6.1231 -14.9402 14.8944
3834 21 130 5.26924 -9.195 2.59265
3868 21 152 8.62045 -2.42185 -0.168085
3825 21 125 8.65658 -2.32638 13.458
3839 21 135 16.1098 -14.6719 0.797671
3872 21 156 11.5507 -1.01398 8.78229
3867 21 151 12.6491 -2.26854 16.9481
ITEM: TIMESTEP
580000
ITEM: NUMBER OF ATOMS
36
ITEM: BOX BOUNDS pp pp pp
-1.8701049195712681e+01 1.6882029416787244e+01
-2.4246669935185341e+01 1.4019261693097935e+01
-9.3004073863677235e+00 2.0673066211082205e+01
ITEM: ATOMS id type mol x y z
3898 21 174 -13.3437 -7.72744 5.82619
3909 21 181 -13.4109 2.47188 -3.06146
3765 21 87 -15.6129 -0.39343 12.2471
3759 21 83 -13.2815 6.60227 0.853715
3820 21 122 -12.7015 5.82713 17.3197
3905 21 179 -18.4682 13.9894 17.7934
3793 21 103 -11.6595 11.903 6.41104
3897 21 173 -16.0843 12.1201 16.0273
3720 21 62 -9.32813 -19.4696 -4.56042
3800 21 108 -7.56429 -15.0021 1.64688
3766 21 88 -7.75075 -17.7208 -1.94683
3890 21 168 -11.2159 -6.22092 -3.46747
3881 21 161 -11.0358 -3.98298 -5.36193
3869 21 153 -10.3729 -0.214827 -4.38073
3896 21 172 -8.35529 -0.242621 19.3636
3805 21 113 -9.0895 7.69146 12.5224
3757 21 81 -9.82186 10.8257 0.336221
3899 21 175 -0.745074 -17.8165 -2.17623
3763 21 85 1.32582 -12.1515 2.77704
3821 21 123 -2.03606 -9.09945 17.6456
3758 21 82 -1.24415 -7.51192 -4.30853
3810 21 116 2.13075 -4.72851 11.161
3889 21 167 1.55953 2.66829 4.98346
3802 21 110 1.02389 2.73229 8.23391
3843 21 137 -1.96301 10.2281 16.3649
3887 21 165 -3.09139 11.2547 13.469
3911 21 183 -0.741361 11.0246 11.654
3901 21 177 4.38234 -24.06 20.0475
3910 21 182 6.09775 -14.8281 14.8354
3912 21 184 7.7725 -13.3661 17.9917
3834 21 130 5.24696 -9.1484 2.61247
3868 21 152 8.58609 -2.45258 -0.13058
3825 21 125 8.62209 -2.35821 13.4082
3839 21 135 16.0484 -14.5627 0.82899
3872 21 156 11.5057 -1.06079 8.76246
3867 21 151 12.6002 -2.30102 16.876
ITEM: TIMESTEP
585000
ITEM: NUMBER OF ATOMS
38
ITEM: BOX BOUNDS pp pp pp
-1.8740945713154552e+01 1.6921925934229115e+01
-2.4336629846508199e+01 1.4109221604420792e+01
-9.2533836609939470e+00 2.0626042485696974e+01
ITEM: ATOMS id type mol x y z
3898 21 174 -13.3716 -7.73973 5.82575
3909 21 181 -13.4389 2.50755 -3.03401
3765 21 87 -15.6459 -0.371236 12.2265
3759 21 83 -13.3093 6.65735 0.868878
3820 21 122 -12.7279 5.87858 17.2832
3905 21 179 -18.5075 14.0793 17.7554
3793 21 103 -11.6836 11.9831 6.40876
3897 21 173 -16.1184 12.2011 15.9949
3720 21 62 -9.347 -19.5371 -4.52827
3800 21 108 -7.57921 -15.0486 1.65956
3766 21 88 -7.76609 -17.7801 -1.92288
3890 21 168 -11.239 -6.22612 -3.43875
3881 21 161 -11.0585 -3.97766 -5.32727
3869 21 153 -10.3942 -0.191793 -4.34915
3896 21 172 -8.37198 -0.219718 19.3207
3805 21 113 -9.10784 7.75166 12.501
3757 21 81 -9.84185 10.9006 0.353008
3915 21 187 2.46759 -22.7607 18.3191
3899 21 175 -0.744706 -17.8762 -2.15156
3763 21 85 1.33083 -12.1846 2.78617
3821 21 123 -2.03858 -9.11819 17.6081
3758 21 82 -1.2449 -7.52319 -4.27717
3810 21 116 2.13757 -4.7267 11.1439
3889 21 167 1.56506 2.70488 4.98566
3802 21 110 1.02823 2.76918 8.22592
3843 21 137 -1.96537 10.3002 16.3314
3887 21 165 -3.09629 11.3317 13.4446
3911 21 183 -0.740984 11.1005 11.6353
3901 21 177 4.3942 -24.1491 20.0024
3910 21 182 6.11346 -14.8737 14.8067
3912 21 184 7.79197 -13.4049 17.9531
3834 21 130 5.26077 -9.16737 2.62211
3914 21 186 5.31203 -3.01867 1.67069
3868 21 152 8.60739 -2.44007 -0.112328
3825 21 125 8.64346 -2.34525 13.384
3839 21 135 16.0864 -14.6072 0.84423
3872 21 156 11.5336 -1.04174 8.7528
3867 21 151 12.6305 -2.2878 16.8409
ITEM: TIMESTEP
590000
ITEM: NUMBER OF ATOMS
38
ITEM: BOX BOUNDS pp pp pp
-1.8616600681973647e+01 1.6797580903048210e+01
-2.4555605077129709e+01 1.4328196835042302e+01
-9.3237511180815780e+00 2.0696409942757125e+01
ITEM: ATOMS id type mol x y z
3898 21 174 -13.2847 -7.76965 5.82641
3909 21 181 -13.3516 2.59436 -3.07509
3765 21 87 -15.5431 -0.317213 12.2573
3759 21 83 -13.2228 6.79144 0.846187
3820 21 122 -12.6455 6.00379 17.3378
3905 21 179 -18.3848 14.2979 17.8122
3793 21 103 -11.6085 12.1778 6.41217
3897 21 173 -16.0123 12.3983 16.0434
3720 21 62 -9.28817 -19.7014 -4.57638
3800 21 108 -7.5327 -15.1618 1.64059
3766 21 88 -7.71827 -17.9244 -1.95872
3890 21 168 -11.167 -6.2388 -3.48173
3881 21 161 -10.9878 -3.96472 -5.37914
3869 21 153 -10.328 -0.135726 -4.39641
3896 21 172 -8.31994 -0.163969 19.3849
3805 21 113 -9.05067 7.89822 12.5331
3757 21 81 -9.77956 11.083 0.327887
3915 21 187 2.44404 -22.9617 18.3786
3899 21 175 -0.745855 -18.0216 -2.18848
3763 21 85 1.31521 -12.2651 2.77251
3821 21 123 -2.03071 -9.1638 17.6642
3758 21 82 -1.24257 -7.55064 -4.32409
3810 21 116 2.11632 -4.72229 11.1696
3889 21 167 1.54781 2.79395 4.98236
3802 21 110 1.01471 2.85898 8.23788
3843 21 137 -1.95801 10.4758 16.3816
3887 21 165 -3.08104 11.519 13.4811
3911 21 183 -0.74216 11.2852 11.6633
3901 21 177 4.35722 -24.3659 20.0698
3910 21 182 6.06449 -14.9849 14.8497
3912 21 184 7.73129 -13.4994 18.0108
3834 21 130 5.21774 -9.21355 2.60768
3914 21 186 5.26865 -2.99481 1.65177
3868 21 152 8.54102 -2.40962 -0.13964
3825 21 125 8.57685 -2.31371 13.4202
3839 21 135 15.9679 -14.7153 0.821424
3872 21 156 11.4468 -0.995351 8.76725
3867 21 151 12.5361 -2.25561 16.8934
ITEM: TIMESTEP
595000
ITEM: NUMBER OF ATOMS
38
ITEM: BOX BOUNDS pp pp pp
-1.8655376444719153e+01 1.6836356665793716e+01
-2.4459426673299948e+01 1.4232018431212541e+01
-9.1619952757364622e+00 2.0534654100416976e+01
ITEM: ATOMS id type mol x y z
3916 21 188 -17.9114 -12.4148 20.3845
3898 21 174 -13.3118 -7.75651 5.8249
3909 21 181 -13.3788 2.55623 -2.98067
3765 21 87 -15.5752 -0.340941 12.1865
3759 21 83 -13.2498 6.73255 0.898347
3820 21 122 -12.6712 5.94879 17.2123
3905 21 179 -18.4231 14.2019 17.6815
3793 21 103 -11.6319 12.0923 6.40435
3897 21 173 -16.0454 12.3117 15.9318
3720 21 62 -9.30651 -19.6293 -4.46578
3800 21 108 -7.5472 -15.112 1.68419
3766 21 88 -7.73318 -17.861 -1.87633
3890 21 168 -11.1894 -6.23323 -3.38293
3881 21 161 -11.0098 -3.97041 -5.2599
3869 21 153 -10.3486 -0.160352 -4.28776
3896 21 172 -8.33617 -0.188455 19.2373
3805 21 113 -9.0685 7.83385 12.4593
3757 21 81 -9.79899 11.0029 0.385633
3915 21 187 2.45138 -22.8735 18.2418
3899 21 175 -0.745496 -17.9577 -2.10361
3763 21 85 1.32008 -12.2297 2.80391
3821 21 123 -2.03317 -9.14377 17.5352
3758 21 82 -1.24329 -7.53859 -4.21622
3810 21 116 2.12295 -4.72423 11.1105
3889 21 167 1.55319 2.75483 4.98995
3802 21 110 1.01893 2.81954 8.21038
3843 21 137 -1.9603 10.3987 16.2663
3887 21 165 -3.08579 11.4367 13.3971
3901 21 177 4.36875 -24.2707 19.9148
3910 21 182 6.07976 -14.9361 14.7509
3912 21 184 7.75021 -13.4579 17.878
3834 21 130 5.23116 -9.19327 2.64086
3914 21 186 5.28218 -3.00529 1.69525
3868 21 152 8.56172 -2.42299 -0.0768569
3825 21 125 8.59762 -2.32757 13.3369
3839 21 135 16.0049 -14.6678 0.87385
3872 21 156 11.4739 -1.01572 8.73405
3867 21 151 12.5656 -2.26975 16.7726
ITEM: TIMESTEP
600000
ITEM: NUMBER OF ATOMS
36
ITEM: BOX BOUNDS pp pp pp
-1.8704534058388965e+01 1.6885514279463528e+01
-2.4570069762828055e+01 1.4342661520740648e+01
-9.2280134956824895e+00 2.0600672320336191e+01
ITEM: ATOMS id type mol x y z
3909 21 181 -13.4134 2.6001 -3.01921
3765 21 87 -15.6158 -0.313644 12.2154
3759 21 83 -13.284 6.8003 0.877059
3820 21 122 -12.7038 6.01206 17.2635
3905 21 179 -18.4716 14.3123 17.7349
3793 21 103 -11.6616 12.1907 6.40754
3897 21 173 -16.0873 12.4114 15.9774
3720 21 62 -9.32977 -19.7123 -4.51092
3800 21 108 -7.56559 -15.1692 1.66639
3766 21 88 -7.75209 -17.9339 -1.90995
3890 21 168 -11.2179 -6.23963 -3.42325
3881 21 161 -11.0378 -3.96387 -5.30856
3869 21 153 -10.3748 -0.132022 -4.3321
3896 21 172 -8.35674 -0.160287 19.2975
3805 21 113 -9.0911 7.9079 12.4894
3757 21 81 -9.82361 11.0951 0.362065
3915 21 187 2.46069 -22.975 18.2976
3899 21 175 -0.745042 -18.0312 -2.13825
3763 21 85 1.32626 -12.2704 2.7911
3821 21 123 -2.03628 -9.16682 17.5879
3758 21 82 -1.24422 -7.55245 -4.26025
3810 21 116 2.13135 -4.722 11.1346
3889 21 167 1.56001 2.79983 4.98685
3802 21 110 1.02427 2.86491 8.22161
3843 21 137 -1.96321 10.4874 16.3133
3887 21 165 -3.09182 11.5314 13.4314
3901 21 177 4.38337 -24.3803 19.9781
3910 21 182 6.09912 -14.9923 14.7912
3912 21 184 7.7742 -13.5056 17.9322
3834 21 130 5.24817 -9.2166 2.62731
3914 21 186 5.29933 -2.99323 1.67751
3868 21 152 8.58795 -2.4076 -0.102481
3825 21 125 8.62396 -2.31163 13.3709
3839 21 135 16.0517 -14.7224 0.852453
3872 21 156 11.5082 -0.992287 8.7476
3867 21 151 12.6029 -2.25348 16.8219
ITEM: TIMESTEP
605000
ITEM: NUMBER OF ATOMS
35
ITEM: BOX BOUNDS pp pp pp
-1.8501983513272883e+01 1.6682963734347446e+01
-2.4604835956254501e+01 1.4377427714167094e+01
-9.1938448963169641e+00 2.0566503720957655e+01
ITEM: ATOMS id type mol x y z
3909 21 181 -13.271 2.61388 -2.99926
3765 21 87 -15.4484 -0.305067 12.2004
3759 21 83 -13.1431 6.82159 0.888077
3820 21 122 -12.5695 6.03194 17.237
3905 21 179 -18.2717 14.3471 17.7073
3793 21 103 -11.5392 12.2216 6.40589
3897 21 173 -15.9146 12.4427 15.9538
3720 21 62 -9.23393 -19.7384 -4.48756
3800 21 108 -7.48983 -15.1872 1.6756
3766 21 88 -7.6742 -17.9568 -1.89255
3890 21 168 -11.1006 -6.24164 -3.40238
3881 21 161 -10.9225 -3.96181 -5.28338
3869 21 153 -10.2671 -0.123121 -4.30915
3896 21 172 -8.27198 -0.151435 19.2664
3805 21 113 -8.99798 7.93117 12.4738
3757 21 81 -9.72215 11.124 0.374263
3899 21 175 -0.746914 -18.0543 -2.12032
3763 21 85 1.30081 -12.2832 2.79773
3821 21 123 -2.02345 -9.17406 17.5606
3758 21 82 -1.24041 -7.55681 -4.23746
3810 21 116 2.09673 -4.7213 11.1221
3889 21 167 1.5319 2.81397 4.98846
3802 21 110 1.00226 2.87917 8.2158
3843 21 137 -1.95122 10.5153 16.289
3887 21 165 -3.06698 11.5611 13.4136
3901 21 177 4.32313 -24.4147 19.9454
3910 21 182 6.01934 -15.0099 14.7704
3912 21 184 7.67536 -13.5206 17.9042
3834 21 130 5.17808 -9.22393 2.63432
3914 21 186 5.22866 -2.98944 1.68669
3868 21 152 8.47985 -2.40277 -0.0892189
3825 21 125 8.51544 -2.30662 13.3533
3839 21 135 15.8587 -14.7396 0.863527
3872 21 156 11.3668 -0.984923 8.74058
3867 21 151 12.4491 -2.24837 16.7964
ITEM: TIMESTEP
610000
ITEM: NUMBER OF ATOMS
34
ITEM: BOX BOUNDS pp pp pp
-1.8645114296231959e+01 1.6826094517306522e+01
-2.4420001669590430e+01 1.4192593427503024e+01
-9.2797110224889927e+00 2.0652369847099749e+01
ITEM: ATOMS id type mol x y z
3765 21 87 -15.5667 -0.350667 12.238
3759 21 83 -13.2426 6.70841 0.860388
3820 21 122 -12.6644 5.92625 17.3037
3905 21 179 -18.413 14.1625 17.7766
3793 21 103 -11.6257 12.0572 6.41004
3897 21 173 -16.0366 12.2762 16.013
3720 21 62 -9.30166 -19.5997 -4.54627
3800 21 108 -7.54336 -15.0917 1.65246
3766 21 88 -7.72924 -17.8351 -1.93629
3890 21 168 -11.1835 -6.23095 -3.45483
3881 21 161 -11.004 -3.97274 -5.34668
3869 21 153 -10.3432 -0.170446 -4.36683
3896 21 172 -8.33188 -0.198493 19.3447
3805 21 113 -9.06378 7.80746 12.513
3757 21 81 -9.79384 10.9701 0.343609
3899 21 175 -0.745591 -17.9316 -2.16537
3763 21 85 1.31879 -12.2152 2.78106
3821 21 123 -2.03252 -9.13556 17.6291
3758 21 82 -1.2431 -7.53364 -4.29472
3810 21 116 2.12119 -4.72502 11.1535
3889 21 167 1.55176 2.73879 4.98443
3802 21 110 1.01781 2.80337 8.23039
3843 21 137 -1.95969 10.3671 16.3502
3887 21 165 -3.08453 11.403 13.4582
3901 21 177 4.3657 -24.2317 20.0276
3910 21 182 6.07572 -14.9161 14.8228
3912 21 184 7.7452 -13.4409 17.9747
3834 21 130 5.22761 -9.18495 2.61671
3914 21 186 5.2786 -3.00958 1.66361
3868 21 152 8.55624 -2.42848 -0.122547
3825 21 125 8.59212 -2.33324 13.3975
3839 21 135 15.9951 -14.6483 0.835697
3872 21 156 11.4667 -1.02408 8.75821
3867 21 151 12.5578 -2.27554 16.8605
ITEM: TIMESTEP
615000
ITEM: NUMBER OF ATOMS
34
ITEM: BOX BOUNDS pp pp pp
-1.8371601522193622e+01 1.6552581743268185e+01
-2.4399023242601739e+01 1.4171615000514333e+01
-9.4489304169541093e+00 2.0821589241522712e+01
ITEM: ATOMS id type mol x y z
3765 21 87 -15.3406 -0.355843 12.3121
3759 21 83 -13.0524 6.69556 0.805822
3820 21 122 -12.4831 5.91425 17.435
3905 21 179 -18.143 14.1416 17.9133
3793 21 103 -11.4604 12.0385 6.41822
3897 21 173 -15.8034 12.2573 16.1298
3720 21 62 -9.17224 -19.5839 -4.66197
3800 21 108 -7.44106 -15.0808 1.60685
3766 21 88 -7.62407 -17.8212 -2.02247
3890 21 168 -11.0251 -6.22973 -3.55818
3881 21 161 -10.8483 -3.97398 -5.47143
3869 21 153 -10.1977 -0.175818 -4.4805
3896 21 172 -8.21741 -0.203834 19.4992
3805 21 113 -8.93803 7.79342 12.5902
3757 21 81 -9.65683 10.9526 0.2832
3899 21 175 -0.748119 -17.9176 -2.25415
3763 21 85 1.28443 -12.2075 2.74821
3821 21 123 -2.0152 -9.13118 17.7641
3758 21 82 -1.23796 -7.53101 -4.40758
3810 21 116 2.07445 -4.72544 11.2153
3889 21 167 1.51381 2.73026 4.97649
3802 21 110 0.988089 2.79477 8.25916
3843 21 137 -1.9435 10.3503 16.4708
3887 21 165 -3.05099 11.385 13.5461
3901 21 177 4.28435 -24.2109 20.1898
3910 21 182 5.96799 -14.9054 14.9261
3912 21 184 7.61173 -13.4318 18.1136
3834 21 130 5.13296 -9.18053 2.582
3914 21 186 5.18317 -3.01187 1.61813
3868 21 152 8.41026 -2.43139 -0.188227
3825 21 125 8.44559 -2.33627 13.4847
3839 21 135 15.7344 -14.638 0.780852
3872 21 156 11.2758 -1.02852 8.79294
3867 21 151 12.3501 -2.27863 16.9869
ITEM: TIMESTEP
620000
ITEM: NUMBER OF ATOMS
33
ITEM: BOX BOUNDS pp pp pp
-1.8609049301369971e+01 1.6790029522444534e+01
-2.4632201972749058e+01 1.4404793730661652e+01
-9.0440666461100676e+00 2.0416725470719449e+01
ITEM: ATOMS id type mol x y z
3765 21 87 -15.5369 -0.298315 12.1349
3759 21 83 -13.2176 6.83834 0.936374
3820 21 122 -12.6405 6.04759 17.1207
3793 21 103 -11.6039 12.2459 6.39864
3897 21 173 -16.0059 12.4673 15.8504
3720 21 62 -9.28459 -19.7589 -4.38515
3800 21 108 -7.52987 -15.2013 1.71597
3766 21 88 -7.71537 -17.9749 -1.81627
3890 21 168 -11.1626 -6.24323 -3.3109
3881 21 161 -10.9835 -3.9602 -5.17296
3869 21 153 -10.324 -0.116114 -4.20854
3896 21 172 -8.31678 -0.144468 19.1297
3805 21 113 -9.0472 7.94948 12.4055
3757 21 81 -9.77578 11.1468 0.427732
3899 21 175 -0.745925 -18.0724 -2.04174
3763 21 85 1.31426 -12.2933 2.8268
3821 21 123 -2.03023 -9.17976 17.4411
3758 21 82 -1.24242 -7.56024 -4.13757
3810 21 116 2.11503 -4.72075 11.0674
3889 21 167 1.54676 2.8251 4.99548
3802 21 110 1.01389 2.89039 8.19034
3843 21 137 -1.95756 10.5372 16.1823
3887 21 165 -3.08011 11.5845 13.3359
3901 21 177 4.35497 -24.4418 19.8018
3910 21 182 6.06151 -15.0238 14.6789
3912 21 184 7.7276 -13.5324 17.7812
3834 21 130 5.21513 -9.2297 2.66504
3914 21 186 5.26601 -2.98646 1.72695
3868 21 152 8.53699 -2.39896 -0.0310844
3825 21 125 8.5728 -2.30268 13.2761
3839 21 135 15.9607 -14.7531 0.912072
3872 21 156 11.4415 -0.979126 8.70984
3867 21 151 12.5304 -2.24435 16.6846
ITEM: TIMESTEP
625000
ITEM: NUMBER OF ATOMS
33
ITEM: BOX BOUNDS pp pp pp
-1.8451293046683091e+01 1.6632273267757654e+01
-2.4451684969303088e+01 1.4224276727215681e+01
-9.3288742400562050e+00 2.0701533064606082e+01
ITEM: ATOMS id type mol x y z
3765 21 87 -15.4065 -0.342851 12.2596
3759 21 83 -13.1079 6.72781 0.844535
3820 21 122 -12.5359 5.94437 17.3418
3793 21 103 -11.5086 12.0854 6.41241
3897 21 173 -15.8713 12.3047 16.047
3720 21 62 -9.20995 -19.6234 -4.57988
3800 21 108 -7.47087 -15.108 1.63921
3766 21 88 -7.65471 -17.8559 -1.96133
3890 21 168 -11.0712 -6.23278 -3.48486
3881 21 161 -10.8937 -3.97087 -5.38292
3869 21 153 -10.2401 -0.162334 -4.39985
3896 21 172 -8.25076 -0.190426 19.3896
3805 21 113 -8.97467 7.82867 12.5354
3757 21 81 -9.69675 10.9965 0.326059
3763 21 85 1.29444 -12.2269 2.77152
3821 21 123 -2.02024 -9.14216 17.6683
3758 21 82 -1.23946 -7.53762 -4.32751
3810 21 116 2.08807 -4.72438 11.1714
3889 21 167 1.52487 2.75168 4.98212
3802 21 110 0.996749 2.81636 8.23875
3843 21 137 -1.94822 10.3925 16.3852
3887 21 165 -3.06077 11.4301 13.4838
3901 21 177 4.30805 -24.263 20.0747
3910 21 182 5.99938 -14.9321 14.8528
3912 21 184 7.65062 -13.4545 18.0151
3918 21 188 4.49241 -12.0012 4.58252
3834 21 130 5.16054 -9.19163 2.60663
3914 21 186 5.21097 -3.00613 1.6504
3868 21 152 8.45279 -2.42407 -0.141629
3825 21 125 8.48829 -2.32868 13.4229
3839 21 135 15.8104 -14.664 0.819763
3872 21 156 11.3314 -1.01736 8.7683
3867 21 151 12.4106 -2.27089 16.8972
ITEM: TIMESTEP
630000
ITEM: NUMBER OF ATOMS
33
ITEM: BOX BOUNDS pp pp pp
-1.8615650774561498e+01 1.6796630995636061e+01
-2.4260995876977024e+01 1.4033587634889617e+01
-9.3061812073641796e+00 2.0678840031899686e+01
ITEM: ATOMS id type mol x y z
3765 21 87 -15.5423 -0.389895 12.2496
3759 21 83 -13.2221 6.61104 0.851853
3820 21 122 -12.6449 5.83533 17.3242
3793 21 103 -11.6079 11.9158 6.41132
3897 21 173 -16.0115 12.133 16.0313
3720 21 62 -9.28772 -19.4804 -4.56436
3800 21 108 -7.53234 -15.0095 1.64532
3766 21 88 -7.71791 -17.7303 -1.94977
3890 21 168 -11.1664 -6.22175 -3.47099
3881 21 161 -10.9872 -3.98213 -5.36619
3869 21 153 -10.3275 -0.211159 -4.38461
3896 21 172 -8.31955 -0.238974 19.3689
3805 21 113 -9.05024 7.70104 12.5251
3757 21 81 -9.77909 10.8376 0.33416
3763 21 85 1.31509 -12.1567 2.77592
3821 21 123 -2.03065 -9.10243 17.6502
3758 21 82 -1.24255 -7.51371 -4.31238
3810 21 116 2.11616 -4.72822 11.1631
3889 21 167 1.54768 2.67412 4.98319
3802 21 110 1.01461 2.73817 8.23489
3843 21 137 -1.95795 10.2396 16.369
3887 21 165 -3.08092 11.267 13.472
3901 21 177 4.35694 -24.0742 20.053
3910 21 182 6.06411 -14.8353 14.839
3912 21 184 7.73083 -13.3723 17.9964
3918 21 188 4.54302 -11.9333 4.58419
3834 21 130 5.21741 -9.15142 2.61128
3914 21 186 5.26832 -3.02691 1.65649
3868 21 152 8.54051 -2.45059 -0.132821
3825 21 125 8.57634 -2.35614 13.4112
3839 21 135 15.967 -14.5698 0.827118
3872 21 156 11.4461 -1.05776 8.76364
3867 21 151 12.5354 -2.29892 16.8803
ITEM: TIMESTEP
635000
ITEM: NUMBER OF ATOMS
35
ITEM: BOX BOUNDS pp pp pp
-1.8548055358974558e+01 1.6729035580049121e+01
-2.4451255875858926e+01 1.4223847633771520e+01
-9.3016245305583638e+00 2.0674283355076732e+01
ITEM: ATOMS id type mol x y z
3765 21 87 -15.4865 -0.342957 12.2476
3759 21 83 -13.1751 6.72754 0.853322
3820 21 122 -12.6001 5.94412 17.3207
3793 21 103 -11.5671 12.085 6.4111
3897 21 173 -15.9539 12.3043 16.0282
3720 21 62 -9.25573 -19.6231 -4.56125
3800 21 108 -7.50706 -15.1078 1.64655
3766 21 88 -7.69192 -17.8557 -1.94745
3890 21 168 -11.1273 -6.23276 -3.46821
3881 21 161 -10.9487 -3.97089 -5.36283
3869 21 153 -10.2916 -0.162444 -4.38155
3896 21 172 -8.29126 -0.190536 19.3647
3805 21 113 -9.01916 7.82838 12.523
3757 21 81 -9.74522 10.9961 0.335786
3922 21 190 1.8056 -22.3274 19.6524
3763 21 85 1.3066 -12.2267 2.77681
3821 21 123 -2.02637 -9.14207 17.6466
3758 21 82 -1.24128 -7.53756 -4.30934
3810 21 116 2.10461 -4.72439 11.1615
3889 21 167 1.5383 2.75151 4.9834
3802 21 110 1.00726 2.81619 8.23412
3923 21 191 -3.36671 7.34638 -1.34711
3843 21 137 -1.95395 10.3921 16.3658
3887 21 165 -3.07263 11.4297 13.4696
3901 21 177 4.33683 -24.2626 20.0486
3910 21 182 6.03749 -14.9319 14.8362
3912 21 184 7.69784 -13.4544 17.9927
3918 21 188 4.5222 -12.0011 4.58453
3834 21 130 5.19402 -9.19154 2.61222
3914 21 186 5.24473 -3.00618 1.65772
3868 21 152 8.50444 -2.42413 -0.131052
3825 21 125 8.54012 -2.32874 13.4088
3839 21 135 15.9026 -14.6638 0.828595
3872 21 156 11.399 -1.01746 8.76271
3867 21 151 12.4841 -2.27095 16.8769
ITEM: TIMESTEP
640000
ITEM: NUMBER OF ATOMS
34
ITEM: BOX BOUNDS pp pp pp
-1.8646749674009214e+01 1.6827729895083777e+01
-2.4399608084838274e+01 1.4172199842750867e+01
-9.3032648610881665e+00 2.0675923685588636e+01
ITEM: ATOMS id type mol x y z
3765 21 87 -15.568 -0.355698 12.2483
3759 21 83 -13.2438 6.69592 0.852793
3820 21 122 -12.6655 5.91459 17.3219
3793 21 103 -11.6267 12.0391 6.41118
3897 21 173 -16.038 12.2578 16.0293
3720 21 62 -9.30243 -19.5844 -4.56237
3800 21 108 -7.54398 -15.0811 1.64611
3766 21 88 -7.72987 -17.8216 -1.94828
3890 21 168 -11.1844 -6.22977 -3.46921
3881 21 161 -11.0049 -3.97394 -5.36404
3869 21 153 -10.3441 -0.175668 -4.38265
3896 21 172 -8.33256 -0.203685 19.3662
3805 21 113 -9.06454 7.79381 12.5237
3757 21 81 -9.79466 10.9531 0.335201
3763 21 85 1.319 -12.2077 2.77649
3821 21 123 -2.03262 -9.13131 17.6479
3758 21 82 -1.24313 -7.53109 -4.31043
3810 21 116 2.12147 -4.72543 11.1621
3889 21 167 1.55199 2.7305 4.98332
3802 21 110 1.01799 2.79501 8.2344
3923 21 191 -3.38046 7.3131 -1.34788
3843 21 137 -1.95979 10.3507 16.367
3887 21 165 -3.08474 11.3855 13.4705
3901 21 177 4.36619 -24.2115 20.0502
3910 21 182 6.07636 -14.9057 14.8372
3912 21 184 7.746 -13.4321 17.994
3918 21 188 4.5526 -11.9827 4.58441
3834 21 130 5.22817 -9.18065 2.61188
3914 21 186 5.27917 -3.01181 1.65728
3868 21 152 8.55711 -2.43131 -0.131689
3825 21 125 8.593 -2.33618 13.4097
3839 21 135 15.9966 -14.6383 0.828063
3872 21 156 11.4678 -1.0284 8.76304
3867 21 151 12.559 -2.27854 16.8781
ITEM: TIMESTEP
645000
ITEM: NUMBER OF ATOMS
34
ITEM: BOX BOUNDS pp pp pp
-1.8617159804769987e+01 1.6798140025844550e+01
-2.4488049159603946e+01 1.4260640917516540e+01
-9.2260656696229830e+00 2.0598724494117601e+01
ITEM: ATOMS id type mol x y z
3765 21 87 -15.5436 -0.333879 12.2145
3759 21 83 -13.2232 6.75007 0.877687
3820 21 122 -12.6459 5.96516 17.262
3793 21 103 -11.6088 12.1177 6.40744
3897 21 173 -16.0128 12.3375 15.976
3720 21 62 -9.28843 -19.6507 -4.50959
3800 21 108 -7.53291 -15.1268 1.66692
3766 21 88 -7.71849 -17.8799 -1.90896
3890 21 168 -11.1673 -6.23489 -3.42206
3881 21 161 -10.9881 -3.96872 -5.30713
3869 21 153 -10.3283 -0.153023 -4.3308
3896 21 172 -8.32018 -0.181168 19.2958
3805 21 113 -9.05093 7.853 12.4885
3757 21 81 -9.77984 11.0268 0.36276
3763 21 85 1.31528 -12.2403 2.79147
3821 21 123 -2.03075 -9.14973 17.5863
3758 21 82 -1.24258 -7.54217 -4.25895
3810 21 116 2.11642 -4.72365 11.1339
3889 21 167 1.54789 2.76647 4.98695
3802 21 110 1.01477 2.83128 8.22127
3923 21 191 -3.37633 7.37009 -1.31165
3843 21 137 -1.95804 10.4216 16.312
3887 21 165 -3.08111 11.4612 13.4304
3901 21 177 4.35739 -24.299 19.9762
3910 21 182 6.06471 -14.9506 14.7901
3912 21 184 7.73156 -13.4702 17.9306
3918 21 188 4.54349 -12.0142 4.59008
3834 21 130 5.21793 -9.1993 2.62771
3914 21 186 5.26884 -3.00217 1.67803
3868 21 152 8.54132 -2.41901 -0.101725
3825 21 125 8.57715 -2.32344 13.3699
3839 21 135 15.9684 -14.6819 0.853084
3872 21 156 11.4472 -1.00966 8.7472
3867 21 151 12.5365 -2.26554 16.8205
ITEM: TIMESTEP
650000
ITEM: NUMBER OF ATOMS
33
ITEM: BOX BOUNDS pp pp pp
-1.8458035181160685e+01 1.6639015402235248e+01
-2.4452201161861531e+01 1.4224792919774124e+01
-9.3361455692270248e+00 2.0708804393687142e+01
ITEM: ATOMS id type mol x y z
3765 21 87 -15.4121 -0.342723 12.2627
3759 21 83 -13.1125 6.72812 0.842191
3820 21 122 -12.5404 5.94466 17.3475
3793 21 103 -11.5127 12.0858 6.41277
3897 21 173 -15.8771 12.3052 16.052
3720 21 62 -9.21314 -19.6238 -4.58485
3800 21 108 -7.47339 -15.1083 1.63725
3766 21 88 -7.6573 -17.8563 -1.96503
3890 21 168 -11.0751 -6.23281 -3.4893
3881 21 161 -10.8975 -3.97083 -5.38828
3869 21 153 -10.2437 -0.162202 -4.40474
3896 21 172 -8.25358 -0.190295 19.3962
3805 21 113 -8.97777 7.82901 12.5387
3757 21 81 -9.70013 10.9969 0.323463
3763 21 85 1.29529 -12.2271 2.7701
3821 21 123 -2.02067 -9.14226 17.6741
3758 21 82 -1.23958 -7.53768 -4.33236
3810 21 116 2.08922 -4.72437 11.1741
3889 21 167 1.5258 2.75189 4.98178
3802 21 110 0.997481 2.81658 8.23999
3843 21 137 -1.94862 10.3929 16.3904
3887 21 165 -3.06159 11.4305 13.4875
3910 21 182 6.00203 -14.9324 14.8573
3912 21 184 7.65391 -13.4548 18.021
3918 21 188 4.49448 -12.0014 4.58199
3834 21 130 5.16287 -9.19174 2.60514
3914 21 186 5.21332 -3.00607 1.64844
3868 21 152 8.45639 -2.424 -0.144451
3927 21 193 6.75667 -0.3849 2.41143
3825 21 125 8.4919 -2.32861 13.4266
3839 21 135 15.8168 -14.6642 0.817406
3872 21 156 11.3362 -1.01726 8.76979
3867 21 151 12.4157 -2.27081 16.9027
ITEM: TIMESTEP
655000
ITEM: NUMBER OF ATOMS
32
ITEM: BOX BOUNDS pp pp pp
-1.8621661655439894e+01 1.6802641876514457e+01
-2.4263157870203589e+01 1.4035749628116182e+01
-9.3273115361152215e+00 2.0699970360558837e+01
ITEM: ATOMS id type mol x y z
3765 21 87 -15.5473 -0.389362 12.2589
3759 21 83 -13.2263 6.61236 0.845039
3820 21 122 -12.6489 5.83656 17.3406
3793 21 103 -11.6115 11.9177 6.41234
3897 21 173 -16.0166 12.1349 16.0459
3720 21 62 -9.29056 -19.482 -4.57881
3800 21 108 -7.53459 -15.0106 1.63963
3766 21 88 -7.72022 -17.7317 -1.96053
3890 21 168 -11.1699 -6.22187 -3.4839
3881 21 161 -10.9906 -3.98201 -5.38177
3869 21 153 -10.3307 -0.210605 -4.39881
3896 21 172 -8.32206 -0.238424 19.3882
3805 21 113 -9.053 7.70249 12.5347
3757 21 81 -9.7821 10.8394 0.326616
3763 21 85 1.31585 -12.1575 2.77182
3821 21 123 -2.03103 -9.10288 17.6671
3758 21 82 -1.24266 -7.51398 -4.32647
3810 21 116 2.11718 -4.72818 11.1709
3889 21 167 1.54851 2.675 4.9822
3802 21 110 1.01526 2.73905 8.23849
3843 21 137 -1.95831 10.2413 16.3841
3887 21 165 -3.08166 11.2688 13.4829
3912 21 184 7.73376 -13.3732 18.0138
3918 21 188 4.54487 -11.9341 4.58264
3834 21 130 5.21949 -9.15188 2.60695
3914 21 186 5.27041 -3.02668 1.65082
3868 21 152 8.54372 -2.45029 -0.141022
3927 21 193 6.82816 -0.431127 2.41336
3825 21 125 8.57956 -2.35583 13.4221
3839 21 135 15.9727 -14.5709 0.82027
3872 21 156 11.4503 -1.0573 8.76798
3867 21 151 12.54 -2.2986 16.8961
ITEM: TIMESTEP
660000
ITEM: NUMBER OF ATOMS
32
ITEM: BOX BOUNDS pp pp pp
-1.8494556756068480e+01 1.6675536977143043e+01
-2.4280880432308074e+01 1.4053472190220667e+01
-9.3947427959528156e+00 2.0767401620368108e+01
ITEM: ATOMS id type mol x y z
3765 21 87 -15.4423 -0.38499 12.2884
3759 21 83 -13.1379 6.62321 0.823295
3820 21 122 -12.5646 5.8467 17.393
3793 21 103 -11.5347 11.9335 6.4156
3897 21 173 -15.9082 12.1509 16.0924
3720 21 62 -9.23042 -19.4953 -4.62492
3800 21 108 -7.48705 -15.0198 1.62145
3766 21 88 -7.67134 -17.7434 -1.99487
3890 21 168 -11.0963 -6.2229 -3.52509
3881 21 161 -10.9183 -3.98096 -5.43148
3869 21 153 -10.2631 -0.206067 -4.4441
3896 21 172 -8.26887 -0.233912 19.4497
3805 21 113 -8.99456 7.71435 12.5655
3757 21 81 -9.71843 10.8542 0.302544
3763 21 85 1.29988 -12.1641 2.75873
3821 21 123 -2.02298 -9.10657 17.7209
3758 21 82 -1.24027 -7.51621 -4.37144
3810 21 116 2.09546 -4.72782 11.1955
3889 21 167 1.53087 2.68221 4.97903
3802 21 110 1.00145 2.74632 8.24995
3843 21 137 -1.95078 10.2555 16.4321
3887 21 165 -3.06607 11.284 13.518
3912 21 184 7.67173 -13.3809 18.0691
3918 21 188 4.50573 -11.9404 4.57768
3834 21 130 5.17551 -9.15562 2.59312
3914 21 186 5.22607 -3.02475 1.63269
3868 21 152 8.47588 -2.44783 -0.167195
3927 21 193 6.77263 -0.426793 2.39866
3825 21 125 8.51146 -2.35328 13.4568
3839 21 135 15.8516 -14.5796 0.798415
3872 21 156 11.3616 -1.05355 8.78182
3867 21 151 12.4434 -2.296 16.9464
ITEM: TIMESTEP
665000
ITEM: NUMBER OF ATOMS
32
ITEM: BOX BOUNDS pp pp pp
-1.8472584453200849e+01 1.6653564674275412e+01
-2.4458964283737700e+01 1.4231556041650293e+01
-9.3254073080460493e+00 2.0698066132454343e+01
ITEM: ATOMS id type mol x y z
3765 21 87 -15.4241 -0.341055 12.258
3759 21 83 -13.1227 6.73226 0.845653
3820 21 122 -12.5501 5.94853 17.3391
3793 21 103 -11.5215 12.0919 6.41225
3897 21 173 -15.8895 12.3113 16.0446
3720 21 62 -9.22002 -19.6289 -4.57751
3800 21 108 -7.47883 -15.1118 1.64014
3766 21 88 -7.6629 -17.8607 -1.95956
3890 21 168 -11.0836 -6.2332 -3.48274
3881 21 161 -10.9058 -3.97043 -5.38036
3869 21 153 -10.2514 -0.16047 -4.39753
3896 21 172 -8.25967 -0.188573 19.3864
3805 21 113 -8.98446 7.83354 12.5338
3757 21 81 -9.70742 11.0025 0.327296
3763 21 85 1.29712 -12.2296 2.77219
3821 21 123 -2.02159 -9.14367 17.6656
3758 21 82 -1.23986 -7.53853 -4.3252
3810 21 116 2.09171 -4.72424 11.1702
3889 21 167 1.52782 2.75464 4.98229
3802 21 110 0.999063 2.81935 8.23816
3843 21 137 -1.94948 10.3983 16.3827
3887 21 165 -3.06338 11.4363 13.482
3912 21 184 7.66101 -13.4577 18.0122
3918 21 188 4.49896 -12.0038 4.58278
3834 21 130 5.16791 -9.19317 2.60734
3914 21 186 5.2184 -3.00534 1.65133
3868 21 152 8.46416 -2.42306 -0.140283
3927 21 193 6.76303 -0.383246 2.41377
3825 21 125 8.49969 -2.32763 13.4211
3839 21 135 15.8306 -14.6676 0.820887
3872 21 156 11.3463 -1.01582 8.76759
3867 21 151 12.4268 -2.26982 16.8947
ITEM: TIMESTEP
670000
ITEM: NUMBER OF ATOMS
32
ITEM: BOX BOUNDS pp pp pp
-1.8585710031662526e+01 1.6766690252737089e+01
-2.4433424939322247e+01 1.4206016697234841e+01
-9.4170670696218188e+00 2.0789725893997637e+01
ITEM: ATOMS id type mol x y z
3765 21 87 -15.5176 -0.347356 12.2982
3759 21 83 -13.2013 6.71662 0.816097
3820 21 122 -12.625 5.93393 17.4103
3793 21 103 -11.5898 12.0691 6.41668
3897 21 173 -15.986 12.2883 16.1078
3720 21 62 -9.27355 -19.6097 -4.64018
3800 21 108 -7.52114 -15.0986 1.61544
3766 21 88 -7.7064 -17.8439 -2.00624
3890 21 168 -11.1491 -6.23172 -3.53872
3881 21 161 -10.9702 -3.97194 -5.44794
3869 21 153 -10.3116 -0.167009 -4.4591
3896 21 172 -8.30702 -0.195075 19.4701
3805 21 113 -9.03647 7.81645 12.5757
3757 21 81 -9.76409 10.9812 0.294575
3763 21 85 1.31133 -12.2202 2.7544
3821 21 123 -2.02876 -9.13835 17.7387
3758 21 82 -1.24198 -7.53533 -4.38633
3810 21 116 2.11104 -4.72475 11.2037
3889 21 167 1.54352 2.74425 4.97799
3802 21 110 1.01136 2.80888 8.25374
3843 21 137 -1.95618 10.3778 16.4481
3887 21 165 -3.07725 11.4145 13.5296
3912 21 184 7.71622 -13.4467 18.0875
3918 21 188 4.5338 -11.9947 4.57604
3834 21 130 5.20705 -9.18778 2.58854
3914 21 186 5.25787 -3.00812 1.62669
3868 21 152 8.52453 -2.42661 -0.17586
3927 21 193 6.81245 -0.389492 2.39379
3825 21 125 8.5603 -2.33131 13.4683
3839 21 135 15.9385 -14.655 0.791179
3872 21 156 11.4252 -1.02123 8.7864
3867 21 151 12.5127 -2.27357 16.9631
ITEM: TIMESTEP
675000
ITEM: NUMBER OF ATOMS
32
ITEM: BOX BOUNDS pp pp pp
-1.8681784902216886e+01 1.6862765123291449e+01
-2.4328207512270165e+01 1.4100799270182758e+01
-9.1594695948076499e+00 2.0532128419206522e+01
ITEM: ATOMS id type mol x y z
3765 21 87 -15.597 -0.373314 12.1854
3759 21 83 -13.2681 6.6522 0.899161
3820 21 122 -12.6887 5.87376 17.2103
3793 21 103 -11.6479 11.9756 6.40422
3897 21 173 -16.0679 12.1935 15.9301
3720 21 62 -9.31901 -19.5308 -4.46406
3800 21 108 -7.55708 -15.0442 1.68487
3766 21 88 -7.74334 -17.7746 -1.87504
3890 21 168 -11.2047 -6.22564 -3.38138
3881 21 161 -11.0249 -3.97816 -5.25803
3869 21 153 -10.3627 -0.19395 -4.28606
3896 21 172 -8.34722 -0.221863 19.235
3805 21 113 -9.08064 7.74603 12.4582
3757 21 81 -9.81221 10.8936 0.386534
3763 21 85 1.3234 -12.1815 2.8044
3821 21 123 -2.03484 -9.11643 17.5332
3758 21 82 -1.24379 -7.52214 -4.21453
3810 21 116 2.12746 -4.72687 11.1095
3889 21 167 1.55685 2.70146 4.99007
3802 21 110 1.0218 2.76573 8.20995
3843 21 137 -1.96187 10.2935 16.2645
3887 21 165 -3.08903 11.3245 13.3958
3912 21 184 7.7631 -13.4013 17.876
3918 21 188 4.56339 -11.9572 4.59498
3834 21 130 5.2403 -9.1656 2.64137
3914 21 186 5.29139 -3.01959 1.69593
3868 21 152 8.57581 -2.44124 -0.0758766
3927 21 193 6.85442 -0.41522 2.44995
3825 21 125 8.61177 -2.34646 13.3356
3839 21 135 16.03 -14.603 0.874669
3872 21 156 11.4923 -1.04352 8.73353
3867 21 151 12.5856 -2.28904 16.7708
ITEM: TIMESTEP
680000
ITEM: NUMBER OF ATOMS
31
ITEM: BOX BOUNDS pp pp pp
-1.8585911567309310e+01 1.6766891788383873e+01
-2.4385072735976770e+01 1.4157664493889364e+01
-9.3033530225606640e+00 2.0676011846918783e+01
ITEM: ATOMS id type mol x y z
3765 21 87 -15.5178 -0.359284 12.2484
3759 21 83 -13.2015 6.68702 0.852765
3820 21 122 -12.6252 5.90628 17.322
3793 21 103 -11.5899 12.0261 6.41118
3897 21 173 -15.9861 12.2447 16.0293
3720 21 62 -9.27364 -19.5735 -4.56243
3800 21 108 -7.52122 -15.0736 1.64609
3766 21 88 -7.70647 -17.812 -1.94833
3890 21 168 -11.1492 -6.22893 -3.46927
3869 21 153 -10.3117 -0.17939 -4.38271
3896 21 172 -8.3071 -0.207385 19.3663
3805 21 113 -9.03656 7.78409 12.5238
3757 21 81 -9.76419 10.941 0.335169
3763 21 85 1.31135 -12.2024 2.77647
3821 21 123 -2.02877 -9.12828 17.648
3758 21 82 -1.24199 -7.52927 -4.31049
3810 21 116 2.11108 -4.72573 11.1621
3889 21 167 1.54355 2.72459 4.98332
3802 21 110 1.01138 2.78905 8.23441
3843 21 137 -1.95619 10.3391 16.367
3887 21 165 -3.07727 11.3731 13.4705
3912 21 184 7.71631 -13.4258 17.9941
3918 21 188 4.53386 -11.9775 4.5844
3834 21 130 5.20712 -9.17759 2.61186
3914 21 186 5.25794 -3.01339 1.65725
3868 21 152 8.52464 -2.43333 -0.131723
3927 21 193 6.81254 -0.401315 2.41858
3825 21 125 8.56041 -2.33827 13.4097
3839 21 135 15.9387 -14.6311 0.828035
3872 21 156 11.4254 -1.03147 8.76306
3867 21 151 12.5128 -2.28068 16.8782
ITEM: TIMESTEP
685000
ITEM: NUMBER OF ATOMS
33
ITEM: BOX BOUNDS pp pp pp
-1.8757429988144544e+01 1.6938410209219107e+01
-2.4361758765887824e+01 1.4134350523800418e+01
-9.2691518167511120e+00 2.0641810641096907e+01
ITEM: ATOMS id type mol x y z
3765 21 87 -15.6595 -0.365036 12.2334
3759 21 83 -13.3207 6.67274 0.863793
3820 21 122 -12.7388 5.89294 17.2955
3793 21 103 -11.6936 12.0054 6.40953
3897 21 173 -16.1324 12.2237 16.0057
3720 21 62 -9.3548 -19.556 -4.53905
3800 21 108 -7.58537 -15.0616 1.6553
3766 21 88 -7.77243 -17.7967 -1.93091
3890 21 168 -11.2486 -6.22758 -3.44838
3869 21 153 -10.4029 -0.185359 -4.35974
3896 21 172 -8.37888 -0.213321 19.3351
3805 21 113 -9.11542 7.76848 12.5082
3757 21 81 -9.85011 10.9215 0.347379
3763 21 85 1.3329 -12.1938 2.78311
3821 21 123 -2.03963 -9.12342 17.6207
3758 21 82 -1.24521 -7.52634 -4.28768
3810 21 116 2.14039 -4.72619 11.1496
3889 21 167 1.56735 2.71511 4.98492
3802 21 110 1.03002 2.77949 8.2286
3843 21 137 -1.96634 10.3204 16.3427
3887 21 165 -3.09831 11.3532 13.4527
3928 21 194 -0.0442484 10.2466 10.7051
3912 21 184 7.80001 -13.4158 17.966
3918 21 188 4.58668 -11.9692 4.58691
3834 21 130 5.26647 -9.17267 2.61888
3914 21 186 5.31779 -3.01593 1.66645
3868 21 152 8.61618 -2.43658 -0.118448
3927 21 193 6.88747 -0.407016 2.42604
3825 21 125 8.65229 -2.34163 13.3921
3839 21 135 16.1021 -14.6196 0.83912
3872 21 156 11.5451 -1.03641 8.75604
3932 21 196 16.0924 0.917638 12.3002
3867 21 151 12.643 -2.28411 16.8526
ITEM: TIMESTEP
690000
ITEM: NUMBER OF ATOMS
33
ITEM: BOX BOUNDS pp pp pp
-1.8655729491939603e+01 1.6836709713014166e+01
-2.4353607454291097e+01 1.4126199212203691e+01
-9.3685410006243011e+00 2.0741199824936501e+01
ITEM: ATOMS id type mol x y z
3765 21 87 -15.5755 -0.367047 12.2769
3759 21 83 -13.25 6.66775 0.831744
3820 21 122 -12.6714 5.88828 17.3726
3793 21 103 -11.6321 11.9982 6.41433
3897 21 173 -16.0457 12.2164 16.0743
3720 21 62 -9.30668 -19.5499 -4.607
3800 21 108 -7.54733 -15.0574 1.62852
3766 21 88 -7.73332 -17.7913 -1.98153
3890 21 168 -11.1896 -6.22711 -3.50908
3869 21 153 -10.3488 -0.187446 -4.4265
3896 21 172 -8.33632 -0.215396 19.4258
3805 21 113 -9.06866 7.76303 12.5535
3757 21 81 -9.79916 10.9148 0.311898
3763 21 85 1.32013 -12.1908 2.76382
3821 21 123 -2.03319 -9.12172 17.7
3758 21 82 -1.2433 -7.52532 -4.35397
3810 21 116 2.12301 -4.72636 11.1859
3889 21 167 1.55324 2.71179 4.98026
3802 21 110 1.01896 2.77614 8.24549
3843 21 137 -1.96032 10.3138 16.4135
3887 21 165 -3.08584 11.3462 13.5044
3928 21 194 -0.0491788 10.2401 10.7384
3912 21 184 7.75038 -13.4122 18.0476
3918 21 188 4.55536 -11.9663 4.57961
3834 21 130 5.23128 -9.17095 2.59849
3914 21 186 5.2823 -3.01682 1.63973
3868 21 152 8.5619 -2.43771 -0.157025
3927 21 193 6.84304 -0.409009 2.40437
3825 21 125 8.59781 -2.34281 13.4433
3839 21 135 16.0052 -14.6155 0.806907
3872 21 156 11.4741 -1.03814 8.77644
3932 21 196 15.9955 0.915084 12.3442
3867 21 151 12.5658 -2.2853 16.9269
ITEM: TIMESTEP
695000
ITEM: NUMBER OF ATOMS
33
ITEM: BOX BOUNDS pp pp pp
-1.8789002694627015e+01 1.6969982915701578e+01
-2.4239313932431564e+01 1.4011905690344157e+01
-9.3117774505677247e+00 2.0684436274871157e+01
ITEM: ATOMS id type mol x y z
3765 21 87 -15.6856 -0.395244 12.2521
3759 21 83 -13.3427 6.59776 0.850048
3820 21 122 -12.7598 5.82293 17.3286
3793 21 103 -11.7126 11.8965 6.41159
3897 21 173 -16.1594 12.1134 16.0352
3720 21 62 -9.36974 -19.4641 -4.56819
3800 21 108 -7.59718 -14.9983 1.64382
3766 21 88 -7.78457 -17.716 -1.95262
3890 21 168 -11.2668 -6.22049 -3.47441
3869 21 153 -10.4197 -0.21671 -4.38837
3896 21 172 -8.39209 -0.244494 19.374
3805 21 113 -9.12994 7.68653 12.5276
3757 21 81 -9.86592 10.8195 0.332162
3763 21 85 1.33687 -12.1488 2.77484
3821 21 123 -2.04163 -9.09791 17.6547
3758 21 82 -1.24581 -7.511 -4.31611
3810 21 116 2.14578 -4.72866 11.1652
3889 21 167 1.57173 2.6653 4.98293
3802 21 110 1.03345 2.72928 8.23584
3843 21 137 -1.96821 10.2222 16.373
3887 21 165 -3.10218 11.2484 13.4749
3928 21 194 -0.0427178 10.1489 10.7194
3912 21 184 7.81542 -13.3629 18.001
3918 21 188 4.5964 -11.9256 4.58378
3834 21 130 5.2774 -9.14685 2.61013
3914 21 186 5.3288 -3.02928 1.65499
3868 21 152 8.63303 -2.45361 -0.134993
3927 21 193 6.90126 -0.436957 2.41675
3825 21 125 8.66921 -2.35927 13.414
3839 21 135 16.1322 -14.5591 0.825304
3872 21 156 11.5671 -1.06235 8.76479
3932 21 196 16.1225 0.87927 12.3191
3867 21 151 12.667 -2.30211 16.8845
ITEM: TIMESTEP
700000
ITEM: NUMBER OF ATOMS
35
ITEM: BOX BOUNDS pp pp pp
-1.8847855482803002e+01 1.7028835703877565e+01
-2.4501659382837936e+01 1.4274251140750529e+01
-9.0768354982281743e+00 2.0449494322552226e+01
ITEM: ATOMS id type mol x y z
3936 21 198 -12.2237 -17.9799 14.5434
3765 21 87 -15.7342 -0.330522 12.1492
3759 21 83 -13.3836 6.75841 0.925808
3820 21 122 -12.7988 5.97294 17.1462
3937 21 199 -12.0795 3.92908 20.4159
3793 21 103 -11.7482 12.1298 6.40023
3897 21 173 -16.2096 12.3497 15.873
3720 21 62 -9.39759 -19.6609 -4.40756
3800 21 108 -7.6192 -15.1339 1.70714
3766 21 88 -7.8072 -17.8889 -1.83296
3890 21 168 -11.3009 -6.23567 -3.33091
3869 21 153 -10.451 -0.149538 -4.23055
3896 21 172 -8.41672 -0.177703 19.1596
3805 21 113 -9.157 7.86211 12.4205
3757 21 81 -9.8954 11.0381 0.416034
3763 21 85 1.34426 -12.2453 2.82044
3821 21 123 -2.04535 -9.15257 17.4672
3758 21 82 -1.24691 -7.54388 -4.15942
3810 21 116 2.15584 -4.72338 11.0794
3889 21 167 1.5799 2.77201 4.99394
3802 21 110 1.03984 2.83686 8.19591
3843 21 137 -1.9717 10.4326 16.2056
3887 21 165 -3.1094 11.4728 13.3529
3928 21 194 -0.0398646 10.3583 10.6405
3912 21 184 7.84414 -13.4761 17.8081
3918 21 188 4.61453 -12.019 4.60105
3834 21 130 5.29776 -9.20217 2.65832
3914 21 186 5.34934 -3.00068 1.71814
3868 21 152 8.66444 -2.41712 -0.0438032
3927 21 193 6.92697 -0.372806 2.46796
3825 21 125 8.70074 -2.32148 13.293
3839 21 135 16.1883 -14.6887 0.901451
3872 21 156 11.6082 -1.00678 8.71657
3932 21 196 16.1785 0.961476 12.2152
3867 21 151 12.7117 -2.26354 16.7091
ITEM: TIMESTEP
705000
ITEM: NUMBER OF ATOMS
38
ITEM: BOX BOUNDS pp pp pp
-1.8869115917981233e+01 1.7050096139055796e+01
-2.4370305196633225e+01 1.4142896954545819e+01
-9.2347575988416253e+00 2.0607416423121801e+01
ITEM: ATOMS id type mol x y z
3936 21 198 -12.2372 -17.8927 14.6382
3765 21 87 -15.7518 -0.362928 12.2184
3759 21 83 -13.3984 6.67797 0.874884
3820 21 122 -12.8129 5.89783 17.2688
3937 21 199 -12.0928 3.86782 20.5735
3793 21 103 -11.761 12.013 6.40786
3897 21 173 -16.2277 12.2314 15.982
3720 21 62 -9.40765 -19.5624 -4.51553
3800 21 108 -7.62715 -15.066 1.66458
3766 21 88 -7.81537 -17.8023 -1.91339
3890 21 168 -11.3133 -6.22807 -3.42737
3938 21 200 -11.0481 -3.2859 -4.9078
3869 21 153 -10.4623 -0.183171 -4.33663
3896 21 172 -8.42562 -0.211145 19.3037
3805 21 113 -9.16677 7.7742 12.4925
3757 21 81 -9.90605 10.9287 0.359657
3940 21 202 -9.22206 12.8499 12.9625
3763 21 85 1.34694 -12.1969 2.78979
3821 21 123 -2.0467 -9.1252 17.5932
3758 21 82 -1.24731 -7.52742 -4.26474
3810 21 116 2.15947 -4.72602 11.1371
3889 21 167 1.58285 2.71858 4.98654
3802 21 110 1.04215 2.78299 8.22275
3939 21 201 0.79826 -1.8633 19.4456
3843 21 137 -1.97296 10.3272 16.3182
3887 21 165 -3.11201 11.3605 13.4349
3928 21 194 -0.0388339 10.2535 10.6935
3912 21 184 7.85451 -13.4194 17.9378
3918 21 188 4.62107 -11.9722 4.58944
3834 21 130 5.30512 -9.17447 2.62593
3914 21 186 5.35675 -3.015 1.67569
3868 21 152 8.67579 -2.43539 -0.105099
3927 21 193 6.93626 -0.404926 2.43354
3825 21 125 8.71213 -2.3404 13.3744
3839 21 135 16.2086 -14.6238 0.850267
3872 21 156 11.623 -1.0346 8.74898
3932 21 196 16.1988 0.920316 12.285
3867 21 151 12.7279 -2.28285 16.827
ITEM: TIMESTEP
710000
ITEM: NUMBER OF ATOMS
39
ITEM: BOX BOUNDS pp pp pp
-1.8696836317547472e+01 1.6877816538622035e+01
-2.4446171040899142e+01 1.4218762798811735e+01
-9.2354261571822356e+00 2.0608084981444758e+01
ITEM: ATOMS id type mol x y z
3936 21 198 -12.1285 -17.943 14.6386
3765 21 87 -15.6094 -0.344211 12.2186
3759 21 83 -13.2786 6.72443 0.874669
3820 21 122 -12.6987 5.94121 17.2693
3937 21 199 -11.9855 3.9032 20.5741
3793 21 103 -11.657 12.0805 6.4079
3897 21 173 -16.0808 12.2998 15.9825
3720 21 62 -9.32613 -19.6193 -4.51599
3800 21 108 -7.56271 -15.1052 1.6644
3766 21 88 -7.74913 -17.8523 -1.91373
3890 21 168 -11.2135 -6.23246 -3.42778
3938 21 200 -10.9508 -3.2787 -4.90828
3869 21 153 -10.3707 -0.163746 -4.33708
3896 21 172 -8.35352 -0.19183 19.3043
3805 21 113 -9.08756 7.82498 12.4928
3757 21 81 -9.81975 10.9919 0.359419
3940 21 202 -9.14232 12.9207 12.9628
3941 21 203 -1.99585 -14.0723 0.67553
3763 21 85 1.32529 -12.2249 2.78966
3821 21 123 -2.03579 -9.14101 17.5938
3758 21 82 -1.24407 -7.53692 -4.26519
3810 21 116 2.13003 -4.7245 11.1373
3889 21 167 1.55894 2.74944 4.98651
3802 21 110 1.02343 2.8141 8.22287
3939 21 201 0.781878 -1.8505 19.4462
3843 21 137 -1.96276 10.3881 16.3186
3887 21 165 -3.09088 11.4254 13.4352
3928 21 194 -0.047186 10.314 10.6937
3912 21 184 7.77044 -13.4522 17.9383
3918 21 188 4.56802 -11.9993 4.58939
3834 21 130 5.24551 -9.19047 2.62579
3914 21 186 5.29664 -3.00673 1.67551
3868 21 152 8.58384 -2.42484 -0.105358
3927 21 193 6.861 -0.386375 2.43339
3825 21 125 8.61983 -2.32948 13.3747
3839 21 135 16.0444 -14.6613 0.850051
3872 21 156 11.5028 -1.01853 8.74912
3932 21 196 16.0347 0.944088 12.2853
3867 21 151 12.597 -2.2717 16.8275
ITEM: TIMESTEP
715000
ITEM: NUMBER OF ATOMS
40
ITEM: BOX BOUNDS pp pp pp
-1.8831706811633289e+01 1.7012687032707852e+01
-2.4407327008690299e+01 1.4179918766602892e+01
-9.2777279676171460e+00 2.0650386791854984e+01
ITEM: ATOMS id type mol x y z
3765 21 87 -15.7209 -0.353794 12.2372
3759 21 83 -13.3724 6.70064 0.861028
3820 21 122 -12.7881 5.919 17.3021
3937 21 199 -12.0695 3.88509 20.6163
3793 21 103 -11.7384 12.0459 6.40994
3897 21 173 -16.1958 12.2648 16.0117
3720 21 62 -9.38995 -19.5902 -4.54491
3800 21 108 -7.61316 -15.0851 1.65299
3766 21 88 -7.80099 -17.8267 -1.93528
3942 21 204 -10.4515 -9.85705 5.49897
3890 21 168 -11.2916 -6.23021 -3.45362
3938 21 200 -11.027 -3.28239 -4.93831
3869 21 153 -10.4424 -0.173691 -4.3655
3896 21 172 -8.40997 -0.201719 19.3429
3805 21 113 -9.14957 7.79898 12.5121
3757 21 81 -9.88731 10.9595 0.344317
3940 21 202 -9.20474 12.8844 12.9834
3941 21 203 -2.00408 -14.0543 0.661325
3763 21 85 1.34224 -12.2106 2.78144
3821 21 123 -2.04433 -9.13291 17.6275
3943 21 205 2.13583 -8.12023 20.0777
3758 21 82 -1.24661 -7.53206 -4.2934
3810 21 116 2.15308 -4.72528 11.1527
3889 21 167 1.57766 2.73364 4.98452
3802 21 110 1.03809 2.79817 8.23006
3939 21 201 0.794702 -1.85705 19.4853
3843 21 137 -1.97074 10.3569 16.3488
3887 21 165 -3.10742 11.3921 13.4572
3928 21 194 -0.0406475 10.283 10.7079
3912 21 184 7.83626 -13.4354 17.9731
3918 21 188 4.60955 -11.9854 4.58628
3834 21 130 5.29217 -9.18228 2.61712
3914 21 186 5.3437 -3.01097 1.66414
3868 21 152 8.65583 -2.43024 -0.121777
3927 21 193 6.91992 -0.395873 2.42417
3825 21 125 8.69209 -2.33507 13.3965
3839 21 135 16.1729 -14.6421 0.83634
3872 21 156 11.5969 -1.02676 8.7578
3932 21 196 16.1631 0.931917 12.304
3867 21 151 12.6994 -2.27741 16.8591
ITEM: TIMESTEP
720000
ITEM: NUMBER OF ATOMS
40
ITEM: BOX BOUNDS pp pp pp
-1.8674762314999960e+01 1.6855742536074523e+01
-2.4440557963555630e+01 1.4213149721468223e+01
-9.3449933385558168e+00 2.0717652162764615e+01
ITEM: ATOMS id type mol x y z
3765 21 87 -15.5912 -0.345596 12.2666
3759 21 83 -13.2633 6.72099 0.839338
3820 21 122 -12.6841 5.938 17.3543
3937 21 199 -11.9717 3.90059 20.6834
3793 21 103 -11.6436 12.0755 6.41319
3897 21 173 -16.0619 12.2947 16.0581
3720 21 62 -9.31569 -19.6151 -4.5909
3800 21 108 -7.55445 -15.1023 1.63486
3766 21 88 -7.74064 -17.8486 -1.96954
3942 21 204 -10.3679 -9.86522 5.49813
3890 21 168 -11.2007 -6.23214 -3.4947
3938 21 200 -10.9384 -3.27923 -4.98607
3869 21 153 -10.359 -0.165183 -4.41068
3896 21 172 -8.34428 -0.193259 19.4043
3805 21 113 -9.07741 7.82122 12.5428
3757 21 81 -9.8087 10.9872 0.320304
3940 21 202 -9.1321 12.9154 13.0162
3941 21 203 -1.9945 -14.0697 0.638737
3763 21 85 1.32252 -12.2228 2.76839
3943 21 205 2.10916 -8.12541 20.1424
3821 21 123 -2.03439 -9.13984 17.6812
3758 21 82 -1.24366 -7.53622 -4.33826
3810 21 116 2.12626 -4.72461 11.1773
3889 21 167 1.55588 2.74716 4.98137
3802 21 110 1.02103 2.8118 8.24149
3939 21 201 0.779779 -1.85145 19.5473
3843 21 137 -1.96145 10.3836 16.3967
3887 21 165 -3.08817 11.4206 13.4921
3928 21 194 -0.0482561 10.3095 10.7305
3912 21 184 7.75967 -13.4497 18.0283
3918 21 188 4.56122 -11.9973 4.58134
3834 21 130 5.23787 -9.18929 2.60332
3914 21 186 5.28894 -3.00734 1.64606
3868 21 152 8.57206 -2.42562 -0.147885
3927 21 193 6.85135 -0.387747 2.4095
3825 21 125 8.60801 -2.33028 13.4312
3839 21 135 16.0233 -14.6585 0.814539
3872 21 156 11.4874 -1.01972 8.77161
3932 21 196 16.0136 0.94233 12.3338
3867 21 151 12.5803 -2.27252 16.9093
ITEM: TIMESTEP
725000
ITEM: NUMBER OF ATOMS
41
ITEM: BOX BOUNDS pp pp pp
-1.8841961970968605e+01 1.7022942192043168e+01
-2.4282025578244539e+01 1.4054617336157133e+01
-9.3166711209919271e+00 2.0689329945187758e+01
ITEM: ATOMS id type mol x y z
3765 21 87 -15.7294 -0.384707 12.2542
3759 21 83 -13.3795 6.62392 0.84847
3820 21 122 -12.7949 5.84735 17.3323
3937 21 199 -12.0759 3.82664 20.6552
3793 21 103 -11.7446 11.9345 6.41182
3897 21 173 -16.2045 12.1519 16.0385
3720 21 62 -9.3948 -19.4961 -4.57154
3800 21 108 -7.61699 -15.0204 1.6425
3766 21 88 -7.80493 -17.7441 -1.95511
3942 21 204 -10.457 -9.82625 5.49849
3890 21 168 -11.2975 -6.22296 -3.4774
3938 21 200 -11.0328 -3.29428 -4.96596
3869 21 153 -10.4479 -0.205774 -4.39166
3896 21 172 -8.41426 -0.23362 19.3785
3805 21 113 -9.15429 7.71512 12.5299
3757 21 81 -9.89245 10.8551 0.330415
3940 21 202 -9.20949 12.7676 13.0024
3941 21 203 -2.00471 -13.9963 0.648248
3763 21 85 1.34352 -12.1645 2.77389
3943 21 205 2.13757 -8.10071 20.1151
3821 21 123 -2.04498 -9.10681 17.6586
3758 21 82 -1.2468 -7.51635 -4.31937
3810 21 116 2.15483 -4.7278 11.167
3889 21 167 1.57908 2.68268 4.9827
3802 21 110 1.0392 2.74679 8.23668
3939 21 201 0.795678 -1.8782 19.5212
3947 21 207 0.879375 6.64326 15.3161
3843 21 137 -1.97135 10.2564 16.3765
3887 21 165 -3.10868 11.2849 13.4774
3928 21 194 -0.0401503 10.183 10.721
3912 21 184 7.84126 -13.3814 18.005
3918 21 188 4.61271 -11.9408 4.58342
3834 21 130 5.29572 -9.15586 2.60913
3914 21 186 5.34728 -3.02462 1.65368
3868 21 152 8.6613 -2.44767 -0.136892
3927 21 193 6.9244 -0.426513 2.41568
3825 21 125 8.69758 -2.35312 13.4166
3839 21 135 16.1827 -14.5802 0.823718
3872 21 156 11.6041 -1.0533 8.76579
3932 21 196 16.1729 0.892654 12.3213
3867 21 151 12.7072 -2.29583 16.8881
ITEM: TIMESTEP
730000
ITEM: NUMBER OF ATOMS
41
ITEM: BOX BOUNDS pp pp pp
-1.9032488813651575e+01 1.7213469034726138e+01
-2.4333515234810115e+01 1.4106106992722708e+01
-9.1904442800379513e+00 2.0563103104237442e+01
ITEM: ATOMS id type mol x y z
3765 21 87 -15.8868 -0.372004 12.199
3759 21 83 -13.512 6.65545 0.889173
3820 21 122 -12.9211 5.87679 17.2344
3937 21 199 -12.1945 3.85066 20.5293
3793 21 103 -11.8598 11.9803 6.40572
3897 21 173 -16.367 12.1983 15.9514
3720 21 62 -9.48496 -19.5348 -4.48523
3800 21 108 -7.68826 -15.047 1.67652
3766 21 88 -7.87819 -17.7781 -1.89082
3942 21 204 -10.5584 -9.83891 5.50007
3938 21 200 -11.1403 -3.28939 -4.87634
3869 21 153 -10.5492 -0.192591 -4.30687
3896 21 172 -8.49399 -0.220511 19.2633
3805 21 113 -9.24189 7.74958 12.4723
3757 21 81 -9.98789 10.898 0.375477
3940 21 202 -9.29767 12.8156 12.9409
3941 21 203 -2.01634 -14.0201 0.690636
3763 21 85 1.36746 -12.1834 2.79839
3943 21 205 2.16995 -8.10873 19.9937
3821 21 123 -2.05705 -9.11754 17.5579
3758 21 82 -1.25039 -7.5228 -4.23519
3810 21 116 2.18739 -4.72676 11.1209
3889 21 167 1.60552 2.70362 4.98862
3802 21 110 1.05991 2.76791 8.21522
3939 21 201 0.813795 -1.86951 19.4048
3947 21 207 0.898381 6.67485 15.235
3843 21 137 -1.98263 10.2977 16.2866
3887 21 165 -3.13204 11.329 13.4119
3928 21 194 -0.0309136 10.2241 10.6786
3912 21 184 7.93424 -13.4036 17.9014
3918 21 188 4.67138 -11.9591 4.5927
3834 21 130 5.36165 -9.16671 2.63502
3914 21 186 5.41376 -3.01901 1.6876
3868 21 152 8.76299 -2.4405 -0.087899
3927 21 193 7.00763 -0.413922 2.4432
3825 21 125 8.79965 -2.3457 13.3515
3839 21 135 16.3643 -14.6056 0.86463
3948 21 208 11.4454 -9.39355 -2.75767
3872 21 156 11.737 -1.0424 8.73989
3932 21 196 16.3544 0.908788 12.2654
3867 21 151 12.8519 -2.28826 16.7939
ITEM: TIMESTEP
735000
ITEM: NUMBER OF ATOMS
40
ITEM: BOX BOUNDS pp pp pp
-1.8723393429676012e+01 1.6904373650750575e+01
-2.4415030141965495e+01 1.4187621899878089e+01
-9.3147296658527843e+00 2.0687388490012943e+01
ITEM: ATOMS id type mol x y z
3765 21 87 -15.6314 -0.351894 12.2534
3759 21 83 -13.2971 6.70536 0.849096
3820 21 122 -12.7163 5.92341 17.3308
3937 21 199 -12.002 3.88868 20.6533
3793 21 103 -11.673 12.0528 6.41173
3897 21 173 -16.1034 12.2717 16.0372
3720 21 62 -9.3387 -19.5959 -4.57021
3800 21 108 -7.57264 -15.0891 1.64302
3766 21 88 -7.75934 -17.8318 -1.95412
3942 21 204 -10.3938 -9.85895 5.49851
3938 21 200 -10.9658 -3.28166 -4.96458
3869 21 153 -10.3848 -0.171719 -4.39035
3896 21 172 -8.36464 -0.199758 19.3767
3805 21 113 -9.09977 7.80413 12.529
3757 21 81 -9.83306 10.9659 0.331108
3940 21 202 -9.15461 12.8916 13.0015
3941 21 203 -1.99747 -14.0579 0.6489
3763 21 85 1.32863 -12.2134 2.77426
3943 21 205 2.11742 -8.12143 20.1133
3821 21 123 -2.03747 -9.13452 17.657
3758 21 82 -1.24457 -7.53302 -4.31808
3810 21 116 2.13457 -4.72512 11.1663
3889 21 167 1.56263 2.73677 4.98279
3802 21 110 1.02632 2.80133 8.23635
3939 21 201 0.784403 -1.85575 19.5194
3843 21 137 -1.96433 10.3631 16.3751
3887 21 165 -3.09413 11.3987 13.4764
3928 21 194 -0.0458985 10.2892 10.7204
3912 21 184 7.7834 -13.4387 18.0034
3918 21 188 4.5762 -11.9882 4.58356
3834 21 130 5.25469 -9.1839 2.60953
3914 21 186 5.30591 -3.01013 1.6542
3868 21 152 8.59802 -2.42917 -0.136139
3927 21 193 6.8726 -0.39399 2.4161
3825 21 125 8.63406 -2.33396 13.4156
3839 21 135 16.0697 -14.6459 0.824348
3948 21 208 11.2347 -9.41171 -2.82822
3872 21 156 11.5213 -1.02513 8.7654
3932 21 196 16.06 0.934331 12.3204
3867 21 151 12.6172 -2.27627 16.8867
ITEM: TIMESTEP
740000
ITEM: NUMBER OF ATOMS
43
ITEM: BOX BOUNDS pp pp pp
-1.8918135145536041e+01 1.7099115366610604e+01
-2.4319559692540292e+01 1.4092151450452885e+01
-9.3078771901172637e+00 2.0680536014260724e+01
ITEM: ATOMS id type mol x y z
3765 21 87 -15.7923 -0.375447 12.2504
3759 21 83 -13.4325 6.6469 0.851306
3820 21 122 -12.8454 5.86881 17.3255
3937 21 199 -12.1233 3.84415 20.6464
3793 21 103 -11.7907 11.9679 6.4114
3897 21 173 -16.2695 12.1857 16.0325
3720 21 62 -9.43085 -19.5243 -4.56552
3800 21 108 -7.64548 -15.0398 1.64487
3766 21 88 -7.83422 -17.7689 -1.95063
3942 21 204 -10.4975 -9.83548 5.4986
3938 21 200 -11.0758 -3.29072 -4.95972
3869 21 153 -10.4884 -0.196164 -4.38575
3896 21 172 -8.44614 -0.224064 19.3704
3805 21 113 -9.18931 7.74024 12.5259
3757 21 81 -9.93061 10.8864 0.333554
3940 21 202 -9.24475 12.8026 12.9981
3941 21 203 -2.00936 -14.0137 0.651201
3763 21 85 1.35309 -12.1783 2.77559
3943 21 205 2.15051 -8.10656 20.1067
3821 21 123 -2.0498 -9.11463 17.6516
3758 21 82 -1.24824 -7.52105 -4.31351
3810 21 116 2.16785 -4.72704 11.1638
3889 21 167 1.58965 2.69794 4.98311
3802 21 110 1.04748 2.76218 8.23518
3939 21 201 0.802921 -1.87187 19.5131
3843 21 137 -1.97586 10.2865 16.3703
3887 21 165 -3.11802 11.3171 13.4729
3928 21 194 -0.0364575 10.213 10.7181
3956 21 212 9.53013 -23.2986 11.7022
3912 21 184 7.87843 -13.3976 17.9978
3918 21 188 4.63617 -11.9542 4.58407
3834 21 130 5.32208 -9.16377 2.61093
3914 21 186 5.37386 -3.02053 1.65604
3868 21 152 8.70195 -2.44245 -0.133479
3927 21 193 6.95767 -0.417335 2.4176
3825 21 125 8.73839 -2.34771 13.412
3839 21 135 16.2553 -14.5987 0.826569
3948 21 208 11.3674 -9.39045 -2.82433
3955 21 211 13.8747 -10.5014 -5.46377
3872 21 156 11.6572 -1.04535 8.76399
3932 21 196 16.2455 0.904415 12.3174
3867 21 151 12.7651 -2.29031 16.8816
3957 21 213 14.6685 5.51214 15.4644
ITEM: TIMESTEP
745000
ITEM: NUMBER OF ATOMS
43
ITEM: BOX BOUNDS pp pp pp
-1.8903774046780203e+01 1.7084754267854766e+01
-2.4305421037720599e+01 1.4078012795633192e+01
-9.2272752166494492e+00 2.0599934040789041e+01
ITEM: ATOMS id type mol x y z
3765 21 87 -15.7804 -0.378935 12.2151
3759 21 83 -13.4225 6.63824 0.877297
3820 21 122 -12.8358 5.86073 17.263
3958 21 214 -12.6431 6.59636 20.5889
3793 21 103 -11.782 11.9553 6.4075
3897 21 173 -16.2573 12.173 15.9768
3720 21 62 -9.42405 -19.5137 -4.51042
3800 21 108 -7.64011 -15.0325 1.66659
3766 21 88 -7.8287 -17.7596 -1.90958
3942 21 204 -10.4899 -9.832 5.49961
3938 21 200 -11.0677 -3.29206 -4.90249
3869 21 153 -10.4808 -0.199784 -4.33161
3896 21 172 -8.44013 -0.227664 19.2969
3805 21 113 -9.18271 7.73078 12.4891
3757 21 81 -9.92342 10.8746 0.362328
3940 21 202 -9.2381 12.7894 12.9588
3941 21 203 -2.00848 -14.0071 0.678268
3763 21 85 1.35129 -12.1731 2.79124
3943 21 205 2.14807 -8.10435 20.0292
3821 21 123 -2.0489 -9.11169 17.5873
3758 21 82 -1.24797 -7.51928 -4.25975
3810 21 116 2.16539 -4.72733 11.1343
3889 21 167 1.58766 2.69219 4.98689
3802 21 110 1.04592 2.75638 8.22148
3939 21 201 0.801555 -1.87426 19.4387
3843 21 137 -1.97501 10.2752 16.3128
3887 21 165 -3.11626 11.305 13.431
3928 21 194 -0.0371537 10.2017 10.691
3956 21 212 9.5218 -23.2853 11.6699
3912 21 184 7.87143 -13.3915 17.9316
3918 21 188 4.63175 -11.9491 4.58999
3834 21 130 5.31711 -9.16079 2.62747
3914 21 186 5.36885 -3.02207 1.6777
3868 21 152 8.69429 -2.44441 -0.102194
3927 21 193 6.9514 -0.420792 2.43517
3825 21 125 8.7307 -2.34975 13.3705
3839 21 135 16.2416 -14.5917 0.852692
3948 21 208 11.3577 -9.3873 -2.77858
3955 21 211 13.8629 -10.4974 -5.40383
3872 21 156 11.6472 -1.04835 8.74745
3932 21 196 16.2318 0.899985 12.2817
3867 21 151 12.7542 -2.29239 16.8214
3957 21 213 14.6561 5.50432 15.4119
ITEM: TIMESTEP
750000
ITEM: NUMBER OF ATOMS
43
ITEM: BOX BOUNDS pp pp pp
-1.8781362404840031e+01 1.6962342625914594e+01
-2.4420825638515527e+01 1.4193417396428121e+01
-9.2114666609458098e+00 2.0584125485070373e+01
ITEM: ATOMS id type mol x y z
3765 21 87 -15.6793 -0.350464 12.2082
3759 21 83 -13.3374 6.70891 0.882394
3820 21 122 -12.7547 5.92672 17.2507
3958 21 214 -12.5633 6.66678 20.5731
3793 21 103 -11.708 12.0579 6.40674
3897 21 173 -16.1528 12.2769 15.9659
3720 21 62 -9.36613 -19.6003 -4.49961
3800 21 108 -7.59433 -15.0921 1.67085
3766 21 88 -7.78163 -17.8356 -1.90153
3942 21 204 -10.4247 -9.86037 5.4998
3938 21 200 -10.9985 -3.28111 -4.89126
3869 21 153 -10.4157 -0.170235 -4.32099
3896 21 172 -8.3889 -0.198283 19.2824
3805 21 113 -9.12643 7.80801 12.4819
3757 21 81 -9.8621 10.9708 0.367972
3940 21 202 -9.18144 12.897 12.9511
3941 21 203 -2.00101 -14.0606 0.683576
3763 21 85 1.33591 -12.2155 2.79431
3943 21 205 2.12727 -8.12234 20.014
3821 21 123 -2.04114 -9.13573 17.5746
3758 21 82 -1.24566 -7.53375 -4.24921
3810 21 116 2.14447 -4.72501 11.1285
3889 21 167 1.57067 2.73913 4.98763
3802 21 110 1.03262 2.80371 8.21879
3939 21 201 0.789915 -1.85478 19.4241
3843 21 137 -1.96776 10.3677 16.3016
3887 21 165 -3.10124 11.4037 13.4228
3928 21 194 -0.0430882 10.2938 10.6857
3956 21 212 9.45084 -23.3945 11.6635
3912 21 184 7.81169 -13.4412 17.9187
3918 21 188 4.59405 -11.9902 4.59115
3834 21 130 5.27475 -9.18513 2.63071
3914 21 186 5.32614 -3.00949 1.68195
3868 21 152 8.62896 -2.42836 -0.0960585
3927 21 193 6.89792 -0.392572 2.43861
3825 21 125 8.66512 -2.33313 13.3624
3839 21 135 16.125 -14.6487 0.857816
3948 21 208 11.2742 -9.413 -2.7696
3955 21 211 13.7624 -10.5298 -5.39207
3872 21 156 11.5618 -1.0239 8.7442
3932 21 196 16.1152 0.936147 12.2747
3867 21 151 12.6612 -2.27542 16.8096
3957 21 213 14.5502 5.56817 15.4016
ITEM: TIMESTEP
755000
ITEM: NUMBER OF ATOMS
47
ITEM: BOX BOUNDS pp pp pp
-1.8937624894003463e+01 1.7118605115078026e+01
-2.4649889733638197e+01 1.4422481491550791e+01
-9.2606225189979483e+00 2.0633281343096112e+01
ITEM: ATOMS id type mol x y z
3765 21 87 -15.8084 -0.293952 12.2297
3759 21 83 -13.446 6.84918 0.866544
3820 21 122 -12.8583 6.05771 17.2888
3958 21 214 -12.6652 6.80654 20.6222
3793 21 103 -11.8024 12.2617 6.40911
3897 21 173 -16.2861 12.4833 15.9999
3720 21 62 -9.44007 -19.7722 -4.53322
3960 21 216 -9.41886 -24.2385 19.3875
3800 21 108 -7.65277 -15.2105 1.6576
3766 21 88 -7.84171 -17.9865 -1.92656
3942 21 204 -10.5079 -9.91669 5.49919
3938 21 200 -11.0868 -3.25936 -4.92617
3869 21 153 -10.4988 -0.111585 -4.35401
3896 21 172 -8.45429 -0.139965 19.3273
3805 21 113 -9.19827 7.96132 12.5043
3757 21 81 -9.94037 11.1616 0.350424
3940 21 202 -9.25377 13.1107 12.9751
3941 21 203 -2.01055 -14.1667 0.667069
3763 21 85 1.35554 -12.2998 2.78477
3943 21 205 2.15383 -8.15803 20.0612
3821 21 123 -2.05104 -9.18344 17.6139
3758 21 82 -1.2486 -7.56246 -4.28199
3810 21 116 2.17118 -4.72039 11.1465
3889 21 167 1.59236 2.8323 4.98532
3802 21 110 1.0496 2.89764 8.22715
3939 21 201 0.804774 -1.81611 19.4695
3959 21 215 1.55185 7.42937 17.9794
3843 21 137 -1.97701 10.5514 16.3366
3887 21 165 -3.12041 11.5997 13.4483
3928 21 194 -0.0355126 10.4766 10.7022
3956 21 212 9.54143 -23.6114 11.6832
3912 21 184 7.88794 -13.54 17.959
3918 21 188 4.64217 -12.0718 4.58754
3834 21 130 5.32883 -9.23343 2.62063
3914 21 186 5.38066 -2.98453 1.66874
3868 21 152 8.71236 -2.3965 -0.115138
3961 21 217 2.92416 -5.11708 -7.81913
3962 21 218 7.18935 0.653436 -2.14109
3927 21 193 6.96619 -0.33656 2.4279
3825 21 125 8.74883 -2.30014 13.3877
3839 21 135 16.2739 -14.7619 0.841884
3948 21 208 11.3807 -9.464 -2.79751
3955 21 211 13.8907 -10.594 -5.42863
3872 21 156 11.6708 -0.975379 8.75429
3932 21 196 16.264 1.00792 12.2965
3867 21 151 12.7799 -2.24175 16.8463
3957 21 213 14.6853 5.6949 15.4336
ITEM: TIMESTEP
760000
ITEM: NUMBER OF ATOMS
49
ITEM: BOX BOUNDS pp pp pp
-1.8973746409641823e+01 1.7154726630716386e+01
-2.4332787523959741e+01 1.4105379281872334e+01
-9.3057800275053388e+00 2.0678438851577482e+01
ITEM: ATOMS id type mol x y z
3964 21 220 -14.233 -9.21664 5.73355
3765 21 87 -15.8383 -0.372184 12.2494
3759 21 83 -13.4712 6.655 0.851982
3820 21 122 -12.8822 5.87638 17.3239
3958 21 214 -12.6887 6.61306 20.6674
3793 21 103 -11.8243 11.9796 6.4113
3897 21 173 -16.3169 12.1976 16.031
3720 21 62 -9.45716 -19.5342 -4.56409
3960 21 216 -9.43591 -23.9281 19.4289
3800 21 108 -7.66629 -15.0466 1.64543
3766 21 88 -7.8556 -17.7776 -1.94956
3942 21 204 -10.5271 -9.83873 5.49862
3938 21 200 -11.1072 -3.28946 -4.95823
3869 21 153 -10.518 -0.192777 -4.38434
3896 21 172 -8.46941 -0.220697 19.3685
3805 21 113 -9.21488 7.74909 12.5249
3757 21 81 -9.95847 10.8974 0.334303
3940 21 202 -9.27049 12.8149 12.9971
3941 21 203 -2.01276 -14.0198 0.651905
3763 21 85 1.36008 -12.1831 2.776
3943 21 205 2.15996 -8.10862 20.1047
3821 21 123 -2.05333 -9.11739 17.6499
3758 21 82 -1.24928 -7.52271 -4.31211
3810 21 116 2.17735 -4.72678 11.163
3889 21 167 1.59737 2.70332 4.98321
3802 21 110 1.05352 2.76761 8.23482
3939 21 201 0.808209 -1.86964 19.5111
3959 21 215 1.55678 7.22578 18.0165
3843 21 137 -1.97915 10.2971 16.3688
3887 21 165 -3.12484 11.3284 13.4718
3928 21 194 -0.0337614 10.2235 10.7174
3956 21 212 9.56237 -23.3112 11.7014
3912 21 184 7.90557 -13.4033 17.9961
3918 21 188 4.65329 -11.9589 4.58422
3834 21 130 5.34133 -9.16656 2.61136
3914 21 186 5.39326 -3.01909 1.6566
3961 21 217 2.93184 -5.11702 -7.85993
3868 21 152 8.73163 -2.44061 -0.132665
3962 21 218 7.20558 0.559826 -2.16474
3927 21 193 6.98197 -0.4141 2.41805
3825 21 125 8.76818 -2.3458 13.411
3839 21 135 16.3083 -14.6053 0.827248
3948 21 208 11.4054 -9.39339 -2.82314
3955 21 211 13.9203 -10.5051 -5.46221
3963 21 219 10.52 -3.72016 15.4097
3872 21 156 11.696 -1.04255 8.76356
3932 21 196 16.2984 0.90856 12.3164
3867 21 151 12.8073 -2.28836 16.88
3957 21 213 14.7166 5.51946 15.4631
ITEM: TIMESTEP
765000
ITEM: NUMBER OF ATOMS
49
ITEM: BOX BOUNDS pp pp pp
-1.9039421469750678e+01 1.7220401690825241e+01
-2.4432157979241445e+01 1.4204749737154039e+01
-9.1415070449454134e+00 2.0514165869029437e+01
ITEM: ATOMS id type mol x y z
3964 21 220 -14.2815 -9.23785 5.73303
3765 21 87 -15.8926 -0.347668 12.1775
3759 21 83 -13.5168 6.71585 0.904954
3820 21 122 -12.9257 5.9332 17.1964
3958 21 214 -12.7315 6.67369 20.5032
3793 21 103 -11.8639 12.068 6.40335
3897 21 173 -16.373 12.2871 15.9177
3720 21 62 -9.48824 -19.6088 -4.45177
3960 21 216 -9.46691 -24.0254 19.2783
3800 21 108 -7.69085 -15.098 1.68971
3766 21 88 -7.88086 -17.8431 -1.86589
3942 21 204 -10.5621 -9.86316 5.50068
3938 21 200 -11.1442 -3.28003 -4.84159
3869 21 153 -10.5529 -0.167334 -4.27399
3896 21 172 -8.4969 -0.195398 19.2186
3805 21 113 -9.24507 7.8156 12.45
3757 21 81 -9.99137 10.9802 0.392947
3940 21 202 -9.30088 12.9076 12.917
3941 21 203 -2.01677 -14.0658 0.707069
3763 21 85 1.36833 -12.2197 2.80789
3943 21 205 2.17112 -8.1241 19.9467
3821 21 123 -2.05748 -9.13809 17.5188
3758 21 82 -1.25052 -7.53517 -4.20255
3810 21 116 2.18857 -4.72478 11.103
3889 21 167 1.60649 2.74374 4.99091
3802 21 110 1.06066 2.80836 8.2069
3939 21 201 0.814454 -1.85286 19.3596
3959 21 215 1.56575 7.28958 17.8814
3843 21 137 -1.98304 10.3768 16.2517
3887 21 165 -3.13289 11.4134 13.3865
3928 21 194 -0.0305775 10.3028 10.6622
3956 21 212 9.60044 -23.4053 11.6355
3912 21 184 7.93762 -13.4461 17.8612
3918 21 188 4.67352 -11.9943 4.5963
3834 21 130 5.36405 -9.18752 2.64506
3914 21 186 5.41617 -3.00826 1.70076
3961 21 217 2.94581 -5.11704 -7.7115
3868 21 152 8.76669 -2.42679 -0.0689046
3962 21 218 7.23508 0.589161 -2.07872
3927 21 193 7.01066 -0.389801 2.45386
3825 21 125 8.80337 -2.33149 13.3263
3839 21 135 16.3709 -14.6543 0.880491
3948 21 208 11.4501 -9.41552 -2.7299
3955 21 211 13.9743 -10.533 -5.34005
3963 21 219 10.5616 -3.71295 15.3032
3872 21 156 11.7419 -1.0215 8.72984
3932 21 196 16.361 0.939698 12.2438
3867 21 151 12.8572 -2.27376 16.7573
3957 21 213 14.7734 5.57444 15.3559
ITEM: TIMESTEP
770000
ITEM: NUMBER OF ATOMS
49
ITEM: BOX BOUNDS pp pp pp
-1.8973829695207019e+01 1.7154809916281582e+01
-2.4365800710294316e+01 1.4138392468206909e+01
-9.1344988720689351e+00 2.0507157696136638e+01
ITEM: ATOMS id type mol x y z
3964 21 220 -14.2331 -9.22369 5.73301
3765 21 87 -15.8383 -0.364039 12.1745
3759 21 83 -13.4712 6.67522 0.907213
3820 21 122 -12.8823 5.89526 17.1909
3958 21 214 -12.6888 6.6332 20.4962
3966 21 222 -14.3737 12.9866 -1.74877
3793 21 103 -11.8243 12.009 6.40302
3897 21 173 -16.317 12.2274 15.9128
3720 21 62 -9.4572 -19.559 -4.44698
3960 21 216 -9.43595 -23.9604 19.2719
3800 21 108 -7.66632 -15.0637 1.6916
3766 21 88 -7.85564 -17.7993 -1.86233
3942 21 204 -10.5272 -9.84685 5.50077
3938 21 200 -11.1072 -3.28633 -4.83662
3869 21 153 -10.518 -0.184324 -4.26929
3896 21 172 -8.46944 -0.212292 19.2122
3965 21 221 -10.5521 5.63974 1.40257
3805 21 113 -9.21492 7.77119 12.4468
3940 21 202 -9.27052 12.8457 12.9136
3941 21 203 -2.01276 -14.0351 0.709422
3763 21 85 1.36009 -12.1953 2.80925
3943 21 205 2.15998 -8.11376 19.9399
3821 21 123 -2.05333 -9.12426 17.5132
3758 21 82 -1.24928 -7.52685 -4.19788
3810 21 116 2.17736 -4.72611 11.1004
3889 21 167 1.59738 2.71675 4.99124
3802 21 110 1.05353 2.78114 8.20571
3939 21 201 0.808217 -1.86406 19.3532
3959 21 215 1.55679 7.24698 17.8756
3843 21 137 -1.97916 10.3236 16.2467
3887 21 165 -3.12485 11.3566 13.3828
3928 21 194 -0.0337574 10.2499 10.6599
3956 21 212 9.56241 -23.3424 11.6326
3912 21 184 7.90561 -13.4175 17.8555
3918 21 188 4.65332 -11.9706 4.59681
3834 21 130 5.34135 -9.17352 2.6465
3914 21 186 5.39329 -3.01549 1.70264
3961 21 217 2.93186 -5.11703 -7.70517
3868 21 152 8.73168 -2.43601 -0.0661845
3962 21 218 7.20562 0.569572 -2.07505
3927 21 193 6.982 -0.406028 2.45539
3825 21 125 8.76823 -2.34105 13.3227
3839 21 135 16.3084 -14.6216 0.882762
3948 21 208 11.4054 -9.40074 -2.72592
3955 21 211 13.9204 -10.5144 -5.33484
3872 21 156 11.6961 -1.03556 8.7284
3932 21 196 16.2985 0.918905 12.2407
3867 21 151 12.8074 -2.28351 16.7521
3957 21 213 14.7167 5.53772 15.3514
ITEM: TIMESTEP
775000
ITEM: NUMBER OF ATOMS
49
ITEM: BOX BOUNDS pp pp pp
-1.9141573795753921e+01 1.7322554016828484e+01
-2.4244120695019507e+01 1.4016712452932101e+01
-9.1793330047978685e+00 2.0551991828839725e+01
ITEM: ATOMS id type mol x y z
3964 21 220 -14.3568 -9.19771 5.73315
3765 21 87 -15.977 -0.394059 12.1941
3759 21 83 -13.5879 6.60071 0.892756
3820 21 122 -12.9934 5.82568 17.2257
3958 21 214 -12.7981 6.55896 20.541
3966 21 222 -14.4987 12.8722 -1.77126
3793 21 103 -11.9257 11.9008 6.40518
3897 21 173 -16.4601 12.1178 15.9438
3720 21 62 -9.53657 -19.4677 -4.47764
3960 21 216 -9.51513 -23.8413 19.313
3800 21 108 -7.72906 -15.0008 1.67951
3766 21 88 -7.92014 -17.7192 -1.88516
3942 21 204 -10.6165 -9.81693 5.50021
3938 21 200 -11.2019 -3.29788 -4.86845
3869 21 153 -10.6073 -0.215479 -4.2994
3896 21 172 -8.53965 -0.24327 19.2531
3965 21 221 -10.6416 5.57177 1.38961
3805 21 113 -9.29204 7.68975 12.4672
3940 21 202 -9.34816 12.7322 12.9354
3941 21 203 -2.02301 -13.9787 0.694367
3763 21 85 1.38117 -12.1505 2.80055
3943 21 205 2.18848 -8.0948 19.9831
3821 21 123 -2.06395 -9.09892 17.549
3758 21 82 -1.25244 -7.5116 -4.22778
3810 21 116 2.20603 -4.72856 11.1168
3889 21 167 1.62066 2.66726 4.98914
3802 21 110 1.07176 2.73125 8.21333
3939 21 201 0.824167 -1.8846 19.3945
3959 21 215 1.57969 7.16885 17.9125
3843 21 137 -1.98909 10.226 16.2787
3887 21 165 -3.14542 11.2525 13.4061
3928 21 194 -0.0256252 10.1528 10.6749
3956 21 212 9.65966 -23.2272 11.6506
3912 21 184 7.98747 -13.365 17.8923
3918 21 188 4.70498 -11.9273 4.59352
3834 21 130 5.3994 -9.14786 2.6373
3914 21 186 5.45182 -3.02875 1.69059
3961 21 217 2.96753 -5.11701 -7.74568
3868 21 152 8.82121 -2.45294 -0.0835863
3962 21 218 7.28097 0.533652 -2.09852
3927 21 193 7.05528 -0.435782 2.44562
3825 21 125 8.85809 -2.35857 13.3458
3839 21 135 16.4683 -14.5615 0.868231
3948 21 208 11.5198 -9.37365 -2.75137
3955 21 211 14.0581 -10.4802 -5.36818
3872 21 156 11.8131 -1.06133 8.7376
3932 21 196 16.4583 0.880776 12.2605
3867 21 151 12.9347 -2.3014 16.7856
3957 21 213 14.8618 5.4704 15.3806
ITEM: TIMESTEP
780000
ITEM: NUMBER OF ATOMS
51
ITEM: BOX BOUNDS pp pp pp
-1.9098444298560512e+01 1.7279424519635075e+01
-2.4556761714109470e+01 1.4329353472022063e+01
-9.1294970506633568e+00 2.0502155874696559e+01
ITEM: ATOMS id type mol x y z
3964 21 220 -14.325 -9.26445 5.73299
3765 21 87 -15.9413 -0.316927 12.1723
3759 21 83 -13.5579 6.79215 0.908826
3820 21 122 -12.9649 6.00445 17.1871
3958 21 214 -12.77 6.74972 20.4912
3966 21 222 -14.4666 13.1661 -1.74626
3793 21 103 -11.8996 12.1788 6.40277
3897 21 173 -16.4233 12.3994 15.9094
3720 21 62 -9.51617 -19.7023 -4.44356
3967 21 223 -10.5769 -23.093 10.2449
3960 21 216 -9.49477 -24.1473 19.2673
3800 21 108 -7.71293 -15.1624 1.69295
3766 21 88 -7.90355 -17.9252 -1.85978
3942 21 204 -10.5935 -9.89379 5.50083
3938 21 200 -11.1775 -3.2682 -4.83306
3869 21 153 -10.5843 -0.13543 -4.26593
3896 21 172 -8.5216 -0.163675 19.2076
3965 21 221 -10.6186 5.7464 1.40401
3805 21 113 -9.27221 7.89899 12.4445
3968 21 224 -11.3412 11.857 3.26841
3940 21 202 -9.3282 13.0238 12.9111
3941 21 203 -2.02037 -14.1236 0.711102
3763 21 85 1.37575 -12.2655 2.81022
3943 21 205 2.18115 -8.14352 19.9351
3821 21 123 -2.06122 -9.16404 17.5092
3758 21 82 -1.25163 -7.55079 -4.19454
3810 21 116 2.19866 -4.72227 11.0986
3889 21 167 1.61468 2.79442 4.99147
3802 21 110 1.06707 2.85945 8.20486
3939 21 201 0.820066 -1.83183 19.3486
3959 21 215 1.57381 7.36958 17.8715
3843 21 137 -1.98654 10.4767 16.2431
3887 21 165 -3.14013 11.52 13.3802
3928 21 194 -0.0277161 10.4023 10.6582
3956 21 212 9.63465 -23.5232 11.6306
3912 21 184 7.96642 -13.4999 17.8514
3918 21 188 4.69169 -12.0387 4.59718
3834 21 130 5.38448 -9.21379 2.64752
3914 21 186 5.43677 -2.99468 1.70399
3961 21 217 2.95836 -5.11706 -7.70065
3868 21 152 8.79819 -2.40945 -0.0642431
3962 21 218 7.2616 0.625944 -2.07243
3927 21 193 7.03644 -0.359332 2.45648
3825 21 125 8.83499 -2.31355 13.3201
3839 21 135 16.4272 -14.7159 0.884383
3948 21 208 11.4904 -9.44327 -2.72308
3955 21 211 14.0227 -10.5679 -5.33112
3872 21 156 11.783 -0.995106 8.72738
3932 21 196 16.4172 0.978742 12.2385
3867 21 151 12.902 -2.25544 16.7484
3957 21 213 14.8245 5.64338 15.3481
ITEM: TIMESTEP
785000
ITEM: NUMBER OF ATOMS
50
ITEM: BOX BOUNDS pp pp pp
-1.8875613308421791e+01 1.7056593529496354e+01
-2.4598550468517473e+01 1.4371142226430067e+01
-9.2323443447109526e+00 2.0605003168707182e+01
ITEM: ATOMS id type mol x y z
3964 21 220 -14.1606 -9.27337 5.73332
3765 21 87 -15.7572 -0.306618 12.2173
3759 21 83 -13.4029 6.81774 0.875662
3820 21 122 -12.8172 6.02835 17.2669
3958 21 214 -12.6247 6.77522 20.594
3966 21 222 -14.3005 13.2054 -1.79786
3793 21 103 -11.765 12.216 6.40775
3897 21 173 -16.2332 12.437 15.9803
3720 21 62 -9.41073 -19.7336 -4.51388
3967 21 223 -10.4585 -23.1316 10.2765
3960 21 216 -9.38959 -24.1882 19.3616
3800 21 108 -7.62958 -15.184 1.66523
3766 21 88 -7.81787 -17.9527 -1.91216
3942 21 204 -10.4749 -9.90407 5.49954
3938 21 200 -11.0518 -3.26424 -4.90609
3869 21 153 -10.4658 -0.12473 -4.33501
3896 21 172 -8.42834 -0.153036 19.3015
3965 21 221 -10.4997 5.76974 1.37429
3805 21 113 -9.16976 7.92696 12.4914
3968 21 224 -11.2134 11.8935 3.25162
3940 21 202 -9.22506 13.0628 12.9613
3941 21 203 -2.00676 -14.1429 0.676565
3763 21 85 1.34775 -12.2809 2.79025
3943 21 205 2.14329 -8.15003 20.034
3821 21 123 -2.04711 -9.17275 17.5913
3758 21 82 -1.24744 -7.55602 -4.26313
3810 21 116 2.16058 -4.72143 11.1362
3889 21 167 1.58375 2.81142 4.98665
3802 21 110 1.04286 2.87659 8.22234
3939 21 201 0.798877 -1.82478 19.4434
3959 21 215 1.54338 7.39641 17.9561
3843 21 137 -1.97334 10.5102 16.3164
3887 21 165 -3.1128 11.5557 13.4336
3928 21 194 -0.0385189 10.4356 10.6927
3956 21 212 9.50548 -23.5628 11.6719
3912 21 184 7.85768 -13.5179 17.9358
3918 21 188 4.62307 -12.0535 4.58962
3834 21 130 5.30737 -9.2226 2.62643
3914 21 186 5.35902 -2.99012 1.67634
3961 21 217 2.91097 -5.11707 -7.79358
3868 21 152 8.67926 -2.40364 -0.104162
3927 21 193 6.9391 -0.349114 2.43406
3825 21 125 8.71561 -2.30753 13.3731
3839 21 135 16.2148 -14.7365 0.851049
3948 21 208 11.3385 -9.45257 -2.78145
3955 21 211 13.8398 -10.5796 -5.4076
3872 21 156 11.6275 -0.986254 8.74849
3932 21 196 16.205 0.991836 12.284
3867 21 151 12.7328 -2.2493 16.8252
3957 21 213 14.6317 5.6665 15.4152
ITEM: TIMESTEP
790000
ITEM: NUMBER OF ATOMS
51
ITEM: BOX BOUNDS pp pp pp
-1.8973392451511856e+01 1.7154372672586419e+01
-2.4395878359921308e+01 1.4168470117833902e+01
-9.1677845858984455e+00 2.0540443409888638e+01
ITEM: ATOMS id type mol x y z
3969 21 225 -16.4363 -14.0221 -7.07193
3964 21 220 -14.2328 -9.23011 5.73311
3765 21 87 -15.838 -0.356619 12.189
3759 21 83 -13.4709 6.69363 0.89648
3820 21 122 -12.882 5.91246 17.2168
3958 21 214 -12.6885 6.65155 20.5295
3966 21 222 -14.3734 13.0149 -1.76547
3793 21 103 -11.8241 12.0357 6.40463
3897 21 173 -16.3166 12.2545 15.9358
3720 21 62 -9.45699 -19.5816 -4.46974
3967 21 223 -10.5105 -22.9442 10.2567
3960 21 216 -9.43574 -23.9898 19.3024
3800 21 108 -7.66615 -15.0792 1.68263
3766 21 88 -7.85547 -17.8192 -1.87928
3942 21 204 -10.5269 -9.85424 5.50035
3938 21 200 -11.107 -3.28348 -4.86025
3869 21 153 -10.5178 -0.176623 -4.29165
3896 21 172 -8.46926 -0.204634 19.2426
3965 21 221 -10.5519 5.65654 1.39295
3805 21 113 -9.21472 7.79132 12.462
3968 21 224 -11.2695 11.7166 3.26216
3940 21 202 -9.27032 12.8738 12.9298
3941 21 203 -2.01274 -14.049 0.698245
3763 21 85 1.36004 -12.2064 2.80279
3943 21 205 2.1599 -8.11845 19.972
3821 21 123 -2.0533 -9.13053 17.5398
3758 21 82 -1.24928 -7.53062 -4.22008
3810 21 116 2.17729 -4.72551 11.1126
3889 21 167 1.59732 2.72898 4.98968
3802 21 110 1.05349 2.79348 8.21137
3939 21 201 0.808175 -1.85899 19.3839
3959 21 215 1.55673 7.26629 17.903
3843 21 137 -1.97913 10.3477 16.2704
3887 21 165 -3.12479 11.3823 13.4001
3928 21 194 -0.0337786 10.2739 10.671
3956 21 212 9.56216 -23.3709 11.646
3912 21 184 7.9054 -13.4305 17.8828
3918 21 188 4.65319 -11.9813 4.59437
3834 21 130 5.3412 -9.17987 2.63967
3914 21 186 5.39314 -3.01221 1.69369
3961 21 217 2.93177 -5.11704 -7.73525
3868 21 152 8.73145 -2.43183 -0.0791039
3927 21 193 6.98181 -0.398673 2.44814
3825 21 125 8.76799 -2.33672 13.3399
3839 21 135 16.308 -14.6364 0.871974
3948 21 208 11.4051 -9.40744 -2.74481
3955 21 211 13.92 -10.5228 -5.35959
3872 21 156 11.6958 -1.02919 8.73523
3932 21 196 16.2981 0.928329 12.2554
3867 21 151 12.807 -2.27909 16.777
3957 21 213 14.7163 5.55436 15.3731
ITEM: TIMESTEP
795000
ITEM: NUMBER OF ATOMS
51
ITEM: BOX BOUNDS pp pp pp
-1.8890015281524509e+01 1.7070995502599072e+01
-2.4300687751110846e+01 1.4073279509023440e+01
-9.4051527227848197e+00 2.0777811546713000e+01
ITEM: ATOMS id type mol x y z
3969 21 225 -16.3647 -13.9781 -7.27581
3964 21 220 -14.1713 -9.20979 5.73386
3765 21 87 -15.7691 -0.380103 12.2929
3759 21 83 -13.4129 6.63534 0.819939
3820 21 122 -12.8267 5.85802 17.401
3958 21 214 -12.6341 6.59347 20.7667
3966 21 222 -14.3112 12.9254 -1.88455
3793 21 103 -11.7737 11.9511 6.4161
3897 21 173 -16.2455 12.1687 16.0996
3720 21 62 -9.41754 -19.5101 -4.63203
3967 21 223 -10.4662 -22.8562 10.3297
3960 21 216 -9.39639 -23.8967 19.52
3800 21 108 -7.63497 -15.03 1.61865
3766 21 88 -7.82341 -17.7564 -2.00018
3942 21 204 -10.4825 -9.83084 5.49738
3938 21 200 -11.0599 -3.29251 -5.02878
3869 21 153 -10.4734 -0.200996 -4.45109
3896 21 172 -8.43437 -0.228869 19.4592
3965 21 221 -10.5074 5.60337 1.32434
3805 21 113 -9.17638 7.72761 12.5702
3968 21 224 -11.2217 11.6335 3.22342
3940 21 202 -9.23173 12.785 13.0456
3941 21 203 -2.00764 -14.0049 0.618535
3763 21 85 1.34956 -12.1713 2.75671
3943 21 205 2.14574 -8.10362 20.2002
3821 21 123 -2.04802 -9.1107 17.7292
3810 21 116 2.16304 -4.72742 11.1993
3889 21 167 1.58575 2.69027 4.97855
3802 21 110 1.04442 2.75444 8.25172
3939 21 201 0.800247 -1.87505 19.6028
3959 21 215 1.54535 7.20517 18.0982
3843 21 137 -1.9742 10.2714 16.4396
3887 21 165 -3.11457 11.3009 13.5234
3928 21 194 -0.0378207 10.1979 10.7507
3956 21 212 9.51383 -23.2808 11.7412
3912 21 184 7.86471 -13.3894 18.0777
3918 21 188 4.62751 -11.9474 4.57692
3834 21 130 5.31235 -9.15979 2.59098
3914 21 186 5.36405 -3.02259 1.62989
3961 21 217 2.91404 -5.11702 -7.94972
3868 21 152 8.68695 -2.44507 -0.171235
3927 21 193 6.94539 -0.421949 2.39639
3825 21 125 8.72333 -2.35043 13.4622
3839 21 135 16.2285 -14.5894 0.795041
3948 21 208 11.3483 -9.38624 -2.87954
3955 21 211 13.8516 -10.4961 -5.5361
3970 21 226 11.045 0.417979 -1.49234
3872 21 156 11.6376 -1.04935 8.78396
3932 21 196 16.2187 0.898502 12.3604
3867 21 151 12.7437 -2.29308 16.9542
3957 21 213 14.6442 5.5017 15.5279
ITEM: TIMESTEP
800000
ITEM: NUMBER OF ATOMS
49
ITEM: BOX BOUNDS pp pp pp
-1.8859871344220199e+01 1.7040851565294762e+01
-2.4373514518822549e+01 1.4146106276735143e+01
-9.3899887839669098e+00 2.0762647607879956e+01
ITEM: ATOMS id type mol x y z
3969 21 225 -16.3387 -14.0118 -7.26278
3964 21 220 -14.149 -9.22533 5.73381
3765 21 87 -15.7442 -0.362136 12.2863
3759 21 83 -13.392 6.67994 0.824828
3820 21 122 -12.8067 5.89967 17.3893
3958 21 214 -12.6145 6.63791 20.7515
3966 21 222 -14.2888 12.9939 -1.87694
3793 21 103 -11.7555 12.0159 6.41537
3897 21 173 -16.2198 12.2343 16.0891
3720 21 62 -9.40328 -19.5648 -4.62167
3967 21 223 -10.4501 -22.9235 10.325
3960 21 216 -9.38216 -23.9679 19.5061
3800 21 108 -7.62369 -15.0676 1.62274
3766 21 88 -7.81182 -17.8044 -1.99245
3942 21 204 -10.4665 -9.84874 5.49757
3938 21 200 -11.0429 -3.2856 -5.01802
3869 21 153 -10.4574 -0.182349 -4.44091
3896 21 172 -8.42175 -0.210328 19.4454
3965 21 221 -10.4913 5.64405 1.32872
3805 21 113 -9.16252 7.77635 12.5633
3968 21 224 -11.2044 11.697 3.2259
3940 21 202 -9.21778 12.8529 13.0382
3941 21 203 -2.0058 -14.0387 0.623628
3763 21 85 1.34577 -12.1981 2.75965
3943 21 205 2.14061 -8.11496 20.1857
3821 21 123 -2.04612 -9.12587 17.7171
3810 21 116 2.15789 -4.72596 11.1938
3889 21 167 1.58157 2.71989 4.97926
3802 21 110 1.04115 2.78431 8.24914
3939 21 201 0.797381 -1.86276 19.5888
3959 21 215 1.54123 7.25193 18.0858
3843 21 137 -1.97241 10.3298 16.4288
3928 21 194 -0.0392821 10.256 10.7456
3956 21 212 9.49635 -23.3497 11.7352
3912 21 184 7.85 -13.4208 18.0652
3918 21 188 4.61823 -11.9734 4.57803
3834 21 130 5.30192 -9.17515 2.59409
3914 21 186 5.35353 -3.01465 1.63397
3961 21 217 2.90763 -5.11703 -7.93602
3868 21 152 8.67086 -2.43494 -0.16535
3927 21 193 6.93222 -0.404141 2.3997
3825 21 125 8.70718 -2.33994 13.4543
3839 21 135 16.1998 -14.6254 0.799955
3948 21 208 11.3277 -9.40246 -2.87093
3955 21 211 13.8269 -10.5165 -5.52483
3970 21 226 11.025 0.438975 -1.48512
3932 21 196 16.19 0.921322 12.3537
3867 21 151 12.7208 -2.28238 16.9429
3957 21 213 14.6181 5.54199 15.518
ITEM: TIMESTEP
805000
ITEM: NUMBER OF ATOMS
49
ITEM: BOX BOUNDS pp pp pp
-1.9285877872389293e+01 1.7466858093463856e+01
-2.4275630920137854e+01 1.4048222678050447e+01
-9.2023621411711218e+00 2.0575020965101771e+01
ITEM: ATOMS id type mol x y z
3969 21 225 -16.7049 -13.9665 -7.10163
3964 21 220 -14.4632 -9.20444 5.73322
3765 21 87 -16.0962 -0.386285 12.2042
3759 21 83 -13.6882 6.62 0.88533
3820 21 122 -13.0891 5.84369 17.2436
3958 21 214 -12.8922 6.57818 20.564
3966 21 222 -14.6063 12.9018 -1.78282
3793 21 103 -12.0129 11.9288 6.4063
3897 21 173 -16.5832 12.1462 15.9597
3720 21 62 -9.60486 -19.4913 -4.49338
3967 21 223 -10.6766 -22.833 10.2673
3960 21 216 -9.58324 -23.8721 19.3341
3800 21 108 -7.78304 -15.0171 1.67331
3766 21 88 -7.97563 -17.7399 -1.89689
3942 21 204 -10.6933 -9.82468 5.49992
3938 21 200 -11.2834 -3.29489 -4.8848
3869 21 153 -10.684 -0.207411 -4.31487
3896 21 172 -8.60004 -0.235248 19.2741
3965 21 221 -10.7187 5.58937 1.38295
3805 21 113 -9.35839 7.71084 12.4777
3968 21 224 -11.4487 11.6116 3.25652
3940 21 202 -9.41495 12.7616 12.9467
3941 21 203 -2.03182 -13.9933 0.686634
3763 21 85 1.3993 -12.1621 2.79608
3943 21 205 2.213 -8.09971 20.0052
3821 21 123 -2.07309 -9.10548 17.5674
3810 21 116 2.23069 -4.72793 11.1252
3889 21 167 1.64069 2.68007 4.98806
3802 21 110 1.08744 2.74417 8.21725
3939 21 201 0.837889 -1.87928 19.4158
3959 21 215 1.5994 7.18908 17.9314
3843 21 137 -1.99764 10.2513 16.2951
3928 21 194 -0.0186294 10.1779 10.6826
3956 21 212 9.74331 -23.2571 11.6599
3912 21 184 8.05789 -13.3786 17.9112
3918 21 188 4.74941 -11.9385 4.59182
3834 21 130 5.44933 -9.15451 2.63258
3914 21 186 5.50217 -3.02532 1.6844
3961 21 217 2.99822 -5.11701 -7.76649
3868 21 152 8.89822 -2.44856 -0.0925247
3927 21 193 7.11832 -0.428077 2.4406
3825 21 125 8.9354 -2.35404 13.3577
3839 21 135 16.6058 -14.577 0.860767
3948 21 208 11.6181 -9.38066 -2.76444
3955 21 211 14.1766 -10.4891 -5.3853
3970 21 226 11.3082 0.410755 -1.39587
3932 21 196 16.5958 0.89065 12.2707
3867 21 151 13.0443 -2.29677 16.8028
3957 21 213 14.9866 5.48784 15.3956
ITEM: TIMESTEP
810000
ITEM: NUMBER OF ATOMS
48
ITEM: BOX BOUNDS pp pp pp
-1.9024461602980459e+01 1.7205441824055022e+01
-2.4262193693819079e+01 1.4034785451731672e+01
-9.3616988380127744e+00 2.0734357661895192e+01
ITEM: ATOMS id type mol x y z
3969 21 225 -16.4802 -13.9603 -7.23848
3964 21 220 -14.2704 -9.20157 5.73372
3765 21 87 -15.8802 -0.3896 12.2739
3759 21 83 -13.5064 6.61177 0.833951
3958 21 214 -12.7218 6.56998 20.7232
3966 21 222 -14.4114 12.8892 -1.86275
3793 21 103 -11.8549 11.9169 6.414
3897 21 173 -16.3602 12.1341 16.0696
3720 21 62 -9.48116 -19.4813 -4.60232
3967 21 223 -10.5376 -22.8206 10.3163
3960 21 216 -9.45985 -23.859 19.4801
3800 21 108 -7.68526 -15.0101 1.63036
3766 21 88 -7.8751 -17.7311 -1.97804
3942 21 204 -10.5541 -9.82137 5.49792
3938 21 200 -11.1358 -3.29616 -4.99793
3869 21 153 -10.545 -0.210852 -4.4219
3896 21 172 -8.49063 -0.238669 19.4196
3965 21 221 -10.5791 5.58187 1.3369
3805 21 113 -9.2382 7.70185 12.5504
3971 21 227 -9.50769 6.94057 9.72657
3968 21 224 -11.2988 11.5999 3.23051
3940 21 202 -9.29396 12.7491 13.0244
3941 21 203 -2.01585 -13.9871 0.633127
3763 21 85 1.36645 -12.1572 2.76514
3943 21 205 2.16858 -8.09762 20.1584
3821 21 123 -2.05654 -9.10268 17.6945
3810 21 116 2.18602 -4.7282 11.1834
3889 21 167 1.60441 2.67461 4.98058
3802 21 110 1.05903 2.73866 8.24433
3939 21 201 0.813031 -1.88155 19.5627
3959 21 215 1.56371 7.18046 18.0625
3843 21 137 -1.98216 10.2405 16.4086
3928 21 194 -0.0313028 10.1672 10.7361
3956 21 212 9.59177 -23.2443 11.7238
3912 21 184 7.93032 -13.3728 18.042
3918 21 188 4.66891 -11.9337 4.58011
3834 21 130 5.35887 -9.15167 2.5999
3914 21 186 5.41095 -3.02678 1.64157
3868 21 152 8.7587 -2.45042 -0.154369
3927 21 193 7.00412 -0.431362 2.40586
3825 21 125 8.79535 -2.35597 13.4398
3839 21 135 16.3567 -14.5704 0.809124
3948 21 208 11.4399 -9.37767 -2.85488
3955 21 211 13.962 -10.4853 -5.50379
3970 21 226 11.1344 0.406881 -1.47167
3932 21 196 16.3468 0.88644 12.3412
3867 21 151 12.8458 -2.29874 16.9217
3957 21 213 14.7605 5.4804 15.4995
ITEM: TIMESTEP
815000
ITEM: NUMBER OF ATOMS
49
ITEM: BOX BOUNDS pp pp pp
-1.9103885514261634e+01 1.7284865735336197e+01
-2.4419980555798521e+01 1.4192572313711114e+01
-9.1661429633632423e+00 2.0538801787265172e+01
ITEM: ATOMS id type mol x y z
3969 21 225 -16.5485 -14.0332 -7.07052
3964 21 220 -14.329 -9.23525 5.73311
3973 21 229 -12.7483 -6.24477 -3.94109
3765 21 87 -15.9458 -0.350672 12.1883
3759 21 83 -13.5617 6.70839 0.89701
3958 21 214 -12.7736 6.66626 20.5278
3966 21 222 -14.4706 13.0375 -1.76465
3793 21 103 -11.9029 12.0572 6.40455
3897 21 173 -16.4279 12.2762 15.9347
3720 21 62 -9.51874 -19.5997 -4.46862
3967 21 223 -10.5798 -22.9665 10.2562
3960 21 216 -9.49734 -24.0134 19.3009
3800 21 108 -7.71496 -15.0917 1.68307
3766 21 88 -7.90565 -17.835 -1.87844
3942 21 204 -10.5964 -9.86017 5.50037
3938 21 200 -11.1806 -3.28119 -4.85908
3869 21 153 -10.5872 -0.170452 -4.29054
3896 21 172 -8.52387 -0.198498 19.2411
3965 21 221 -10.6215 5.67 1.39342
3971 21 227 -9.54539 7.0399 9.67406
3968 21 224 -11.3443 11.7376 3.26243
3940 21 202 -9.33072 12.8962 12.929
3941 21 203 -2.02071 -14.0602 0.698796
3763 21 85 1.37643 -12.2152 2.80311
3943 21 205 2.18208 -8.12221 19.9704
3821 21 123 -2.06157 -9.13555 17.5385
3810 21 116 2.19959 -4.72502 11.112
3889 21 167 1.61543 2.73879 4.98976
3802 21 110 1.06767 2.80336 8.21109
3939 21 201 0.820584 -1.85492 19.3824
3959 21 215 1.57455 7.28176 17.9017
3843 21 137 -1.98686 10.3671 16.2693
3928 21 194 -0.0274523 10.2931 10.6705
3972 21 228 5.58261 -22.9147 -3.39188
3956 21 212 9.63781 -23.3937 11.6453
3912 21 184 7.96908 -13.4409 17.8814
3918 21 188 4.69337 -11.9899 4.59449
3834 21 130 5.38636 -9.18495 2.64
3914 21 186 5.43867 -3.00959 1.69414
3868 21 152 8.80109 -2.42848 -0.0784667
3927 21 193 7.03882 -0.392779 2.44849
3825 21 125 8.8379 -2.33325 13.339
3839 21 135 16.4324 -14.6483 0.872506
3948 21 208 11.4941 -9.41281 -2.74388
3955 21 211 14.0272 -10.5296 -5.35837
3970 21 226 11.1872 0.452371 -1.37864
3932 21 196 16.4224 0.935882 12.2547
3867 21 151 12.9061 -2.27555 16.7757
3957 21 213 14.8292 5.5677 15.372
ITEM: TIMESTEP
820000
ITEM: NUMBER OF ATOMS
49
ITEM: BOX BOUNDS pp pp pp
-1.9060338194219348e+01 1.7241318415293911e+01
-2.4226875579894692e+01 1.3999467337807285e+01
-9.2959913063597526e+00 2.0668650130218879e+01
ITEM: ATOMS id type mol x y z
3969 21 225 -16.5111 -13.944 -7.18205
3964 21 220 -14.2969 -9.19403 5.73352
3973 21 229 -12.72 -6.23346 -4.02526
3765 21 87 -15.9098 -0.398313 12.2452
3958 21 214 -12.7452 6.54843 20.6576
3966 21 222 -14.4382 12.856 -1.82979
3793 21 103 -11.8766 11.8854 6.41082
3897 21 173 -16.3908 12.1022 16.0243
3720 21 62 -9.49813 -19.4548 -4.5574
3967 21 223 -10.5567 -22.7879 10.2961
3960 21 216 -9.47678 -23.8244 19.4199
3800 21 108 -7.69867 -14.9919 1.64807
3766 21 88 -7.8889 -17.7078 -1.94458
3942 21 204 -10.5732 -9.81269 5.49874
3938 21 200 -11.156 -3.29952 -4.95128
3869 21 153 -10.564 -0.219895 -4.37777
3896 21 172 -8.50565 -0.247661 19.3596
3965 21 221 -10.5983 5.56214 1.35589
3971 21 227 -9.52472 6.91834 9.70892
3968 21 224 -11.3193 11.5691 3.24124
3940 21 202 -9.31056 12.7161 12.9923
3941 21 203 -2.01805 -13.9707 0.655192
3763 21 85 1.37096 -12.1442 2.7779
3943 21 205 2.17468 -8.09211 20.0953
3821 21 123 -2.05881 -9.09532 17.6421
3810 21 116 2.19215 -4.72891 11.1594
3889 21 167 1.60939 2.66024 4.98367
3802 21 110 1.06293 2.72417 8.23316
3939 21 201 0.816443 -1.88751 19.5021
3959 21 215 1.5686 7.15778 18.0085
3843 21 137 -1.98428 10.2122 16.3618
3928 21 194 -0.0295635 10.139 10.7141
3972 21 228 5.56707 -22.7367 -3.47125
3956 21 212 9.61256 -23.2109 11.6974
3912 21 184 7.94783 -13.3576 17.9881
3918 21 188 4.67996 -11.9212 4.58494
3834 21 130 5.37129 -9.14423 2.61337
3914 21 186 5.42347 -3.03063 1.65923
3868 21 152 8.77785 -2.45534 -0.128866
3927 21 193 7.01979 -0.439999 2.42019
3825 21 125 8.81457 -2.36106 13.4059
3839 21 135 16.3909 -14.553 0.830421
3948 21 208 11.4644 -9.36981 -2.81758
3955 21 211 13.9914 -10.4754 -5.45493
3970 21 226 11.1582 0.396699 -1.44041
3932 21 196 16.3809 0.875373 12.3121
3974 21 230 12.2985 -1.8953 6.84782
3867 21 151 12.8731 -2.30393 16.8727
3957 21 213 14.7915 5.46086 15.4567
ITEM: TIMESTEP
825000
ITEM: NUMBER OF ATOMS
49
ITEM: BOX BOUNDS pp pp pp
-1.9143166591826610e+01 1.7324146812901173e+01
-2.4209137652322003e+01 1.3981729410234596e+01
-9.2123317941018605e+00 2.0584990617959651e+01
ITEM: ATOMS id type mol x y z
3969 21 225 -16.5823 -13.9358 -7.11019
3964 21 220 -14.358 -9.19024 5.73325
3973 21 229 -12.7739 -6.23242 -3.97103
3765 21 87 -15.9783 -0.402689 12.2085
3958 21 214 -12.7992 6.53761 20.574
3966 21 222 -14.4999 12.8393 -1.78782
3793 21 103 -11.9266 11.8697 6.40678
3897 21 173 -16.4614 12.0863 15.9665
3720 21 62 -9.53733 -19.4415 -4.5002
3967 21 223 -10.6007 -22.7715 10.2704
3960 21 216 -9.51588 -23.807 19.3432
3800 21 108 -7.72966 -14.9827 1.67062
3766 21 88 -7.92075 -17.6961 -1.90197
3942 21 204 -10.6173 -9.80833 5.49979
3938 21 200 -11.2028 -3.3012 -4.89188
3869 21 153 -10.6081 -0.224437 -4.32157
3896 21 172 -8.54031 -0.252177 19.2832
3965 21 221 -10.6425 5.55223 1.38007
3971 21 227 -9.56404 6.90717 9.68646
3968 21 224 -11.3669 11.5536 3.25489
3940 21 202 -9.3489 12.6996 12.9515
3941 21 203 -2.0231 -13.9625 0.683286
3763 21 85 1.38137 -12.1377 2.79414
3943 21 205 2.18875 -8.08935 20.0148
3821 21 123 -2.06405 -9.09163 17.5753
3810 21 116 2.2063 -4.72927 11.1289
3889 21 167 1.62088 2.65303 4.98759
3802 21 110 1.07193 2.7169 8.21894
3939 21 201 0.824319 -1.89051 19.4249
3959 21 215 1.57991 7.14639 17.9396
3843 21 137 -1.98919 10.198 16.3022
3928 21 194 -0.025548 10.1248 10.686
3972 21 228 5.59663 -22.7203 -3.42011
3956 21 212 9.66058 -23.1941 11.6639
3912 21 184 7.98825 -13.3499 17.9194
3918 21 188 4.70547 -11.9148 4.59109
3834 21 130 5.39995 -9.14049 2.63053
3914 21 186 5.45237 -3.03257 1.68172
3868 21 152 8.82206 -2.4578 -0.0963943
3927 21 193 7.05598 -0.444336 2.43843
3825 21 125 8.85895 -2.36361 13.3628
3978 21 232 14.9269 -18.8358 12.09
3839 21 135 16.4698 -14.5442 0.857536
3948 21 208 11.5209 -9.36586 -2.7701
3970 21 226 11.2133 0.391585 -1.40062
3932 21 196 16.4598 0.869815 12.2751
3974 21 230 12.3588 -1.89828 6.84133
3867 21 151 12.9359 -2.30654 16.8102
3957 21 213 14.8631 5.45105 15.4021
ITEM: TIMESTEP
830000
ITEM: NUMBER OF ATOMS
49
ITEM: BOX BOUNDS pp pp pp
-1.9250030292939464e+01 1.7431010514014027e+01
-2.4328942205905339e+01 1.4101533963817932e+01
-9.1456663399653948e+00 2.0518325163818670e+01
ITEM: ATOMS id type mol x y z
3979 21 233 -18.8586 -11.5468 -7.18652
3964 21 220 -14.4368 -9.21582 5.73304
3973 21 229 -12.8434 -6.23944 -3.92782
3765 21 87 -16.0666 -0.373132 12.1793
3958 21 214 -12.8689 6.61071 20.5074
3966 21 222 -14.5796 12.952 -1.75437
3793 21 103 -11.9912 11.9762 6.40356
3897 21 173 -16.5526 12.1942 15.9205
3720 21 62 -9.58789 -19.5313 -4.45462
3967 21 223 -10.6575 -22.8823 10.2499
3960 21 216 -9.56632 -23.9243 19.2821
3800 21 108 -7.76963 -15.0446 1.68859
3766 21 88 -7.96184 -17.7751 -1.86801
3942 21 204 -10.6742 -9.83778 5.50063
3938 21 200 -11.2631 -3.28983 -4.84455
3869 21 153 -10.6649 -0.193761 -4.27679
3896 21 172 -8.58504 -0.221676 19.2224
3965 21 221 -10.6995 5.61915 1.39934
3971 21 227 -9.61476 6.98259 9.66856
3968 21 224 -11.4281 11.6581 3.26577
3940 21 202 -9.39836 12.8113 12.919
3941 21 203 -2.02963 -14.018 0.705672
3763 21 85 1.39479 -12.1817 2.80708
3943 21 205 2.20691 -8.10802 19.9507
3821 21 123 -2.07082 -9.11659 17.5221
3810 21 116 2.22456 -4.72686 11.1045
3889 21 167 1.63571 2.70176 4.99072
3802 21 110 1.08355 2.76603 8.20761
3939 21 201 0.834481 -1.87029 19.3635
3959 21 215 1.5945 7.22331 17.8848
3843 21 137 -1.99551 10.2941 16.2547
3928 21 194 -0.0203673 10.2205 10.6636
3972 21 228 5.63476 -22.8308 -3.37936
3956 21 212 9.72253 -23.3075 11.6371
3912 21 184 8.04039 -13.4016 17.8646
3918 21 188 4.73838 -11.9575 4.59599
3834 21 130 5.43693 -9.16575 2.6442
3914 21 186 5.48966 -3.01951 1.69964
3868 21 152 8.87909 -2.44114 -0.070519
3927 21 193 7.10266 -0.41504 2.45296
3825 21 125 8.9162 -2.34636 13.3285
3978 21 232 15.0197 -18.9218 12.0614
3839 21 135 16.5717 -14.6034 0.879143
3948 21 208 11.5937 -9.39254 -2.73226
3970 21 226 11.2844 0.426125 -1.3689
3932 21 196 16.5616 0.907355 12.2456
3974 21 230 12.4366 -1.87811 6.83616
3867 21 151 13.0171 -2.28893 16.7605
3957 21 213 14.9556 5.51733 15.3586
ITEM: TIMESTEP
835000
ITEM: NUMBER OF ATOMS
49
ITEM: BOX BOUNDS pp pp pp
-1.9121494449748692e+01 1.7302474670823255e+01
-2.4472493524604964e+01 1.4245085282517557e+01
-9.1665932067282192e+00 2.0539252030559652e+01
ITEM: ATOMS id type mol x y z
3979 21 233 -18.7328 -11.5949 -7.20468
3964 21 220 -14.342 -9.24646 5.73311
3973 21 229 -12.7598 -6.24785 -3.94138
3765 21 87 -15.9604 -0.337717 12.1885
3958 21 214 -12.7851 6.6983 20.5283
3966 21 222 -14.4838 13.0869 -1.76487
3793 21 103 -11.9135 12.1039 6.40457
3897 21 173 -16.443 12.3235 15.935
3720 21 62 -9.52707 -19.6391 -4.46893
3967 21 223 -10.5892 -23.0151 10.2563
3960 21 216 -9.50565 -24.0648 19.3013
3800 21 108 -7.72155 -15.1188 1.68295
3766 21 88 -7.91242 -17.8696 -1.87867
3942 21 204 -10.6058 -9.87308 5.50037
3938 21 200 -11.1906 -3.2762 -4.8594
3869 21 153 -10.5966 -0.157006 -4.29085
3896 21 172 -8.53124 -0.185129 19.2415
3965 21 221 -10.6309 5.69933 1.39329
3971 21 227 -9.55375 7.07296 9.67418
3968 21 224 -11.3544 11.7834 3.26235
3940 21 202 -9.33887 12.9452 12.9292
3941 21 203 -2.02178 -14.0845 0.698645
3763 21 85 1.37864 -12.2345 2.80302
3943 21 205 2.18507 -8.13039 19.9708
3821 21 123 -2.06268 -9.14649 17.5388
3810 21 116 2.2026 -4.72397 11.1122
3889 21 167 1.61787 2.76014 4.98973
3802 21 110 1.06958 2.8249 8.21116
3939 21 201 0.822258 -1.84606 19.3828
3959 21 215 1.57695 7.31548 17.902
3843 21 137 -1.9879 10.4092 16.2696
3928 21 194 -0.0265987 10.335 10.6706
3972 21 228 5.5889 -22.9631 -3.39216
3956 21 212 9.64802 -23.4434 11.6455
3912 21 184 7.97767 -13.4635 17.8818
3918 21 188 4.69879 -12.0086 4.59445
3834 21 130 5.39245 -9.19602 2.63991
3914 21 186 5.44481 -3.00386 1.69401
3868 21 152 8.81049 -2.42118 -0.0786415
3927 21 193 7.04651 -0.379938 2.4484
3825 21 125 8.84734 -2.32568 13.3392
3978 21 232 14.908 -19.025 12.0704
3839 21 135 16.4492 -14.6743 0.87236
3948 21 208 11.5061 -9.4245 -2.74413
3970 21 226 11.1989 0.467511 -1.37886
3932 21 196 16.4392 0.952337 12.2549
3974 21 230 12.343 -1.85394 6.83779
3867 21 151 12.9195 -2.26783 16.7761
3957 21 213 14.8444 5.59675 15.3723
ITEM: TIMESTEP
840000
ITEM: NUMBER OF ATOMS
48
ITEM: BOX BOUNDS pp pp pp
-1.8939072530796896e+01 1.7120052751871459e+01
-2.4367612100317704e+01 1.4140203858230297e+01
-9.2595824076699209e+00 2.0632241231465198e+01
ITEM: ATOMS id type mol x y z
3979 21 233 -18.5543 -11.5598 -7.28538
3964 21 220 -14.2074 -9.22407 5.7334
3973 21 229 -12.6411 -6.24171 -4.00166
3765 21 87 -15.8096 -0.363592 12.2292
3958 21 214 -12.6661 6.63431 20.6212
3966 21 222 -14.3478 12.9883 -1.81152
3793 21 103 -11.8033 12.0106 6.40906
3897 21 173 -16.2874 12.229 15.9991
3720 21 62 -9.44075 -19.5604 -4.5325
3967 21 223 -10.4922 -22.9181 10.2849
3960 21 216 -9.41954 -23.9622 19.3865
3800 21 108 -7.65332 -15.0646 1.65788
3766 21 88 -7.84227 -17.8005 -1.92603
3942 21 204 -10.5087 -9.84729 5.4992
3938 21 200 -11.0876 -3.28616 -4.92543
3869 21 153 -10.4995 -0.18386 -4.35331
3896 21 172 -8.4549 -0.21183 19.3264
3965 21 221 -10.5335 5.64075 1.36641
3971 21 227 -9.46716 7.00693 9.69915
3968 21 224 -11.2498 11.6919 3.24718
3940 21 202 -9.25444 12.8474 12.9746
3941 21 203 -2.01064 -14.0359 0.667419
3943 21 205 2.15407 -8.11404 20.0602
3821 21 123 -2.05113 -9.12464 17.613
3810 21 116 2.17142 -4.72608 11.1461
3889 21 167 1.59256 2.71749 4.98537
3802 21 110 1.04976 2.78189 8.22697
3939 21 201 0.804912 -1.86376 19.4685
3959 21 215 1.55205 7.24814 17.9785
3843 21 137 -1.9771 10.3251 16.3358
3928 21 194 -0.0354424 10.2513 10.7018
3972 21 228 5.5238 -22.8664 -3.44899
3956 21 212 9.54227 -23.3441 11.6828
3912 21 184 7.88865 -13.4183 17.9582
3918 21 188 4.64262 -11.9713 4.58762
3834 21 130 5.32933 -9.17391 2.62084
3914 21 186 5.38116 -3.01529 1.66902
3868 21 152 8.71313 -2.43576 -0.114734
3927 21 193 6.96682 -0.405585 2.42812
3825 21 125 8.74961 -2.34079 13.3872
3978 21 232 14.7496 -18.9496 12.1103
3839 21 135 16.2753 -14.6225 0.842221
3948 21 208 11.3817 -9.40115 -2.79691
3970 21 226 11.0776 0.437273 -1.42309
3932 21 196 16.2654 0.919472 12.296
3974 21 230 12.2103 -1.8716 6.84499
3867 21 151 12.781 -2.28324 16.8455
3957 21 213 14.6866 5.53873 15.4329
ITEM: TIMESTEP
845000
ITEM: NUMBER OF ATOMS
47
ITEM: BOX BOUNDS pp pp pp
-1.8892030462753866e+01 1.7073010683828429e+01
-2.4401754192022146e+01 1.4174345949934740e+01
-9.2685614667180189e+00 2.0641220290493681e+01
ITEM: ATOMS id type mol x y z
3979 21 233 -18.5083 -11.5712 -7.29318
3964 21 220 -14.1727 -9.23136 5.73343
3973 21 229 -12.6105 -6.24371 -4.00748
3765 21 87 -15.7707 -0.355169 12.2331
3958 21 214 -12.6354 6.65514 20.6302
3966 21 222 -14.3127 13.0204 -1.81603
3793 21 103 -11.7749 12.041 6.4095
3897 21 173 -16.2472 12.2598 16.0053
3720 21 62 -9.41849 -19.586 -4.53864
3967 21 223 -10.4672 -22.9497 10.2877
3960 21 216 -9.39734 -23.9956 19.3947
3800 21 108 -7.63572 -15.0822 1.65546
3766 21 88 -7.82418 -17.823 -1.93061
3942 21 204 -10.4836 -9.85568 5.49909
3938 21 200 -11.061 -3.28292 -4.9318
3869 21 153 -10.4745 -0.175118 -4.35934
3896 21 172 -8.43521 -0.203138 19.3346
3965 21 221 -10.5084 5.65982 1.36382
3971 21 227 -9.44484 7.02842 9.70156
3968 21 224 -11.2228 11.7217 3.24571
3940 21 202 -9.23266 12.8792 12.979
3943 21 205 2.14608 -8.11936 20.0689
3821 21 123 -2.04815 -9.13175 17.6202
3810 21 116 2.16339 -4.72539 11.1494
3889 21 167 1.58603 2.73137 4.98495
3802 21 110 1.04464 2.79589 8.2285
3939 21 201 0.800439 -1.858 19.4768
3959 21 215 1.54562 7.27006 17.9859
3843 21 137 -1.97431 10.3524 16.3422
3928 21 194 -0.037723 10.2786 10.7049
3972 21 228 5.50702 -22.8979 -3.45448
3956 21 212 9.515 -23.3765 11.6864
3912 21 184 7.8657 -13.433 17.9655
3918 21 188 4.62813 -11.9834 4.58696
3834 21 130 5.31305 -9.1811 2.619
3914 21 186 5.36475 -3.01157 1.66661
3868 21 152 8.68802 -2.43101 -0.118219
3927 21 193 6.94627 -0.397236 2.42617
3825 21 125 8.7244 -2.33587 13.3918
3978 21 232 14.7087 -18.9742 12.1142
3839 21 135 16.2304 -14.6393 0.839311
3948 21 208 11.3497 -9.40875 -2.80201
3970 21 226 11.0463 0.447117 -1.42736
3932 21 196 16.2206 0.930171 12.3
3974 21 230 12.1761 -1.86585 6.84569
3867 21 151 12.7453 -2.27823 16.8522
3957 21 213 14.6459 5.55762 15.4388
ITEM: TIMESTEP
850000
ITEM: NUMBER OF ATOMS
47
ITEM: BOX BOUNDS pp pp pp
-1.9107608243118523e+01 1.7288588464193086e+01
-2.4223504896378145e+01 1.3996096654290739e+01
-9.3267334464091185e+00 2.0699392270154977e+01
ITEM: ATOMS id type mol x y z
3979 21 233 -18.7193 -11.5115 -7.34367
3964 21 220 -14.3317 -9.19331 5.73361
3973 21 229 -12.7507 -6.23326 -4.04518
3765 21 87 -15.9489 -0.399145 12.2586
3958 21 214 -12.776 6.54638 20.6883
3966 21 222 -14.4734 12.8528 -1.84521
3793 21 103 -11.9051 11.8824 6.41231
3897 21 173 -16.4311 12.0992 16.0455
3720 21 62 -9.5205 -19.4522 -4.57842
3967 21 223 -10.5818 -22.7848 10.3056
3960 21 216 -9.49909 -23.8211 19.4481
3800 21 108 -7.71636 -14.9901 1.63978
3766 21 88 -7.90708 -17.7056 -1.96024
3942 21 204 -10.5984 -9.81186 5.49836
3938 21 200 -11.1827 -3.29984 -4.9731
3869 21 153 -10.5892 -0.220758 -4.39842
3896 21 172 -8.52543 -0.248519 19.3876
3965 21 221 -10.6235 5.56026 1.347
3971 21 227 -9.54716 6.91621 9.71718
3968 21 224 -11.3465 11.5661 3.23622
3940 21 202 -9.33244 12.713 13.0073
3943 21 205 2.18271 -8.09159 20.1248
3821 21 123 -2.0618 -9.09462 17.6666
3810 21 116 2.20022 -4.72898 11.1707
3889 21 167 1.61595 2.65887 4.98222
3802 21 110 1.06807 2.72279 8.23839
3939 21 201 0.820938 -1.88808 19.5304
3959 21 215 1.57506 7.15562 18.0337
3843 21 137 -1.98708 10.2095 16.3837
3928 21 194 -0.0272719 10.1363 10.7244
3972 21 228 5.58394 -22.7336 -3.49004
3956 21 212 9.63997 -23.2077 11.7098
3912 21 184 7.97089 -13.3561 18.0133
3918 21 188 4.69452 -11.92 4.58268
3834 21 130 5.38765 -9.14352 2.60707
3914 21 186 5.43997 -3.031 1.65097
3868 21 152 8.80308 -2.45581 -0.140798
3927 21 193 7.04044 -0.440823 2.41349
3825 21 125 8.8399 -2.36154 13.4218
3978 21 232 14.896 -18.8461 12.1392
3839 21 135 16.4359 -14.5513 0.820457
3948 21 208 11.4966 -9.36906 -2.83503
3970 21 226 11.1897 0.395727 -1.45503
3932 21 196 16.426 0.874316 12.3257
3974 21 230 12.3329 -1.89587 6.8502
3867 21 151 12.9089 -2.30443 16.8956
3957 21 213 14.8324 5.459 15.4767
ITEM: TIMESTEP
855000
ITEM: NUMBER OF ATOMS
47
ITEM: BOX BOUNDS pp pp pp
-1.8977926604421747e+01 1.7158906825496310e+01
-2.4400914223936653e+01 1.4173505981849246e+01
-9.1346581205629747e+00 2.0507316944329734e+01
ITEM: ATOMS id type mol x y z
3979 21 233 -18.5923 -11.5709 -7.17696
3964 21 220 -14.2361 -9.23118 5.73301
3973 21 229 -12.6664 -6.24366 -3.92068
3765 21 87 -15.8417 -0.355376 12.1745
3958 21 214 -12.6914 6.65463 20.4964
3966 21 222 -14.3768 13.0196 -1.74885
3793 21 103 -11.8268 12.0402 6.40302
3897 21 173 -16.3205 12.259 15.9129
3720 21 62 -9.45914 -19.5853 -4.44709
3967 21 223 -10.5129 -22.9489 10.2465
3960 21 216 -9.43788 -23.9948 19.272
3800 21 108 -7.66785 -15.0818 1.69156
3766 21 88 -7.85721 -17.8225 -1.86241
3942 21 204 -10.5293 -9.85548 5.50076
3938 21 200 -11.1095 -3.283 -4.83673
3869 21 153 -10.5202 -0.175333 -4.26939
3896 21 172 -8.47116 -0.203352 19.2124
3965 21 221 -10.5543 5.65935 1.40252
3971 21 227 -9.48561 7.0279 9.66561
3968 21 224 -11.2721 11.721 3.26756
3940 21 202 -9.27242 12.8785 12.9137
3943 21 205 2.16067 -8.11923 19.9401
3821 21 123 -2.05359 -9.13158 17.5134
3810 21 116 2.17806 -4.72541 11.1005
3889 21 167 1.59795 2.73103 4.99123
3802 21 110 1.05398 2.79554 8.20574
3939 21 201 0.808606 -1.85814 19.3533
3959 21 215 1.55735 7.26952 17.8758
3843 21 137 -1.9794 10.3518 16.2468
3928 21 194 -0.0335588 10.2779 10.6599
3972 21 228 5.53767 -22.8972 -3.37264
3956 21 212 9.56479 -23.3757 11.6327
3912 21 184 7.90761 -13.4326 17.8556
3918 21 188 4.65458 -11.9831 4.5968
3834 21 130 5.34277 -9.18093 2.64646
3914 21 186 5.39472 -3.01166 1.7026
3868 21 152 8.73387 -2.43113 -0.0662463
3927 21 193 6.98379 -0.397441 2.45536
3825 21 125 8.77042 -2.33599 13.3228
3978 21 232 14.7833 -18.9736 12.0566
3839 21 135 16.3123 -14.6389 0.88271
3948 21 208 11.4082 -9.40856 -2.72601
3970 21 226 11.1034 0.446875 -1.36367
3932 21 196 16.3024 0.929907 12.2408
3974 21 230 12.2386 -1.86599 6.83531
3867 21 151 12.8105 -2.27835 16.7522
3957 21 213 14.7202 5.55715 15.3515
ITEM: TIMESTEP
860000
ITEM: NUMBER OF ATOMS
47
ITEM: BOX BOUNDS pp pp pp
-1.8937743251879873e+01 1.7118723472954436e+01
-2.4317578128674310e+01 1.4090169886586903e+01
-9.2853835174092438e+00 2.0658042341127896e+01
ITEM: ATOMS id type mol x y z
3979 21 233 -18.553 -11.543 -7.30778
3964 21 220 -14.2065 -9.21339 5.73348
3973 21 229 -12.6402 -6.23877 -4.01838
3765 21 87 -15.8085 -0.375936 12.2405
3958 21 214 -12.6652 6.60378 20.647
3966 21 222 -14.3468 12.9413 -1.82447
3793 21 103 -11.8025 11.9661 6.41031
3897 21 173 -16.2862 12.1839 16.0169
3720 21 62 -9.44012 -19.5228 -4.55015
3967 21 223 -10.4915 -22.8718 10.2929
3960 21 216 -9.41892 -23.9132 19.4102
3800 21 108 -7.65282 -15.0387 1.65093
3766 21 88 -7.84176 -17.7676 -1.93917
3942 21 204 -10.508 -9.83499 5.49888
3938 21 200 -11.0868 -3.29091 -4.94375
3869 21 153 -10.4988 -0.196671 -4.37064
3896 21 172 -8.45434 -0.224569 19.3499
3965 21 221 -10.5328 5.6128 1.35896
3971 21 227 -9.46653 6.97543 9.70608
3968 21 224 -11.249 11.6482 3.24297
3940 21 202 -9.25382 12.8007 12.9872
3943 21 205 2.15385 -8.10625 20.0851
3821 21 123 -2.05105 -9.11422 17.6336
3810 21 116 2.1712 -4.72708 11.1555
3889 21 167 1.59237 2.69714 4.98416
3802 21 110 1.04961 2.76137 8.23136
3939 21 201 0.804785 -1.8722 19.4923
3959 21 215 1.55187 7.21602 17.9997
3843 21 137 -1.97702 10.2849 16.3542
3928 21 194 -0.0355069 10.2114 10.7105
3972 21 228 5.52333 -22.8203 -3.46476
3956 21 212 9.54149 -23.2968 11.6932
3912 21 184 7.888 -13.3967 17.9793
3918 21 188 4.64221 -11.9535 4.58572
3834 21 130 5.32887 -9.16335 2.61555
3914 21 186 5.3807 -3.02075 1.66209
3868 21 152 8.71242 -2.44272 -0.124748
3927 21 193 6.96624 -0.417819 2.4225
3825 21 125 8.74889 -2.348 13.4004
3978 21 232 14.7484 -18.9137 12.1214
3839 21 135 16.274 -14.5978 0.833859
3948 21 208 11.3808 -9.39001 -2.81156
3970 21 226 11.0767 0.422848 -1.43536
3932 21 196 16.2641 0.903794 12.3074
3974 21 230 12.2093 -1.88002 6.84699
3867 21 151 12.78 -2.2906 16.8648
3957 21 213 14.6854 5.51104 15.4498
ITEM: TIMESTEP
865000
ITEM: NUMBER OF ATOMS
48
ITEM: BOX BOUNDS pp pp pp
-1.9227646933021038e+01 1.7408627154095601e+01
-2.4417488889566776e+01 1.4190080647479370e+01
-9.1667980772944446e+00 2.0539456901019328e+01
ITEM: ATOMS id type mol x y z
3979 21 233 -18.8367 -11.5765 -7.20486
3964 21 220 -14.4203 -9.23472 5.73311
3973 21 229 -12.8288 -6.24463 -3.94151
3765 21 87 -16.0481 -0.351287 12.1886
3958 21 214 -12.8543 6.66474 20.5285
3966 21 222 -14.5629 13.0352 -1.76498
3793 21 103 -11.9777 12.055 6.40458
3897 21 173 -16.5335 12.2739 15.9351
3720 21 62 -9.5773 -19.5978 -4.46907
3967 21 223 -10.6456 -22.9642 10.2564
3960 21 216 -9.55575 -24.011 19.3015
3800 21 108 -7.76125 -15.0904 1.68289
3766 21 88 -7.95323 -17.8334 -1.87878
3942 21 204 -10.6623 -9.85955 5.50036
3938 21 200 -11.2505 -3.28142 -4.85955
3869 21 153 -10.653 -0.17109 -4.29098
3896 21 172 -8.57567 -0.199132 19.2417
3965 21 221 -10.6876 5.66861 1.39323
3971 21 227 -9.60414 7.03833 9.67424
3968 21 224 -11.4153 11.7354 3.26232
3940 21 202 -9.388 12.8939 12.9293
3983 21 235 -4.11895 -18.2727 -8.7484
3943 21 205 2.20311 -8.12182 19.971
3821 21 123 -2.0694 -9.13503 17.539
3810 21 116 2.22074 -4.72507 11.1122
3889 21 167 1.63261 2.73777 4.98972
3802 21 110 1.08111 2.80234 8.2112
3939 21 201 0.832352 -1.85534 19.383
3959 21 215 1.59145 7.28016 17.9022
3843 21 137 -1.99419 10.3651 16.2697
3928 21 194 -0.0214524 10.2911 10.6707
3972 21 228 5.62677 -22.9124 -3.39228
3956 21 212 9.70955 -23.3914 11.6456
3912 21 184 8.02947 -13.4398 17.882
3918 21 188 4.73148 -11.989 4.59444
3834 21 130 5.42918 -9.18442 2.63987
3914 21 186 5.48185 -3.00986 1.69396
3868 21 152 8.86714 -2.42883 -0.078721
3927 21 193 7.09288 -0.393388 2.44835
3825 21 125 8.90421 -2.33361 13.3393
3978 21 232 15.0002 -18.9855 12.0705
3839 21 135 16.5503 -14.6471 0.872294
3948 21 208 11.5784 -9.41225 -2.74425
3970 21 226 11.2695 0.451653 -1.37896
3932 21 196 16.5403 0.935101 12.255
3974 21 230 12.4203 -1.8632 6.8378
3867 21 151 13.0001 -2.27591 16.7762
3957 21 213 14.9362 5.56632 15.3724
ITEM: TIMESTEP
870000
ITEM: NUMBER OF ATOMS
47
ITEM: BOX BOUNDS pp pp pp
-1.8985073257931763e+01 1.7166053479006326e+01
-2.4390322455226343e+01 1.4162914213138937e+01
-9.2353887531677614e+00 2.0608047576860919e+01
ITEM: ATOMS id type mol x y z
3979 21 233 -18.5993 -11.5674 -7.26439
3964 21 220 -14.2414 -9.22892 5.73333
3973 21 229 -12.671 -6.24304 -3.98597
3765 21 87 -15.8476 -0.357989 12.2186
3958 21 214 -12.6961 6.64816 20.597
3966 21 222 -14.3821 13.0097 -1.79938
3793 21 103 -11.8311 12.0308 6.40789
3897 21 173 -16.3266 12.2495 15.9824
3720 21 62 -9.46252 -19.5774 -4.51596
3967 21 223 -10.5167 -22.9391 10.2775
3960 21 216 -9.44126 -23.9844 19.3643
3800 21 108 -7.67052 -15.0763 1.66441
3766 21 88 -7.85996 -17.8155 -1.91371
3942 21 204 -10.5332 -9.85287 5.4995
3938 21 200 -11.1135 -3.284 -4.90825
3869 21 153 -10.524 -0.178045 -4.33706
3896 21 172 -8.47415 -0.206049 19.3043
3965 21 221 -10.5581 5.65344 1.37341
3971 21 227 -9.489 7.02123 9.69265
3968 21 224 -11.2762 11.7117 3.25113
3940 21 202 -9.27573 12.8686 12.9628
3983 21 235 -4.07645 -18.2542 -8.81506
3943 21 205 2.16189 -8.11758 20.037
3821 21 123 -2.05404 -9.12937 17.5937
3810 21 116 2.17929 -4.72562 11.1373
3889 21 167 1.59894 2.72672 4.98651
3802 21 110 1.05475 2.7912 8.22286
3939 21 201 0.809286 -1.85993 19.4462
3959 21 215 1.55833 7.26272 17.9586
3843 21 137 -1.97982 10.3433 16.3186
3928 21 194 -0.0332123 10.2694 10.6937
3972 21 228 5.54022 -22.8874 -3.43421
3956 21 212 9.56893 -23.3656 11.6731
3912 21 184 7.9111 -13.4281 17.9383
3834 21 130 5.34524 -9.17869 2.6258
3914 21 186 5.39721 -3.01282 1.67552
3868 21 152 8.73768 -2.4326 -0.105344
3927 21 193 6.98691 -0.400031 2.4334
3825 21 125 8.77425 -2.33752 13.3747
3978 21 232 14.7895 -18.966 12.0999
3839 21 135 16.3191 -14.6337 0.850063
3948 21 208 11.4131 -9.4062 -2.78318
3970 21 226 11.1082 0.443821 -1.41158
3932 21 196 16.3092 0.926588 12.2853
3974 21 230 12.2438 -1.86778 6.84312
3867 21 151 12.8159 -2.27991 16.8274
3957 21 213 14.7264 5.55129 15.4172
ITEM: TIMESTEP
875000
ITEM: NUMBER OF ATOMS
47
ITEM: BOX BOUNDS pp pp pp
-1.8961342504119916e+01 1.7142322725194479e+01
-2.4282276046617007e+01 1.4054867804529600e+01
-9.3206523023703411e+00 2.0693311126028142e+01
ITEM: ATOMS id type mol x y z
3979 21 233 -18.5761 -11.5312 -7.33839
3964 21 220 -14.2239 -9.20585 5.7336
3973 21 229 -12.6556 -6.23671 -4.04124
3765 21 87 -15.828 -0.384645 12.256
3958 21 214 -12.6806 6.58224 20.6822
3966 21 222 -14.3644 12.9081 -1.84216
3793 21 103 -11.8168 11.9347 6.41202
3897 21 173 -16.3064 12.1521 16.0413
3720 21 62 -9.45129 -19.4963 -4.57426
3967 21 223 -10.5041 -22.8392 10.3037
3960 21 216 -9.43006 -23.8786 19.4425
3800 21 108 -7.66165 -15.0205 1.64142
3766 21 88 -7.85083 -17.7443 -1.95714
3942 21 204 -10.5205 -9.82631 5.49844
3938 21 200 -11.1001 -3.29426 -4.96879
3869 21 153 -10.5114 -0.20571 -4.39433
3896 21 172 -8.46422 -0.233556 19.3821
3965 21 221 -10.5454 5.59309 1.34876
3971 21 227 -9.47773 6.95321 9.71554
3968 21 224 -11.2626 11.6174 3.23721
3940 21 202 -9.26474 12.7678 13.0044
3983 21 235 -4.07229 -18.1805 -8.89792
3943 21 205 2.15786 -8.10075 20.119
3821 21 123 -2.05254 -9.10686 17.6618
3810 21 116 2.17523 -4.72779 11.1684
3889 21 167 1.59565 2.68278 4.98251
3802 21 110 1.05218 2.74689 8.23735
3939 21 201 0.807029 -1.87816 19.5248
3959 21 215 1.55509 7.19335 18.0287
3843 21 137 -1.97842 10.2566 16.3794
3928 21 194 -0.0343628 10.1832 10.7223
3972 21 228 5.53175 -22.7878 -3.48632
3956 21 212 9.55518 -23.2633 11.7073
3912 21 184 7.89952 -13.3815 18.0083
3834 21 130 5.33703 -9.15591 2.60831
3914 21 186 5.38893 -3.02459 1.65261
3868 21 152 8.72501 -2.44763 -0.138438
3927 21 193 6.97655 -0.426452 2.41481
3825 21 125 8.76154 -2.35308 13.4186
3978 21 232 14.7689 -18.8883 12.1366
3839 21 135 16.2965 -14.5803 0.822428
3948 21 208 11.3969 -9.38214 -2.83158
3970 21 226 11.0924 0.412671 -1.45214
3932 21 196 16.2866 0.892732 12.323
3974 21 230 12.2265 -1.88597 6.84973
3867 21 151 12.7979 -2.29579 16.8911
3957 21 213 14.7059 5.49151 15.4728
ITEM: TIMESTEP
880000
ITEM: NUMBER OF ATOMS
47
ITEM: BOX BOUNDS pp pp pp
-1.9099601500809076e+01 1.7280581721883639e+01
-2.4318415328077677e+01 1.4091007085990270e+01
-9.1853102067592225e+00 2.0557969030427309e+01
ITEM: ATOMS id type mol x y z
3979 21 233 -18.7114 -11.5433 -7.22092
3964 21 220 -14.3258 -9.21357 5.73317
3973 21 229 -12.7455 -6.23882 -3.95351
3765 21 87 -15.9423 -0.375729 12.1967
3958 21 214 -12.7708 6.60429 20.547
3966 21 222 -14.4675 12.9421 -1.77426
3793 21 103 -11.9003 11.9669 6.40547
3897 21 173 -16.4243 12.1847 15.9479
3720 21 62 -9.51671 -19.5234 -4.48172
3967 21 223 -10.5775 -22.8726 10.2621
3960 21 216 -9.49531 -23.914 19.3184
3800 21 108 -7.71336 -15.0392 1.6779
3766 21 88 -7.904 -17.7681 -1.8882
3942 21 204 -10.5941 -9.8352 5.50013
3938 21 200 -11.1782 -3.29083 -4.87269
3869 21 153 -10.5849 -0.196457 -4.30342
3896 21 172 -8.52208 -0.224356 19.2586
3965 21 221 -10.6192 5.61327 1.38788
3971 21 227 -9.54336 6.97596 9.67921
3968 21 224 -11.3419 11.649 3.2593
3940 21 202 -9.32874 12.8015 12.9384
3983 21 235 -4.09652 -18.2051 -8.76639
3943 21 205 2.18135 -8.10638 19.9888
3821 21 123 -2.06129 -9.11439 17.5538
3987 21 237 -0.104378 -6.77644 18.4417
3810 21 116 2.19886 -4.72707 11.119
3889 21 167 1.61484 2.69748 4.98886
3802 21 110 1.0672 2.76171 8.21435
3939 21 201 0.820176 -1.87206 19.4
3959 21 215 1.57396 7.21655 17.9174
3843 21 137 -1.98661 10.2856 16.2829
3928 21 194 -0.02766 10.2121 10.6769
3972 21 228 5.58108 -22.8211 -3.4036
3956 21 212 9.63532 -23.2976 11.653
3912 21 184 7.96699 -13.3971 17.8972
3834 21 130 5.38488 -9.16353 2.63607
3914 21 186 5.43717 -3.02066 1.68898
3868 21 152 8.79881 -2.44261 -0.0859063
3927 21 193 7.03695 -0.417615 2.44432
3825 21 125 8.83561 -2.34787 13.3489
3978 21 232 14.889 -18.9143 12.0784
3839 21 135 16.4283 -14.5982 0.866294
3948 21 208 11.4912 -9.39019 -2.75476
3970 21 226 11.1843 0.42309 -1.38776
3974 21 230 12.3271 -1.87988 6.83924
3867 21 151 12.9029 -2.29048 16.7901
3957 21 213 14.8255 5.51151 15.3845
ITEM: TIMESTEP
885000
ITEM: NUMBER OF ATOMS
48
ITEM: BOX BOUNDS pp pp pp
-1.8972606664253330e+01 1.7153586885327893e+01
-2.4353825745064835e+01 1.4126417502977429e+01
-9.2756139390580401e+00 2.0648272762689611e+01
ITEM: ATOMS id type mol x y z
3979 21 233 -18.5871 -11.5552 -7.2993
3964 21 220 -14.2322 -9.22113 5.73345
3973 21 229 -12.6629 -6.2409 -4.01205
3765 21 87 -15.8373 -0.366993 12.2362
3958 21 214 -12.688 6.62589 20.6372
3966 21 222 -14.3728 12.9754 -1.81956
3793 21 103 -11.8236 11.9983 6.40984
3897 21 173 -16.316 12.2166 16.0102
3720 21 62 -9.45662 -19.55 -4.54347
3967 21 223 -10.5101 -22.9053 10.2899
3960 21 216 -9.43537 -23.9487 19.4012
3800 21 108 -7.66586 -15.0575 1.65356
3766 21 88 -7.85517 -17.7915 -1.9342
3942 21 204 -10.5265 -9.8439 5.499
3938 21 200 -11.1065 -3.28747 -4.93681
3869 21 153 -10.5174 -0.18739 -4.36408
3896 21 172 -8.46893 -0.21534 19.341
3965 21 221 -10.5514 5.63305 1.36178
3971 21 227 -9.48308 6.99825 9.70345
3968 21 224 -11.269 11.6799 3.24456
3940 21 202 -9.26996 12.8345 12.9824
3988 21 238 -1.3701 -15.9186 -1.27096
3983 21 235 -4.07427 -18.2293 -8.85415
3943 21 205 2.15977 -8.1119 20.0757
3821 21 123 -2.05325 -9.12177 17.6258
3987 21 237 -0.109999 -6.7795 18.5191
3810 21 116 2.17716 -4.72635 11.152
3889 21 167 1.59721 2.71188 4.98462
3802 21 110 1.0534 2.77623 8.2297
3939 21 201 0.8081 -1.86609 19.4833
3959 21 215 1.55663 7.23929 17.9917
3843 21 137 -1.97909 10.314 16.3473
3928 21 194 -0.0338167 10.2403 10.7072
3972 21 228 5.53577 -22.8537 -3.45879
3956 21 212 9.56171 -23.3311 11.6893
3912 21 184 7.90502 -13.4123 17.9713
3834 21 130 5.34093 -9.171 2.61755
3914 21 186 5.39286 -3.0168 1.66471
3868 21 152 8.73103 -2.43768 -0.120956
3927 21 193 6.98147 -0.408956 2.42463
3825 21 125 8.76757 -2.34277 13.3954
3978 21 232 14.7787 -18.9397 12.1172
3839 21 135 16.3072 -14.6157 0.837025
3948 21 208 11.4046 -9.39808 -2.80601
3970 21 226 11.0999 0.433299 -1.43072
3974 21 230 12.2347 -1.87392 6.84624
3867 21 151 12.8064 -2.28527 16.8575
3957 21 213 14.7156 5.5311 15.4434
ITEM: TIMESTEP
890000
ITEM: NUMBER OF ATOMS
48
ITEM: BOX BOUNDS pp pp pp
-1.9143919832657346e+01 1.7324900053731909e+01
-2.4494419280240816e+01 1.4267011038153409e+01
-9.0143822576936863e+00 2.0387041081362213e+01
ITEM: ATOMS id type mol x y z
3979 21 233 -18.7548 -11.6022 -7.07257
3964 21 220 -14.3585 -9.25114 5.73263
3973 21 229 -12.7744 -6.24913 -3.84272
3765 21 87 -15.9789 -0.332308 12.1219
3958 21 214 -12.7997 6.71168 20.3762
3966 21 222 -14.5005 13.1075 -1.68851
3793 21 103 -11.9271 12.1234 6.39721
3897 21 173 -16.4621 12.3432 15.83
3720 21 62 -9.53768 -19.6555 -4.36486
3967 21 223 -10.6011 -23.0354 10.2095
3960 21 216 -9.51623 -24.0863 19.1618
3800 21 108 -7.72994 -15.1301 1.72397
3766 21 88 -7.92104 -17.8841 -1.80115
3942 21 204 -10.6177 -9.87847 5.50227
3938 21 200 -11.2032 -3.27412 -4.75133
3869 21 153 -10.6085 -0.151392 -4.1886
3896 21 172 -8.54063 -0.179547 19.1026
3965 21 221 -10.6429 5.71158 1.43729
3971 21 227 -9.56439 7.08676 9.63331
3968 21 224 -11.3673 11.8026 3.28719
3940 21 202 -9.34925 12.9657 12.855
3988 21 238 -1.37447 -15.9975 -1.14949
3983 21 235 -4.10428 -18.3251 -8.60028
3943 21 205 2.18888 -8.1338 19.8244
3821 21 123 -2.0641 -9.15106 17.4174
3987 21 237 -0.102416 -6.79168 18.2951
3810 21 116 2.20643 -4.72352 11.0565
3889 21 167 1.62099 2.76906 4.99687
3802 21 110 1.07202 2.83389 8.18529
3939 21 201 0.824391 -1.84235 19.2424
3959 21 215 1.58001 7.32956 17.7768
3843 21 137 -1.98923 10.4267 16.1611
3928 21 194 -0.0255115 10.3525 10.6196
3972 21 228 5.5969 -22.9834 -3.29912
3956 21 212 9.66102 -23.4642 11.5845
3912 21 184 7.98861 -13.473 17.7568
3834 21 130 5.40021 -9.20065 2.67113
3914 21 186 5.45263 -3.00147 1.73493
3868 21 152 8.82246 -2.41813 -0.0195628
3927 21 193 7.05631 -0.374577 2.48158
3825 21 125 8.85935 -2.32253 13.2608
3978 21 232 14.9275 -19.0408 12.0049
3839 21 135 16.4705 -14.6851 0.921693
3948 21 208 11.5214 -9.42938 -2.65774
3970 21 226 11.2138 0.473832 -1.30646
3974 21 230 12.3594 -1.85025 6.82599
3867 21 151 12.9365 -2.2646 16.6624
3957 21 213 14.8638 5.60888 15.273
ITEM: TIMESTEP
895000
ITEM: NUMBER OF ATOMS
48
ITEM: BOX BOUNDS pp pp pp
-1.9110049186207142e+01 1.7291029407281705e+01
-2.4244425064780803e+01 1.4017016822693396e+01
-9.2943487638787232e+00 2.0667007587470540e+01
ITEM: ATOMS id type mol x y z
3979 21 233 -18.7216 -11.5185 -7.31556
3964 21 220 -14.3335 -9.19777 5.73351
3973 21 229 -12.7523 -6.23449 -4.02419
3765 21 87 -15.9509 -0.393984 12.2444
3958 21 214 -12.7776 6.55914 20.6559
3990 21 240 -12.4116 5.81426 14.5895
3793 21 103 -11.9066 11.901 6.41075
3897 21 173 -16.4332 12.118 16.0231
3720 21 62 -9.52166 -19.4679 -4.55627
3967 21 223 -10.5831 -22.8042 10.2956
3960 21 216 -9.50025 -23.8416 19.4184
3800 21 108 -7.71727 -15.0009 1.64851
3766 21 88 -7.90802 -17.7194 -1.94374
3942 21 204 -10.5997 -9.81701 5.49877
3938 21 200 -11.1841 -3.29785 -4.95011
3869 21 153 -10.5905 -0.215401 -4.37666
3896 21 172 -8.52645 -0.243193 19.3581
3965 21 221 -10.6248 5.57194 1.35636
3971 21 227 -9.54832 6.92938 9.70848
3968 21 224 -11.3479 11.5844 3.2415
3940 21 202 -9.33357 12.7325 12.9915
3988 21 238 -1.37361 -15.8571 -1.27968
3943 21 205 2.18312 -8.09485 20.0937
3821 21 123 -2.06196 -9.09898 17.6408
3987 21 237 -0.103915 -6.77003 18.5352
3810 21 116 2.20064 -4.72856 11.1588
3889 21 167 1.61629 2.66738 4.98374
3802 21 110 1.06834 2.73137 8.23288
3939 21 201 0.82117 -1.88455 19.5006
3959 21 215 1.57539 7.16905 18.0071
3843 21 137 -1.98722 10.2263 16.3606
3928 21 194 -0.0271535 10.153 10.7135
3989 21 239 1.68385 10.2074 7.71416
3972 21 228 5.58481 -22.7529 -3.47024
3956 21 212 9.64138 -23.2275 11.6968
3912 21 184 7.97209 -13.3651 17.9867
3834 21 130 5.38849 -9.14793 2.61371
3914 21 186 5.44082 -3.02872 1.65968
3868 21 152 8.80438 -2.4529 -0.128228
3927 21 193 7.04151 -0.435707 2.42055
3825 21 125 8.84121 -2.35853 13.4051
3978 21 232 14.8981 -18.8611 12.1253
3839 21 135 16.4382 -14.5616 0.830953
3948 21 208 11.4983 -9.37372 -2.81665
3970 21 226 11.1913 0.401758 -1.43963
3974 21 230 12.3347 -1.89234 6.84769
3867 21 151 12.9108 -2.30135 16.8715
3957 21 213 14.8345 5.47057 15.4556
ITEM: TIMESTEP
900000
ITEM: NUMBER OF ATOMS
49
ITEM: BOX BOUNDS pp pp pp
-1.8942467886545852e+01 1.7123448107620415e+01
-2.4247407561563858e+01 1.4019999319476451e+01
-9.3890476349091294e+00 2.0761706458462712e+01
ITEM: ATOMS id type mol x y z
3979 21 233 -18.5576 -11.5195 -7.39775
3964 21 220 -14.2099 -9.19841 5.73381
3973 21 229 -12.6433 -6.23466 -4.08558
3765 21 87 -15.8124 -0.393248 12.2859
3958 21 214 -12.6683 6.56096 20.7506
3990 21 240 -12.3057 5.81596 14.6458
3793 21 103 -11.8054 11.9037 6.41532
3897 21 173 -16.2903 12.1207 16.0885
3720 21 62 -9.44236 -19.4702 -4.62102
3967 21 223 -10.494 -22.8069 10.3248
3960 21 216 -9.42115 -23.8445 19.5052
3800 21 108 -7.65459 -15.0025 1.62299
3766 21 88 -7.84358 -17.7213 -1.99197
3942 21 204 -10.5105 -9.81774 5.49758
3938 21 200 -11.0895 -3.29757 -5.01735
3869 21 153 -10.5013 -0.214638 -4.44028
3896 21 172 -8.45632 -0.242434 19.4445
3965 21 221 -10.5354 5.57361 1.32899
3971 21 227 -9.46878 6.93126 9.73391
3968 21 224 -11.2517 11.587 3.22605
3940 21 202 -9.25601 12.7353 13.0377
3988 21 238 -1.36933 -15.8588 -1.32371
3943 21 205 2.15465 -8.09531 20.1847
3821 21 123 -2.05135 -9.0996 17.7164
3987 21 237 -0.111333 -6.77029 18.6164
3810 21 116 2.172 -4.7285 11.1934
3889 21 167 1.59303 2.66859 4.9793
3802 21 110 1.05012 2.73259 8.24898
3939 21 201 0.805235 -1.88405 19.5879
3959 21 215 1.55251 7.17096 18.085
3843 21 137 -1.9773 10.2287 16.4281
3928 21 194 -0.0352778 10.1554 10.7453
3989 21 239 1.65998 10.2098 7.72698
3972 21 228 5.52501 -22.7556 -3.52813
3956 21 212 9.54423 -23.2303 11.7348
3912 21 184 7.89031 -13.3664 18.0645
3834 21 130 5.3305 -9.14856 2.59429
3914 21 186 5.38235 -3.02839 1.63422
3868 21 152 8.71494 -2.45248 -0.164984
3927 21 193 6.9683 -0.434978 2.3999
3825 21 125 8.75143 -2.3581 13.4539
3978 21 232 14.7525 -18.8633 12.166
3839 21 135 16.2785 -14.5631 0.80026
3948 21 208 11.384 -9.37438 -2.8704
3970 21 226 11.0799 0.402618 -1.48468
3974 21 230 12.2128 -1.89184 6.85503
3867 21 151 12.7836 -2.30092 16.9422
3991 21 241 10.0393 4.28881 -7.11991
3957 21 213 14.6895 5.47222 15.5174
ITEM: TIMESTEP
905000
ITEM: NUMBER OF ATOMS
48
ITEM: BOX BOUNDS pp pp pp
-1.9000866778139329e+01 1.7181846999213892e+01
-2.4234527009380194e+01 1.4007118767292788e+01
-9.2729670332008567e+00 2.0645625856761161e+01
ITEM: ATOMS id type mol x y z
3979 21 233 -18.6148 -11.5152 -7.297
3964 21 220 -14.253 -9.19566 5.73345
3973 21 229 -12.6813 -6.23391 -4.01033
3765 21 87 -15.8607 -0.396425 12.2351
3958 21 214 -12.7064 6.5531 20.6346
3990 21 240 -12.3426 5.80861 14.5768
3793 21 103 -11.8407 11.8922 6.40971
3897 21 173 -16.3401 12.1091 16.0084
3720 21 62 -9.46999 -19.4605 -4.54166
3967 21 223 -10.5251 -22.795 10.289
3960 21 216 -9.44871 -23.8319 19.3988
3800 21 108 -7.67643 -14.9958 1.65428
3766 21 88 -7.86603 -17.7128 -1.93285
3942 21 204 -10.5416 -9.81457 5.49903
3938 21 200 -11.1225 -3.29879 -4.93493
3869 21 153 -10.5324 -0.217936 -4.3623
3896 21 172 -8.48076 -0.245713 19.3386
3965 21 221 -10.5665 5.56641 1.36255
3971 21 227 -9.49649 6.92315 9.70274
3968 21 224 -11.2852 11.5757 3.24499
3940 21 202 -9.28304 12.7232 12.9811
3988 21 238 -1.37082 -15.8516 -1.26973
3943 21 205 2.16457 -8.09331 20.0731
3821 21 123 -2.05504 -9.09692 17.6237
3810 21 116 2.18198 -4.72876 11.151
3889 21 167 1.60113 2.66336 4.98475
3802 21 110 1.05647 2.72731 8.22925
3939 21 201 0.810788 -1.88622 19.4809
3959 21 215 1.56048 7.16269 17.9895
3843 21 137 -1.98076 10.2183 16.3454
3928 21 194 -0.0324467 10.1451 10.7063
3989 21 239 1.6683 10.1995 7.71127
3972 21 228 5.54585 -22.7437 -3.45717
3956 21 212 9.57809 -23.2181 11.6882
3912 21 184 7.91881 -13.3609 17.9692
3834 21 130 5.35071 -9.14584 2.61809
3914 21 186 5.40272 -3.0298 1.66542
3868 21 152 8.74611 -2.45427 -0.119929
3927 21 193 6.99381 -0.438128 2.42521
3825 21 125 8.78271 -2.35996 13.3941
3978 21 232 14.8033 -18.854 12.1161
3839 21 135 16.3342 -14.5567 0.837883
3948 21 208 11.4238 -9.37151 -2.80451
3970 21 226 11.1187 0.398904 -1.42946
3974 21 230 12.2553 -1.89401 6.84603
3867 21 151 12.8279 -2.30281 16.8555
3991 21 241 10.0748 4.28249 -7.0213
3957 21 213 14.7401 5.4651 15.4417
ITEM: TIMESTEP
910000
ITEM: NUMBER OF ATOMS
48
ITEM: BOX BOUNDS pp pp pp
-1.9014461624329108e+01 1.7195441845403671e+01
-2.4221328939782101e+01 1.3993920697694694e+01
-9.4239337331387851e+00 2.0796592556648736e+01
ITEM: ATOMS id type mol x y z
3979 21 233 -18.6281 -11.5108 -7.42803
3964 21 220 -14.263 -9.19284 5.73392
3973 21 229 -12.6901 -6.23314 -4.10819
3765 21 87 -15.8719 -0.399682 12.3012
3958 21 214 -12.7153 6.54505 20.7854
3990 21 240 -12.3512 5.80107 14.6665
3793 21 103 -11.8489 11.8805 6.41701
3897 21 173 -16.3517 12.0972 16.1125
3720 21 62 -9.47643 -19.4506 -4.64487
3967 21 223 -10.5323 -22.7828 10.3355
3960 21 216 -9.45513 -23.819 19.5372
3800 21 108 -7.68151 -14.989 1.61359
3766 21 88 -7.87126 -17.7041 -2.00974
3942 21 204 -10.5488 -9.81133 5.49714
3938 21 200 -11.1301 -3.30004 -5.04212
3869 21 153 -10.5396 -0.221315 -4.46371
3896 21 172 -8.48645 -0.249073 19.4764
3965 21 221 -10.5738 5.55904 1.31891
3971 21 227 -9.50295 6.91484 9.74327
3968 21 224 -11.293 11.5642 3.22036
3940 21 202 -9.28933 12.7109 13.0547
3988 21 238 -1.37117 -15.8442 -1.33993
3943 21 205 2.16688 -8.09125 20.2183
3821 21 123 -2.0559 -9.09417 17.7442
3810 21 116 2.18431 -4.72902 11.2062
3889 21 167 1.60302 2.65799 4.97767
3802 21 110 1.05795 2.7219 8.25491
3939 21 201 0.81208 -1.88845 19.6201
3959 21 215 1.56234 7.15422 18.1137
3843 21 137 -1.98156 10.2078 16.4529
3928 21 194 -0.0317876 10.1346 10.757
3989 21 239 1.67023 10.1889 7.7317
3972 21 228 5.5507 -22.7316 -3.54945
3956 21 212 9.58597 -23.2056 11.7488
3912 21 184 7.92544 -13.3552 18.0931
3834 21 130 5.35541 -9.14306 2.58713
3914 21 186 5.40747 -3.03124 1.62484
3868 21 152 8.75336 -2.45611 -0.178525
3927 21 193 6.99975 -0.441355 2.3923
3825 21 125 8.79 -2.36186 13.4718
3978 21 232 14.8151 -18.8445 12.181
3839 21 135 16.3471 -14.5502 0.788954
3948 21 208 11.4331 -9.36857 -2.8902
3970 21 226 11.1277 0.395099 -1.50127
3974 21 230 12.2652 -1.89623 6.85774
3867 21 151 12.8382 -2.30475 16.9682
3991 21 241 10.083 4.276 -7.14954
3957 21 213 14.7518 5.45779 15.5401
ITEM: TIMESTEP
915000
ITEM: NUMBER OF ATOMS
48
ITEM: BOX BOUNDS pp pp pp
-1.8920436349386957e+01 1.7101416570461520e+01
-2.4366588520641940e+01 1.4139180278554534e+01
-9.3949437777678568e+00 2.0767602601265992e+01
ITEM: ATOMS id type mol x y z
3979 21 233 -18.5361 -11.5594 -7.40287
3964 21 220 -14.1937 -9.22385 5.73383
3973 21 229 -12.6289 -6.24165 -4.0894
3765 21 87 -15.7942 -0.363845 12.2885
3958 21 214 -12.6539 6.63368 20.7565
3990 21 240 -12.2918 5.88404 14.6493
3793 21 103 -11.7921 12.0097 6.41561
3897 21 173 -16.2715 12.2281 16.0925
3720 21 62 -9.43194 -19.5596 -4.62505
3967 21 223 -10.4823 -22.9171 10.3266
3960 21 216 -9.41075 -23.9612 19.5106
3800 21 108 -7.64635 -15.0641 1.6214
3766 21 88 -7.8351 -17.7999 -1.99498
3942 21 204 -10.4987 -9.84704 5.49751
3938 21 200 -11.0771 -3.28626 -5.02153
3869 21 153 -10.4896 -0.184122 -4.44424
3896 21 172 -8.4471 -0.212091 19.4499
3965 21 221 -10.5236 5.64018 1.32729
3971 21 227 -9.45832 7.00629 9.73549
3968 21 224 -11.2391 11.691 3.22509
3940 21 202 -9.24581 12.8464 13.0406
3988 21 238 -1.36877 -15.9257 -1.32645
3943 21 205 2.15091 -8.11389 20.1904
3821 21 123 -2.04995 -9.12443 17.7211
3810 21 116 2.16824 -4.7261 11.1956
3889 21 167 1.58997 2.71707 4.97902
3802 21 110 1.04773 2.78147 8.24998
3939 21 201 0.80314 -1.86393 19.5933
3959 21 215 1.5495 7.24748 18.0898
3843 21 137 -1.976 10.3242 16.4323
3928 21 194 -0.0363459 10.2505 10.7473
3989 21 239 1.65684 10.3053 7.72778
3972 21 228 5.51715 -22.8655 -3.53173
3956 21 212 9.53146 -23.3432 11.7371
3912 21 184 7.87956 -13.4178 18.0693
3834 21 130 5.32288 -9.17369 2.59308
3914 21 186 5.37466 -3.01541 1.63264
3868 21 152 8.70318 -2.4359 -0.167273
3927 21 193 6.95868 -0.405835 2.39862
3825 21 125 8.73962 -2.34094 13.4569
3978 21 232 14.7334 -18.9489 12.1685
3839 21 135 16.2575 -14.622 0.798349
3948 21 208 11.369 -9.40092 -2.87375
3970 21 226 11.0652 0.436978 -1.48748
3974 21 230 12.1967 -1.87177 6.85549
3867 21 151 12.7668 -2.2834 16.9466
3991 21 241 10.026 4.34738 -7.12491
3957 21 213 14.6705 5.53816 15.5212
ITEM: TIMESTEP
920000
ITEM: NUMBER OF ATOMS
44
ITEM: BOX BOUNDS pp pp pp
-1.8852678211588824e+01 1.7033658432663387e+01
-2.4301543977001415e+01 1.4074135734914009e+01
-9.2357286856748644e+00 2.0608387509189487e+01
ITEM: ATOMS id type mol x y z
3979 21 233 -18.4698 -11.5377 -7.26468
3964 21 220 -14.1437 -9.20997 5.73333
3973 21 229 -12.5849 -6.23784 -3.98619
3765 21 87 -15.7382 -0.379892 12.2188
3958 21 214 -12.6098 6.59399 20.5974
3990 21 240 -12.249 5.84689 14.5547
3793 21 103 -11.7511 11.9518 6.40791
3897 21 173 -16.2137 12.1695 15.9827
3720 21 62 -9.39987 -19.5108 -4.5162
3967 21 223 -10.4463 -22.857 10.2776
3960 21 216 -9.37877 -23.8975 19.3647
3800 21 108 -7.621 -15.0305 1.66431
3766 21 88 -7.80905 -17.757 -1.91388
3942 21 204 -10.4627 -9.83105 5.4995
3938 21 200 -11.0388 -3.29243 -4.90849
3869 21 153 -10.4536 -0.200777 -4.33729
3896 21 172 -8.41874 -0.228651 19.3046
3965 21 221 -10.4874 5.60385 1.37331
3968 21 224 -11.2003 11.6342 3.25107
3940 21 202 -9.21445 12.7858 12.9629
3988 21 238 -1.36704 -15.8892 -1.25242
3943 21 205 2.13939 -8.10375 20.0373
3821 21 123 -2.04566 -9.11088 17.594
3810 21 116 2.15666 -4.72741 11.1374
3889 21 167 1.58057 2.69061 4.98649
3802 21 110 1.04037 2.75479 8.22292
3939 21 201 0.796697 -1.87491 19.4465
3959 21 215 1.54025 7.20572 17.9589
3843 21 137 -1.97198 10.2721 16.3188
3928 21 194 -0.0396308 10.1986 10.6938
3989 21 239 1.64718 10.2532 7.70623
3972 21 228 5.49298 -22.8055 -3.43441
3956 21 212 9.49218 -23.2816 11.6733
3912 21 184 7.84649 -13.3898 17.9386
3834 21 130 5.29943 -9.15997 2.62573
3868 21 152 8.66702 -2.44495 -0.105476
3927 21 193 6.92908 -0.42174 2.43332
3825 21 125 8.70332 -2.3503 13.3749
3978 21 232 14.6746 -18.9022 12.1001
3970 21 226 11.0202 0.418226 -1.41174
3974 21 230 12.1474 -1.88272 6.84314
3867 21 151 12.7154 -2.29296 16.8277
3991 21 241 9.98481 4.31542 -6.98966
3957 21 213 14.6119 5.50217 15.4174
ITEM: TIMESTEP
925000
ITEM: NUMBER OF ATOMS
47
ITEM: BOX BOUNDS pp pp pp
-1.8976836592400204e+01 1.7157816813474767e+01
-2.4547158259008583e+01 1.4319750016921176e+01
-9.1685319518066137e+00 2.0541190775318270e+01
ITEM: ATOMS id type mol x y z
3979 21 233 -18.5913 -11.6199 -7.20636
3964 21 220 -14.2353 -9.2624 5.73312
3973 21 229 -12.6656 -6.25222 -3.94264
3765 21 87 -15.8408 -0.319297 12.1894
3995 21 243 -13.8691 3.69879 -2.1411
3958 21 214 -12.6907 6.74386 20.5302
3990 21 240 -12.3274 5.98719 14.5147
3793 21 103 -11.8261 12.1703 6.40466
3897 21 173 -16.3196 12.3907 15.9363
3720 21 62 -9.45862 -19.6951 -4.47025
3967 21 223 -10.5123 -23.0841 10.2569
3960 21 216 -9.43737 -24.1379 19.3031
3800 21 108 -7.66744 -15.1574 1.68243
3766 21 88 -7.85679 -17.9188 -1.87966
3942 21 204 -10.5288 -9.89143 5.50034
3938 21 200 -11.1089 -3.26912 -4.86078
3869 21 153 -10.5196 -0.137889 -4.29215
3896 21 172 -8.4707 -0.16612 19.2433
3965 21 221 -10.5537 5.74104 1.39273
3968 21 224 -11.2715 11.8486 3.26204
3940 21 202 -9.27192 13.0149 12.9302
3988 21 238 -1.37021 -16.0271 -1.22117
3943 21 205 2.16049 -8.14202 19.9727
3821 21 123 -2.05352 -9.16204 17.5404
3810 21 116 2.17788 -4.72246 11.1129
3889 21 167 1.5978 2.79051 4.98964
3802 21 110 1.05386 2.85552 8.21149
3939 21 201 0.808503 -1.83345 19.3846
3959 21 215 1.5572 7.36342 17.9036
3843 21 137 -1.97934 10.469 16.271
3928 21 194 -0.0336116 10.3946 10.6713
3989 21 239 1.66487 10.4499 7.69713
3972 21 228 5.53728 -23.032 -3.39334
3956 21 212 9.56416 -23.5141 11.6463
3912 21 184 7.90708 -13.4957 17.8834
3834 21 130 5.34239 -9.21177 2.63951
3868 21 152 8.73328 -2.41079 -0.079394
3927 21 193 6.98332 -0.361681 2.44797
3825 21 125 8.76984 -2.31493 13.3402
3997 21 245 16.8247 -21.7151 9.76074
3978 21 232 14.7824 -19.0787 12.0712
3996 21 244 13.0154 -13.8653 -6.13588
3970 21 226 11.1027 0.489037 -1.37978
3974 21 230 12.2378 -1.84137 6.83794
3867 21 151 12.8096 -2.25685 16.7775
3991 21 241 10.0602 4.43612 -6.93258
3957 21 213 14.7193 5.63806 15.3736
ITEM: TIMESTEP
930000
ITEM: NUMBER OF ATOMS
48
ITEM: BOX BOUNDS pp pp pp
-1.9143174759894833e+01 1.7324154980969396e+01
-2.4401763474687289e+01 1.4174355232599883e+01
-9.2087953580419466e+00 2.0581454181526876e+01
ITEM: ATOMS id type mol x y z
3979 21 233 -18.7541 -11.5712 -7.24131
3964 21 220 -14.358 -9.23136 5.73324
3973 21 229 -12.7739 -6.24371 -3.96874
3765 21 87 -15.9783 -0.355167 12.207
3995 21 243 -13.9884 3.63286 -2.16231
3958 21 214 -12.7992 6.65514 20.5704
3990 21 240 -12.4325 5.90414 14.5387
3793 21 103 -11.9266 12.041 6.40661
3897 21 173 -16.4614 12.2598 15.9641
3720 21 62 -9.53733 -19.586 -4.49778
3967 21 223 -10.6007 -22.9497 10.2693
3960 21 216 -9.51588 -23.9956 19.34
3800 21 108 -7.72966 -15.0822 1.67157
3766 21 88 -7.92075 -17.823 -1.90017
3942 21 204 -10.6173 -9.85569 5.49984
3938 21 200 -11.2028 -3.28292 -4.88937
4001 21 247 -7.77899 -4.85082 -8.20539
3869 21 153 -10.6081 -0.175116 -4.31919
3896 21 172 -8.54032 -0.203136 19.28
3965 21 221 -10.6425 5.65983 1.38109
3968 21 224 -11.3669 11.7217 3.25547
3940 21 202 -9.3489 12.8793 12.9498
3988 21 238 -1.37445 -15.9455 -1.23989
3943 21 205 2.18875 -8.11937 20.0114
3821 21 123 -2.06405 -9.13176 17.5725
3810 21 116 2.2063 -4.72539 11.1276
3889 21 167 1.62088 2.73138 4.98776
3802 21 110 1.07194 2.79589 8.21834
3939 21 201 0.82432 -1.85799 19.4217
3959 21 215 1.57991 7.27007 17.9367
3843 21 137 -1.98919 10.3524 16.2997
3928 21 194 -0.0255476 10.2786 10.6848
3989 21 239 1.68857 10.3334 7.70258
3972 21 228 5.59663 -22.8979 -3.41795
3956 21 212 9.66058 -23.3765 11.6625
3912 21 184 7.98825 -13.433 17.9165
3834 21 130 5.39995 -9.18111 2.63126
3868 21 152 8.82206 -2.43101 -0.0950217
3927 21 193 7.05598 -0.397234 2.4392
3825 21 125 8.85895 -2.33587 13.361
3997 21 245 16.988 -21.5909 9.77178
3978 21 232 14.9269 -18.9742 12.0885
3996 21 244 13.1436 -13.7998 -6.16792
3970 21 226 11.2133 0.447119 -1.39893
3974 21 230 12.3588 -1.86585 6.84106
3867 21 151 12.936 -2.27822 16.8076
3991 21 241 10.1612 4.36467 -6.96679
3957 21 213 14.8632 5.55762 15.3998
ITEM: TIMESTEP
935000
ITEM: NUMBER OF ATOMS
48
ITEM: BOX BOUNDS pp pp pp
-1.8953909555764579e+01 1.7134889776839142e+01
-2.4420755420932654e+01 1.4193347178845247e+01
-9.2298393423919443e+00 2.0602498165854598e+01
ITEM: ATOMS id type mol x y z
3979 21 233 -18.5688 -11.5776 -7.25957
3964 21 220 -14.2184 -9.23542 5.73331
3973 21 229 -12.6507 -6.24482 -3.98238
3765 21 87 -15.8219 -0.350481 12.2162
3995 21 243 -13.8526 3.64147 -2.1734
3958 21 214 -12.6758 6.66673 20.5915
3990 21 240 -12.3129 5.91498 14.5512
3793 21 103 -11.8123 12.0579 6.40763
3897 21 173 -16.3 12.2769 15.9786
3720 21 62 -9.44777 -19.6002 -4.51217
3967 21 223 -10.5001 -22.9672 10.2758
3960 21 216 -9.42655 -24.0142 19.3593
3800 21 108 -7.65887 -15.0921 1.6659
3766 21 88 -7.84798 -17.8356 -1.91088
3942 21 204 -10.5166 -9.86036 5.49957
3938 21 200 -11.096 -3.28111 -4.90431
4001 21 247 -7.70768 -4.85056 -8.22502
3869 21 153 -10.5074 -0.170253 -4.33333
3896 21 172 -8.46111 -0.198301 19.2992
3965 21 221 -10.5415 5.67043 1.37501
3968 21 224 -11.2583 11.7383 3.25203
3940 21 202 -9.2613 12.897 12.9601
3988 21 238 -1.36962 -15.9561 -1.24968
3943 21 205 2.15659 -8.12233 20.0316
3821 21 123 -2.05207 -9.13571 17.5893
3810 21 116 2.17396 -4.72501 11.1353
3889 21 167 1.59462 2.7391 4.98677
3802 21 110 1.05137 2.80368 8.22192
3939 21 201 0.806323 -1.85479 19.4411
3959 21 215 1.55407 7.28226 17.954
3843 21 137 -1.97798 10.3677 16.3146
3928 21 194 -0.0347231 10.2937 10.6919
3989 21 239 1.66161 10.3486 7.70543
3972 21 228 5.5291 -22.9154 -3.43081
3956 21 212 9.55087 -23.3945 11.6709
3912 21 184 7.89589 -13.4412 17.9337
3834 21 130 5.33446 -9.18511 2.62694
3868 21 152 8.72105 -2.42837 -0.10319
3927 21 193 6.9733 -0.39259 2.43461
3825 21 125 8.75756 -2.33314 13.3718
3997 21 245 16.8022 -21.6072 9.77755
3978 21 232 14.7625 -18.9878 12.0975
3996 21 244 12.9977 -13.8084 -6.18467
3970 21 226 11.0875 0.452595 -1.40894
3974 21 230 12.2211 -1.86265 6.84269
3867 21 151 12.7922 -2.27543 16.8233
3991 21 241 10.0463 4.374 -6.98466
3957 21 213 14.6994 5.56813 15.4135
ITEM: TIMESTEP
940000
ITEM: NUMBER OF ATOMS
48
ITEM: BOX BOUNDS pp pp pp
-1.8865670226555352e+01 1.7046650447629915e+01
-2.4409042141926847e+01 1.4181633899839440e+01
-9.3305854896085343e+00 2.0703244313031117e+01
ITEM: ATOMS id type mol x y z
3979 21 233 -18.4825 -11.5737 -7.34701
3964 21 220 -14.1533 -9.23292 5.73363
3973 21 229 -12.5933 -6.24413 -4.04768
3765 21 87 -15.749 -0.353371 12.2603
3995 21 243 -13.7893 3.63616 -2.22649
3958 21 214 -12.6182 6.65959 20.6921
3990 21 240 -12.2572 5.90829 14.6111
3793 21 103 -11.759 12.0475 6.4125
3897 21 173 -16.2248 12.2663 16.0481
3720 21 62 -9.40602 -19.5914 -4.58105
3967 21 223 -10.4532 -22.9564 10.3068
3960 21 216 -9.3849 -24.0027 19.4516
3800 21 108 -7.62586 -15.086 1.63875
3766 21 88 -7.81405 -17.8278 -1.9622
3942 21 204 -10.4696 -9.85748 5.49831
3938 21 200 -11.0461 -3.28223 -4.97584
4001 21 247 -7.67444 -4.85072 -8.31898
3869 21 153 -10.4605 -0.173252 -4.401
3896 21 172 -8.42418 -0.201283 19.3912
3965 21 221 -10.4944 5.66389 1.34589
3968 21 224 -11.2077 11.7281 3.23559
3940 21 202 -9.22046 12.886 13.0092
3988 21 238 -1.36737 -15.9496 -1.29653
3943 21 205 2.1416 -8.1205 20.1285
3821 21 123 -2.04648 -9.13327 17.6697
3810 21 116 2.15888 -4.72524 11.1721
3889 21 167 1.58237 2.73434 4.98204
3802 21 110 1.04178 2.79888 8.23904
3939 21 201 0.797932 -1.85677 19.534
3959 21 215 1.54203 7.27474 18.0369
3843 21 137 -1.97275 10.3583 16.3864
3928 21 194 -0.0390009 10.2844 10.7257
3989 21 239 1.64903 10.3393 7.71907
3972 21 228 5.49761 -22.9046 -3.49239
3956 21 212 9.49971 -23.3834 11.7113
3912 21 184 7.85283 -13.4362 18.0165
3834 21 130 5.30393 -9.18264 2.60628
3868 21 152 8.67395 -2.43 -0.142293
3927 21 193 6.93475 -0.395454 2.41265
3825 21 125 8.71028 -2.33482 13.4237
3997 21 245 16.7156 -21.5971 9.80518
3978 21 232 14.6858 -18.9794 12.1408
3996 21 244 12.9297 -13.8031 -6.26485
3970 21 226 11.0288 0.449218 -1.45687
3974 21 230 12.1569 -1.86462 6.8505
3867 21 151 12.7252 -2.27715 16.8985
3991 21 241 9.9927 4.36824 -7.07024
3957 21 213 14.6231 5.56165 15.4792
ITEM: TIMESTEP
945000
ITEM: NUMBER OF ATOMS
49
ITEM: BOX BOUNDS pp pp pp
-1.8888582078686738e+01 1.7069562299761301e+01
-2.4500533488888394e+01 1.4273125246800987e+01
-9.2240192632648572e+00 2.0596678086693498e+01
ITEM: ATOMS id type mol x y z
3979 21 233 -18.5049 -11.6043 -7.25452
3964 21 220 -14.1702 -9.25245 5.73329
3973 21 229 -12.6082 -6.24949 -3.9786
3765 21 87 -15.7679 -0.330799 12.2136
3995 21 243 -13.8058 3.67764 -2.17034
3958 21 214 -12.6332 6.71541 20.5857
3990 21 240 -12.2716 5.96056 14.5477
3793 21 103 -11.7728 12.1288 6.40734
3897 21 173 -16.2443 12.3487 15.9746
3720 21 62 -9.41686 -19.6601 -4.50819
3967 21 223 -10.4654 -23.041 10.274
3960 21 216 -9.39571 -24.0923 19.3539
3800 21 108 -7.63443 -15.1333 1.66747
3766 21 88 -7.82286 -17.8881 -1.90792
3942 21 204 -10.4818 -9.87997 5.49965
3938 21 200 -11.0591 -3.27354 -4.90018
4001 21 247 -7.68307 -4.84948 -8.21959
3869 21 153 -10.4727 -0.149827 -4.32942
3896 21 172 -8.43377 -0.17799 19.2939
3965 21 221 -10.5066 5.715 1.37669
3968 21 224 -11.2208 11.8079 3.25298
3940 21 202 -9.23107 12.9714 12.9572
3988 21 238 -1.36796 -16.0009 -1.24697
4002 21 248 1.57382 -16.0085 19.9077
3943 21 205 2.14549 -8.13476 20.026
3821 21 123 -2.04793 -9.15233 17.5847
3810 21 116 2.1628 -4.7234 11.1331
3889 21 167 1.58555 2.77155 4.98704
3802 21 110 1.04427 2.8364 8.22093
3939 21 201 0.800111 -1.84132 19.4357
3959 21 215 1.54515 7.33348 17.9493
3843 21 137 -1.97411 10.4316 16.3105
3928 21 194 -0.0378902 10.3574 10.6899
3989 21 239 1.6523 10.4125 7.70464
3972 21 228 5.50579 -22.989 -3.42726
3956 21 212 9.513 -23.47 11.6686
3912 21 184 7.86401 -13.4756 17.929
3834 21 130 5.31186 -9.20194 2.62813
3868 21 152 8.68618 -2.41728 -0.100931
3927 21 193 6.94476 -0.373082 2.43588
3825 21 125 8.72256 -2.32165 13.3688
3997 21 245 16.7381 -21.6753 9.77596
3978 21 232 14.7057 -19.0451 12.095
3996 21 244 12.9474 -13.8443 -6.18004
3970 21 226 11.044 0.475595 -1.40617
3974 21 230 12.1736 -1.84922 6.84224
3867 21 151 12.7426 -2.2637 16.819
3991 21 241 10.0066 4.4132 -6.97972
3957 21 213 14.6429 5.61227 15.4097
ITEM: TIMESTEP
950000
ITEM: NUMBER OF ATOMS
49
ITEM: BOX BOUNDS pp pp pp
-1.8855246812423033e+01 1.7036227033497596e+01
-2.4391843708293511e+01 1.4164435466206104e+01
-9.3027559307230945e+00 2.0675414754116296e+01
ITEM: ATOMS id type mol x y z
3979 21 233 -18.4723 -11.5679 -7.32285
3964 21 220 -14.1456 -9.22925 5.73354
3973 21 229 -12.5865 -6.24313 -4.02964
3765 21 87 -15.7403 -0.357614 12.2481
3995 21 243 -13.7819 3.62836 -2.21182
3958 21 214 -12.6114 6.64909 20.6643
3990 21 240 -12.2506 5.89847 14.5945
3793 21 103 -11.7527 12.0322 6.41115
3897 21 173 -16.2159 12.2508 16.0289
3720 21 62 -9.40109 -19.5785 -4.56202
3967 21 223 -10.4477 -22.9405 10.2982
3960 21 216 -9.37998 -23.9859 19.4261
3800 21 108 -7.62196 -15.0771 1.64625
3766 21 88 -7.81004 -17.8165 -1.94802
3942 21 204 -10.464 -9.85325 5.49866
3938 21 200 -11.0403 -3.28386 -4.95608
4001 21 247 -7.67051 -4.85096 -8.29303
3869 21 153 -10.455 -0.177656 -4.38231
3896 21 172 -8.41982 -0.205661 19.3658
3965 21 221 -10.4888 5.65429 1.35393
3968 21 224 -11.2017 11.713 3.24013
3940 21 202 -9.21564 12.87 12.9956
3988 21 238 -1.36711 -15.9399 -1.28359
4002 21 248 1.56921 -15.9475 19.9828
3943 21 205 2.13983 -8.11782 20.1018
3821 21 123 -2.04582 -9.12969 17.6475
3810 21 116 2.1571 -4.72559 11.1619
3889 21 167 1.58093 2.72734 4.98335
3802 21 110 1.04065 2.79182 8.23431
3939 21 201 0.796941 -1.85967 19.5083
3959 21 215 1.5406 7.2637 18.014
3843 21 137 -1.97214 10.3445 16.3666
3928 21 194 -0.0395063 10.2707 10.7163
3989 21 239 1.64755 10.3255 7.7153
3972 21 228 5.49389 -22.8888 -3.47538
3956 21 212 9.49367 -23.3671 11.7002
3912 21 184 7.84775 -13.4287 17.9936
3834 21 130 5.30032 -9.17902 2.61198
3868 21 152 8.66839 -2.43239 -0.131491
3927 21 193 6.9302 -0.399659 2.41871
3825 21 125 8.7047 -2.3373 13.4094
3997 21 245 16.7054 -21.5825 9.79755
3978 21 232 14.6768 -18.967 12.1289
3996 21 244 12.9217 -13.7953 -6.2427
3970 21 226 11.0219 0.444259 -1.44363
3974 21 230 12.1493 -1.86752 6.84834
3867 21 151 12.7173 -2.27968 16.8777
3991 21 241 9.98637 4.35979 -7.0466
3957 21 213 14.6141 5.55213 15.4611
ITEM: TIMESTEP
955000
ITEM: NUMBER OF ATOMS
50
ITEM: BOX BOUNDS pp pp pp
-1.9093348267180964e+01 1.7274328488255527e+01
-2.4339602373015456e+01 1.4112194130928049e+01
-9.2086725885023242e+00 2.0581331411898734e+01
ITEM: ATOMS id type mol x y z
3979 21 233 -18.7053 -11.5504 -7.2412
3964 21 220 -14.3212 -9.21809 5.73324
3973 21 229 -12.7415 -6.24006 -3.96866
3765 21 87 -15.9371 -0.370502 12.2069
3995 21 243 -13.9527 3.60467 -2.16225
3958 21 214 -12.7667 6.61722 20.5703
3990 21 240 -12.4011 5.86863 14.5386
3793 21 103 -11.8965 11.9857 6.4066
3897 21 173 -16.4189 12.2038 15.964
3720 21 62 -9.51375 -19.5393 -4.4977
3967 21 223 -10.5742 -22.8922 10.2693
3960 21 216 -9.49236 -23.9347 19.3399
3800 21 108 -7.71102 -15.0501 1.67161
3766 21 88 -7.90159 -17.7821 -1.9001
3942 21 204 -10.5908 -9.8404 5.49984
3938 21 200 -11.1747 -3.28882 -4.88928
4001 21 247 -7.76022 -4.85167 -8.20528
3869 21 153 -10.5816 -0.191032 -4.31911
3896 21 172 -8.51946 -0.218962 19.2799
3965 21 221 -10.6159 5.62511 1.38113
3968 21 224 -11.3383 11.6674 3.25549
3940 21 202 -9.32584 12.8213 12.9498
3988 21 238 -1.37318 -15.9106 -1.23984
4002 21 248 1.6021 -15.9181 19.893
3943 21 205 2.18029 -8.10968 20.0113
3821 21 123 -2.0609 -9.11881 17.5724
3810 21 116 2.19779 -4.72664 11.1275
3889 21 167 1.61397 2.70609 4.98776
3802 21 110 1.06652 2.7704 8.21832
3939 21 201 0.819582 -1.86849 19.4216
3959 21 215 1.57311 7.23016 17.9366
3843 21 137 -1.98624 10.3026 16.2996
3928 21 194 -0.0279632 10.229 10.6848
3989 21 239 1.68147 10.2836 7.70256
3972 21 228 5.57885 -22.8406 -3.41788
3956 21 212 9.6317 -23.3176 11.6624
3912 21 184 7.96394 -13.4062 17.9164
3834 21 130 5.38271 -9.168 2.63128
4003 21 249 5.20563 -2.97715 1.85336
3868 21 152 8.79547 -2.43966 -0.0949741
3927 21 193 7.03422 -0.412434 2.43922
3825 21 125 8.83226 -2.34482 13.3609
3997 21 245 16.9391 -21.5378 9.77175
3978 21 232 14.8836 -18.9295 12.0884
3996 21 244 13.1052 -13.7718 -6.16782
3970 21 226 11.1802 0.429198 -1.39887
3974 21 230 12.3226 -1.87632 6.84105
3867 21 151 12.8981 -2.28736 16.8075
3991 21 241 10.1309 4.33412 -6.96668
3957 21 213 14.82 5.52323 15.3997
ITEM: TIMESTEP
960000
ITEM: NUMBER OF ATOMS
50
ITEM: BOX BOUNDS pp pp pp
-1.8989387678558089e+01 1.7170367899632652e+01
-2.4291614826387281e+01 1.4064206584299875e+01
-9.3002692474062805e+00 2.0672928070764009e+01
ITEM: ATOMS id type mol x y z
3979 21 233 -18.6036 -11.5343 -7.3207
3964 21 220 -14.2446 -9.20785 5.73353
3973 21 229 -12.6738 -6.23725 -4.02803
3765 21 87 -15.8512 -0.382341 12.247
3995 21 243 -13.8781 3.58291 -2.21051
3958 21 214 -12.6989 6.58794 20.6619
3990 21 240 -12.3354 5.84122 14.593
3793 21 103 -11.8337 11.943 6.41103
3897 21 173 -16.3303 12.1606 16.0272
3720 21 62 -9.46456 -19.5033 -4.56032
3967 21 223 -10.519 -22.8478 10.2974
3960 21 216 -9.44329 -23.8878 19.4238
3800 21 108 -7.67214 -15.0253 1.64692
3766 21 88 -7.86162 -17.7505 -1.94676
3942 21 204 -10.5355 -9.82861 5.49869
3938 21 200 -11.116 -3.29337 -4.95431
4001 21 247 -7.72105 -4.85232 -8.29071
3869 21 153 -10.5263 -0.203319 -4.38064
3896 21 172 -8.47596 -0.231179 19.3635
3965 21 221 -10.5604 5.5983 1.35465
3968 21 224 -11.2787 11.6256 3.24054
3940 21 202 -9.27772 12.7765 12.9944
3988 21 238 -1.37053 -15.8836 -1.28243
4002 21 248 1.58774 -15.8911 19.9804
3943 21 205 2.16262 -8.1022 20.0994
3821 21 123 -2.05432 -9.10881 17.6455
3810 21 116 2.18002 -4.72761 11.161
3889 21 167 1.59954 2.68658 4.98347
3802 21 110 1.05522 2.75072 8.23389
3939 21 201 0.809696 -1.87659 19.506
3959 21 215 1.55892 7.19935 18.012
3843 21 137 -1.98008 10.2641 16.3648
3928 21 194 -0.0330032 10.1907 10.7155
3989 21 239 1.66666 10.2452 7.71496
3972 21 228 5.54176 -22.7964 -3.47386
3956 21 212 9.57143 -23.2722 11.6992
3912 21 184 7.9132 -13.3855 17.9916
3834 21 130 5.34674 -9.15788 2.61249
4003 21 249 5.17066 -2.98248 1.82979
3868 21 152 8.73998 -2.44633 -0.130526
3927 21 193 6.9888 -0.424168 2.41925
3825 21 125 8.77656 -2.35173 13.4081
3997 21 245 16.837 -21.4968 9.79687
3978 21 232 14.7933 -18.895 12.1278
3996 21 244 13.0251 -13.7502 -6.24072
3970 21 226 11.1111 0.415363 -1.44245
3974 21 230 12.2469 -1.8844 6.84815
3867 21 151 12.8192 -2.29442 16.8759
3991 21 241 10.0678 4.31054 -7.04449
3957 21 213 14.7301 5.49668 15.4595
ITEM: TIMESTEP
965000
ITEM: NUMBER OF ATOMS
49
ITEM: BOX BOUNDS pp pp pp
-1.9033871923983909e+01 1.7214852145058472e+01
-2.4497491165759389e+01 1.4270082923671982e+01
-9.2373909006573918e+00 2.0610049724011770e+01
ITEM: ATOMS id type mol x y z
4004 21 250 -16.7583 -20.9509 6.95758
3979 21 233 -18.6471 -11.6033 -7.26612
3964 21 220 -14.2774 -9.2518 5.73333
3973 21 229 -12.7028 -6.24931 -3.98727
3765 21 87 -15.888 -0.33155 12.2195
3995 21 243 -13.91 3.67626 -2.17738
3958 21 214 -12.7279 6.71355 20.599
3990 21 240 -12.3635 5.95882 14.5557
3793 21 103 -11.8606 12.1261 6.40799
3897 21 173 -16.3682 12.346 15.9838
3720 21 62 -9.48561 -19.6578 -4.51733
3967 21 223 -10.5426 -23.0382 10.2781
3960 21 216 -9.46429 -24.0893 19.3662
3800 21 108 -7.68877 -15.1317 1.66387
3766 21 88 -7.87872 -17.8861 -1.91473
3942 21 204 -10.5591 -9.87922 5.49948
3938 21 200 -11.1411 -3.27383 -4.90967
4001 21 247 -7.73781 -4.84952 -8.23206
3869 21 153 -10.55 -0.150605 -4.3384
3896 21 172 -8.49457 -0.178764 19.3061
3965 21 221 -10.5841 5.7133 1.37283
3968 21 224 -11.3042 11.8053 3.2508
3940 21 202 -9.29831 12.9686 12.9638
3988 21 238 -1.37166 -15.9992 -1.25319
3943 21 205 2.17018 -8.13428 20.0389
3821 21 123 -2.05713 -9.1517 17.5953
3810 21 116 2.18762 -4.72346 11.138
3889 21 167 1.60571 2.77031 4.98641
3802 21 110 1.06006 2.83515 8.2232
3939 21 201 0.813926 -1.84184 19.4481
3959 21 215 1.56499 7.33153 17.9603
3843 21 137 -1.98271 10.4292 16.32
3928 21 194 -0.0308466 10.355 10.6944
3989 21 239 1.673 10.4101 7.70645
3956 21 212 9.59722 -23.4671 11.6739
3912 21 184 7.93491 -13.4743 17.9399
4005 21 251 9.48591 -8.3486 -7.2262
3834 21 130 5.36213 -9.20129 2.62539
3868 21 152 8.76372 -2.4177 -0.106121
3927 21 193 7.00823 -0.373826 2.43296
3825 21 125 8.80039 -2.32208 13.3757
3997 21 245 16.8807 -21.6727 9.77962
3978 21 232 14.8319 -19.043 12.1008
3996 21 244 13.0594 -13.8429 -6.19068
3970 21 226 11.1406 0.474718 -1.41254
3974 21 230 12.2793 -1.84973 6.84327
3867 21 151 12.853 -2.26415 16.8289
3991 21 241 10.0948 4.41171 -6.99108
3957 21 213 14.7686 5.61058 15.4185
ITEM: TIMESTEP
970000
ITEM: NUMBER OF ATOMS
49
ITEM: BOX BOUNDS pp pp pp
-1.9045850448954425e+01 1.7226830670028988e+01
-2.4258452152756384e+01 1.4031043910668977e+01
-9.2885399940676585e+00 2.0661198817392805e+01
ITEM: ATOMS id type mol x y z
4004 21 250 -16.7688 -20.7556 6.96194
3979 21 233 -18.6588 -11.5232 -7.31052
3964 21 220 -14.2862 -9.20077 5.73349
3973 21 229 -12.7106 -6.23531 -4.02043
3765 21 87 -15.8979 -0.390523 12.2419
3995 21 243 -13.9186 3.56787 -2.20433
3958 21 214 -12.7357 6.5677 20.6501
3990 21 240 -12.371 5.82227 14.5861
3793 21 103 -11.8678 11.9135 6.41046
3897 21 173 -16.3784 12.1307 16.0191
3720 21 62 -9.49128 -19.4785 -4.5523
3967 21 223 -10.549 -22.8171 10.2938
3960 21 216 -9.46994 -23.8553 19.4131
3800 21 108 -7.69326 -15.0082 1.65008
3766 21 88 -7.88333 -17.7286 -1.94078
4006 21 252 -9.18219 -11.2628 2.12464
3942 21 204 -10.5655 -9.82045 5.49884
3938 21 200 -11.1479 -3.29652 -4.94599
4001 21 247 -7.74232 -4.85277 -8.27977
3869 21 153 -10.5563 -0.21181 -4.37276
3896 21 172 -8.49959 -0.239622 19.3528
3965 21 221 -10.5905 5.57978 1.35804
3968 21 224 -11.311 11.5966 3.24245
3940 21 202 -9.30386 12.7456 12.9887
3988 21 238 -1.37197 -15.865 -1.27697
3943 21 205 2.17222 -8.09703 20.0881
3821 21 123 -2.05789 -9.1019 17.6362
3810 21 116 2.18967 -4.72827 11.1567
3889 21 167 1.60738 2.67309 4.98402
3802 21 110 1.06136 2.73712 8.23189
3939 21 201 0.815065 -1.88218 19.4952
3959 21 215 1.56663 7.17805 18.0023
3843 21 137 -1.98342 10.2375 16.3565
3928 21 194 -0.0302659 10.1642 10.7116
3956 21 212 9.60416 -23.2408 11.6944
3912 21 184 7.94076 -13.3712 17.9819
4005 21 251 9.49278 -8.30871 -7.27046
3834 21 130 5.36628 -9.15089 2.6149
3868 21 152 8.77012 -2.45095 -0.125974
3927 21 193 7.01347 -0.432277 2.42181
3825 21 125 8.80681 -2.35651 13.4021
3997 21 245 16.8925 -21.4685 9.79365
3978 21 232 14.8423 -18.8712 12.1228
3996 21 244 13.0686 -13.7353 -6.23139
3970 21 226 11.1486 0.405802 -1.43687
3974 21 230 12.288 -1.88998 6.84724
3867 21 151 12.8621 -2.29929 16.8671
3991 21 241 10.1021 4.29424 -7.03453
3957 21 213 14.779 5.47833 15.4518
ITEM: TIMESTEP
975000
ITEM: NUMBER OF ATOMS
48
ITEM: BOX BOUNDS pp pp pp
-1.8881387305890602e+01 1.7062367526965165e+01
-2.4679574269572637e+01 1.4452166027485230e+01
-9.2046715545504121e+00 2.0577330377877278e+01
ITEM: ATOMS id type mol x y z
4004 21 250 -16.6249 -21.0997 6.95479
3979 21 233 -18.4979 -11.6642 -7.23773
3964 21 220 -14.1649 -9.29067 5.73323
3765 21 87 -15.7619 -0.286628 12.2052
3995 21 243 -13.8006 3.75883 -2.16014
3958 21 214 -12.6285 6.82465 20.5663
3990 21 240 -12.2671 6.06283 14.5362
3793 21 103 -11.7685 12.2881 6.40641
3897 21 173 -16.2382 12.51 15.9613
3720 21 62 -9.41346 -19.7944 -4.49496
3967 21 223 -10.4616 -23.2066 10.268
3960 21 216 -9.39232 -24.2676 19.3362
3800 21 108 -7.63174 -15.2258 1.67268
3766 21 88 -7.82009 -18.0061 -1.89807
4006 21 252 -9.10718 -11.3981 2.14459
3942 21 204 -10.478 -9.92399 5.49989
3938 21 200 -11.055 -3.25655 -4.88644
4001 21 247 -7.68036 -4.84704 -8.20155
3869 21 153 -10.4689 -0.103984 -4.31642
3896 21 172 -8.43076 -0.132408 19.2762
3965 21 221 -10.5028 5.815 1.38228
3968 21 224 -11.2167 11.9642 3.25614
3940 21 202 -9.22774 13.1384 12.9478
3988 21 238 -1.36777 -16.1015 -1.23798
3943 21 205 2.14427 -8.16266 20.0074
3821 21 123 -2.04748 -9.18963 17.5692
3810 21 116 2.16157 -4.7198 11.1261
3889 21 167 1.58455 2.84437 4.98795
3802 21 110 1.04349 2.90982 8.21764
3939 21 201 0.799426 -1.8111 19.4179
3959 21 215 1.54417 7.44843 17.9333
3843 21 137 -1.97368 10.5752 16.2967
3928 21 194 -0.038239 10.5003 10.6834
3956 21 212 9.50883 -23.6395 11.6608
3912 21 184 7.8605 -13.5528 17.9131
4005 21 251 9.39845 -8.37899 -7.19789
3834 21 130 5.30937 -9.23969 2.6321
3868 21 152 8.68234 -2.39237 -0.0934211
3927 21 193 6.94162 -0.329301 2.4401
3825 21 125 8.7187 -2.29586 13.3589
3997 21 245 16.731 -21.8283 9.77065
3978 21 232 14.6995 -19.1738 12.0867
3996 21 244 12.9418 -13.9249 -6.16464
3970 21 226 11.0393 0.527213 -1.39697
3974 21 230 12.1683 -1.81907 6.84074
3867 21 151 12.7372 -2.23738 16.8045
3991 21 241 10.0022 4.50119 -6.96328
3957 21 213 14.6367 5.71132 15.3971
ITEM: TIMESTEP
980000
ITEM: NUMBER OF ATOMS
49
ITEM: BOX BOUNDS pp pp pp
-1.8902791684712788e+01 1.7083771905787351e+01
-2.4514658529003743e+01 1.4287250286916336e+01
-9.2928063200825086e+00 2.0665465143371115e+01
ITEM: ATOMS id type mol x y z
4004 21 250 -16.6437 -20.965 6.9623
3979 21 233 -18.5188 -11.609 -7.31422
3964 21 220 -14.1807 -9.25546 5.73351
3765 21 87 -15.7796 -0.327315 12.2438
3995 21 243 -13.816 3.68405 -2.20658
3958 21 214 -12.6424 6.72403 20.6544
3990 21 240 -12.2806 5.96862 14.5886
3793 21 103 -11.7814 12.1414 6.41067
3897 21 173 -16.2564 12.3615 16.0221
3720 21 62 -9.42359 -19.6707 -4.55522
3967 21 223 -10.4729 -23.0541 10.2951
3960 21 216 -9.40242 -24.1061 19.417
3800 21 108 -7.63975 -15.1406 1.64893
3766 21 88 -7.82832 -17.8974 -1.94296
4006 21 252 -9.11694 -11.3451 2.12362
3942 21 204 -10.4893 -9.88344 5.49878
3938 21 200 -11.0671 -3.2722 -4.94902
4001 21 247 -7.68842 -4.84928 -8.28375
3869 21 153 -10.4802 -0.14621 -4.37563
4010 21 254 -5.95368 2.41176 -4.9653
3896 21 172 -8.43972 -0.174394 19.3567
3965 21 221 -10.5142 5.72288 1.35681
3968 21 224 -11.229 11.8202 3.24176
3940 21 202 -9.23764 12.9846 12.9908
3988 21 238 -1.36832 -16.0089 -1.27896
3943 21 205 2.14791 -8.13696 20.0922
3821 21 123 -2.04883 -9.15527 17.6396
3810 21 116 2.16522 -4.72312 11.1583
3889 21 167 1.58752 2.77729 4.98382
3802 21 110 1.04581 2.84219 8.23262
3939 21 201 0.801462 -1.83894 19.4992
3959 21 215 1.54709 7.34255 18.0058
3843 21 137 -1.97495 10.443 16.3595
3928 21 194 -0.0372013 10.3687 10.713
3956 21 212 9.52123 -23.4834 11.6962
3912 21 184 7.87095 -13.4817 17.9854
4005 21 251 9.41073 -8.35147 -7.27415
3834 21 130 5.31677 -9.20491 2.61403
3868 21 152 8.69376 -2.41531 -0.127629
3927 21 193 6.95097 -0.369628 2.42088
3825 21 125 8.73017 -2.31961 13.4043
3997 21 245 16.752 -21.6874 9.79482
3978 21 232 14.7181 -19.0553 12.1246
3996 21 244 12.9583 -13.8507 -6.23478
3970 21 226 11.0535 0.479667 -1.4389
3974 21 230 12.1839 -1.84684 6.84757
3867 21 151 12.7534 -2.26163 16.8703
3991 21 241 10.0152 4.42015 -7.03815
3957 21 213 14.6552 5.62008 15.4546
ITEM: TIMESTEP
985000
ITEM: NUMBER OF ATOMS
51
ITEM: BOX BOUNDS pp pp pp
-1.9137720255077902e+01 1.7318700476152465e+01
-2.4428537769611047e+01 1.4201129527523641e+01
-9.2313390546388163e+00 2.0603997877924041e+01
ITEM: ATOMS id type mol x y z
4004 21 250 -16.8491 -20.8946 6.95706
3979 21 233 -18.7487 -11.5802 -7.26087
3964 21 220 -14.354 -9.23708 5.73331
3765 21 87 -15.9738 -0.348561 12.2169
3995 21 243 -13.9845 3.645 -2.17419
3958 21 214 -12.7956 6.67148 20.593
3990 21 240 -12.4291 5.91943 14.5521
3793 21 103 -11.9233 12.0648 6.4077
3897 21 173 -16.4568 12.2839 15.9797
3720 21 62 -9.53475 -19.6061 -4.51319
3967 21 223 -10.5978 -22.9744 10.2762
3960 21 216 -9.51331 -24.0218 19.3606
3800 21 108 -7.72762 -15.0961 1.6655
3766 21 88 -7.91866 -17.8407 -1.91165
4006 21 252 -9.2241 -11.3174 2.13824
3942 21 204 -10.6144 -9.86227 5.49955
3938 21 200 -11.1997 -3.28038 -4.90537
4001 21 247 -7.77693 -4.85046 -8.22642
3869 21 153 -10.6052 -0.168261 -4.33434
4010 21 254 -6.01954 2.37835 -4.92159
3896 21 172 -8.53803 -0.196319 19.3006
3965 21 221 -10.6396 5.67478 1.37458
3968 21 224 -11.3637 11.7451 3.25179
4015 21 257 -9.17085 9.82449 14.9967
3940 21 202 -9.34638 12.9042 12.9608
3988 21 238 -1.37431 -15.9605 -1.25038
3943 21 205 2.18783 -8.12354 20.0331
3821 21 123 -2.06371 -9.13733 17.5905
3810 21 116 2.20537 -4.72485 11.1358
3889 21 167 1.62013 2.74227 4.9867
3802 21 110 1.07134 2.80687 8.22217
3939 21 201 0.823801 -1.85347 19.4425
3959 21 215 1.57917 7.28726 17.9553
3843 21 137 -1.98886 10.3739 16.3157
3928 21 194 -0.025812 10.2999 10.6924
3956 21 212 9.65742 -23.4018 11.6715
3912 21 184 7.98559 -13.4446 17.935
4005 21 251 9.54547 -8.33709 -7.22096
3834 21 130 5.39807 -9.18675 2.62663
3868 21 152 8.81915 -2.42729 -0.103772
3927 21 193 7.0536 -0.390687 2.43428
3825 21 125 8.85603 -2.33201 13.3726
3997 21 245 16.9826 -21.6138 9.77796
3978 21 232 14.9221 -18.9934 12.0982
3996 21 244 13.1394 -13.8119 -6.18586
4011 21 255 15.7431 -0.504051 -7.19156
3970 21 226 11.2097 0.454839 -1.40966
3974 21 230 12.3548 -1.86134 6.8428
3867 21 151 12.9318 -2.27429 16.8244
3991 21 241 10.1579 4.37782 -6.98594
3957 21 213 14.8584 5.57243 15.4145
ITEM: TIMESTEP
990000
ITEM: NUMBER OF ATOMS
51
ITEM: BOX BOUNDS pp pp pp
-1.9056243331433954e+01 1.7237223552508517e+01
-2.4338173026155012e+01 1.4110764784067605e+01
-9.2709133584219181e+00 2.0643572181680081e+01
ITEM: ATOMS id type mol x y z
4004 21 250 -16.7779 -20.8208 6.96044
3979 21 233 -18.669 -11.5499 -7.29522
3964 21 220 -14.2939 -9.21779 5.73344
3765 21 87 -15.9065 -0.370855 12.2342
3995 21 243 -13.926 3.60402 -2.19505
3958 21 214 -12.7425 6.61634 20.6325
3990 21 240 -12.3776 5.86781 14.5756
3793 21 103 -11.8741 11.9844 6.40961
3897 21 173 -16.3873 12.2025 16.007
3720 21 62 -9.4962 -19.5383 -4.54025
3967 21 223 -10.5545 -22.8909 10.2884
3960 21 216 -9.47485 -23.9334 19.3969
3800 21 108 -7.69714 -15.0494 1.65483
3766 21 88 -7.88733 -17.7811 -1.9318
4006 21 252 -9.18694 -11.2884 2.12883
3942 21 204 -10.571 -9.84005 5.49906
3938 21 200 -11.1537 -3.28895 -4.93347
4001 21 247 -7.74624 -4.85169 -8.26333
3869 21 153 -10.5619 -0.191398 -4.36092
4010 21 254 -5.9967 2.3433 -4.94973
3896 21 172 -8.50394 -0.219325 19.3367
3965 21 221 -10.5961 5.62431 1.36314
3968 21 224 -11.317 11.6662 3.24533
4015 21 257 -9.13393 9.7546 15.0214
3940 21 202 -9.30867 12.8199 12.9801
3988 21 238 -1.37223 -15.9098 -1.26878
3943 21 205 2.17398 -8.10946 20.0711
3821 21 123 -2.05855 -9.11851 17.6221
3810 21 116 2.19145 -4.72667 11.1503
3889 21 167 1.60882 2.70551 4.98484
3802 21 110 1.06249 2.76982 8.2289
3939 21 201 0.816053 -1.86873 19.479
3959 21 215 1.56804 7.22924 17.9878
3843 21 137 -1.98404 10.3015 16.3439
3928 21 194 -0.029762 10.2278 10.7057
3956 21 212 9.61019 -23.3163 11.6874
3912 21 184 7.94583 -13.4056 17.9675
4005 21 251 9.49874 -8.32201 -7.2552
3834 21 130 5.36987 -9.1677 2.61852
3868 21 152 8.77566 -2.43986 -0.119132
3825 21 125 8.81238 -2.34503 13.393
4019 21 259 5.0276 10.0135 20.2922
3997 21 245 16.9027 -21.5366 9.78882
3978 21 232 14.8514 -18.9285 12.1152
3996 21 244 13.0766 -13.7712 -6.21736
4011 21 255 15.6687 -0.525617 -7.22572
3970 21 226 11.1555 0.428786 -1.42848
3974 21 230 12.2956 -1.87656 6.84587
3867 21 151 12.8699 -2.28757 16.854
3991 21 241 10.1084 4.33342 -7.01955
3957 21 213 14.788 5.52244 15.4403
ITEM: TIMESTEP
995000
ITEM: NUMBER OF ATOMS
52
ITEM: BOX BOUNDS pp pp pp
-1.8874372862388611e+01 1.7055353083463174e+01
-2.4453505454490415e+01 1.4226097212403008e+01
-9.3275494632189044e+00 2.0700208286445921e+01
ITEM: ATOMS id type mol x y z
4004 21 250 -16.6188 -20.915 6.96526
3979 21 233 -18.491 -11.5885 -7.34437
3964 21 220 -14.1597 -9.24241 5.73362
3765 21 87 -15.7562 -0.342402 12.259
3995 21 243 -13.7956 3.65632 -2.22489
3958 21 214 -12.6239 6.68672 20.6891
3990 21 240 -12.2627 5.93369 14.6093
3793 21 103 -11.7642 12.087 6.41235
3897 21 173 -16.2322 12.3064 16.046
3720 21 62 -9.41014 -19.6248 -4.57897
3967 21 223 -10.4578 -22.9975 10.3058
3960 21 216 -9.38901 -24.0463 19.4488
4020 21 260 -9.69464 -22.7784 16.3655
3800 21 108 -7.62912 -15.109 1.63956
3766 21 88 -7.81739 -17.8571 -1.96065
4006 21 252 -9.10398 -11.3255 2.11536
3942 21 204 -10.4742 -9.86841 5.49835
3938 21 200 -11.0511 -3.27801 -4.97368
4001 21 247 -7.67772 -4.85012 -8.31615
3869 21 153 -10.4651 -0.161868 -4.39896
4010 21 254 -5.94571 2.38804 -4.99
3896 21 172 -8.42782 -0.189963 19.3884
3965 21 221 -10.499 5.68873 1.34677
3968 21 224 -11.2127 11.7669 3.23609
4015 21 257 -9.0515 9.8438 15.0568
3940 21 202 -9.22449 12.9275 13.0077
3988 21 238 -1.3676 -15.9745 -1.29511
3943 21 205 2.14308 -8.12743 20.1256
3821 21 123 -2.04703 -9.14253 17.6673
3810 21 116 2.16037 -4.72435 11.1709
3889 21 167 1.58358 2.75242 4.98219
3802 21 110 1.04272 2.81711 8.23853
3939 21 201 0.798759 -1.84926 19.5312
3959 21 215 1.54321 7.30329 18.0344
3843 21 137 -1.97327 10.3939 16.3843
3928 21 194 -0.038579 10.3199 10.7247
3956 21 212 9.50476 -23.4255 11.7101
3912 21 184 7.85708 -13.4553 18.014
4005 21 251 9.39443 -8.34126 -7.30421
3834 21 130 5.30694 -9.19202 2.6069
3868 21 152 8.6786 -2.42382 -0.141115
3825 21 125 8.71495 -2.32842 13.4222
4019 21 259 4.9681 10.1043 20.3475
3997 21 245 16.7242 -21.6351 9.80435
3978 21 232 14.6934 -19.0114 12.1395
3996 21 244 12.9364 -13.8231 -6.26243
4011 21 255 15.5025 -0.498092 -7.27461
3970 21 226 11.0346 0.462037 -1.45542
3974 21 230 12.1632 -1.85714 6.85026
3867 21 151 12.7318 -2.27062 16.8963
3991 21 241 9.99799 4.39009 -7.06766
3957 21 213 14.6306 5.58625 15.4773
ITEM: TIMESTEP
1000000
ITEM: NUMBER OF ATOMS
53
ITEM: BOX BOUNDS pp pp pp
-1.8928365101611906e+01 1.7109345322686469e+01
-2.4472214022687634e+01 1.4244805780600228e+01
-9.2003902012623229e+00 2.0573049024501437e+01
ITEM: ATOMS id type mol x y z
4004 21 250 -16.666 -20.9303 6.95443
3979 21 233 -18.5438 -11.5948 -7.23401
3964 21 220 -14.1995 -9.2464 5.73322
3765 21 87 -15.8008 -0.337786 12.2033
3995 21 243 -13.8343 3.6648 -2.15788
3958 21 214 -12.6591 6.69813 20.562
3990 21 240 -12.2968 5.94438 14.5337
3793 21 103 -11.7968 12.1036 6.4062
3897 21 173 -16.2782 12.3232 15.9583
3720 21 62 -9.43569 -19.6388 -4.49203
3967 21 223 -10.4865 -23.0148 10.2667
3960 21 216 -9.41449 -24.0646 19.3323
4020 21 260 -9.72104 -22.7955 16.2751
3800 21 108 -7.64931 -15.1187 1.67384
3766 21 88 -7.83815 -17.8695 -1.89589
4006 21 252 -9.12861 -11.3315 2.1456
3942 21 204 -10.503 -9.87301 5.49994
3938 21 200 -11.0815 -3.27623 -4.8834
4001 21 247 -7.69806 -4.84986 -8.19756
3869 21 153 -10.4938 -0.157078 -4.31355
4010 21 254 -5.96085 2.39529 -4.89958
3896 21 172 -8.45042 -0.1852 19.2723
3965 21 221 -10.5278 5.69918 1.38352
3968 21 224 -11.2437 11.7832 3.25684
4015 21 257 -9.07597 9.85827 14.9774
3940 21 202 -9.24948 12.945 12.9457
3988 21 238 -1.36897 -15.985 -1.23599
3943 21 205 2.15225 -8.13034 20.0033
3821 21 123 -2.05045 -9.14643 17.5658
3810 21 116 2.16959 -4.72397 11.1245
3889 21 167 1.59107 2.76003 4.98815
3802 21 110 1.04859 2.82478 8.21691
3939 21 201 0.803894 -1.8461 19.4139
3959 21 215 1.55059 7.3153 17.9298
3843 21 137 -1.97647 10.4089 16.2937
3928 21 194 -0.0359615 10.3348 10.682
4021 21 261 8.58189 -23.3283 7.62544
3956 21 212 9.53606 -23.4432 11.6591
3912 21 184 7.88343 -13.4634 17.9096
4005 21 251 9.4254 -8.34438 -7.19419
3834 21 130 5.32562 -9.19596 2.63298
3868 21 152 8.70741 -2.42121 -0.0917594
3825 21 125 8.74387 -2.32572 13.3567
4019 21 259 4.98576 10.119 20.2233
3997 21 245 16.7771 -21.6511 9.76947
3978 21 232 14.7403 -19.0248 12.0849
3996 21 244 12.978 -13.8315 -6.16123
4011 21 255 15.5518 -0.493627 -7.16484
3970 21 226 11.0705 0.467431 -1.39494
3974 21 230 12.2025 -1.85399 6.84041
3867 21 151 12.7728 -2.26787 16.8013
3991 21 241 10.0308 4.39929 -6.95965
3957 21 213 14.6773 5.5966 15.3943
ITEM: TIMESTEP
1005000
ITEM: NUMBER OF ATOMS
54
ITEM: BOX BOUNDS pp pp pp
-1.9045546736627777e+01 1.7226526957702340e+01
-2.4350648043143817e+01 1.4123239801056410e+01
-9.2855259668025667e+00 2.0658184790003798e+01
ITEM: ATOMS id type mol x y z
4004 21 250 -16.7685 -20.831 6.96168
3979 21 233 -18.6585 -11.5541 -7.3079
3964 21 220 -14.286 -9.22045 5.73348
3765 21 87 -15.8976 -0.367777 12.2406
3995 21 243 -13.9184 3.60968 -2.20275
3958 21 214 -12.7355 6.62396 20.6471
3990 21 240 -12.3708 5.87494 14.5843
3793 21 103 -11.8676 11.9955 6.41032
3897 21 173 -16.3782 12.2137 16.017
3720 21 62 -9.49113 -19.5476 -4.55024
3967 21 223 -10.5488 -22.9024 10.2929
3960 21 216 -9.4698 -23.9456 19.4103
4020 21 260 -9.77835 -22.6845 16.3356
3800 21 108 -7.69314 -15.0558 1.65089
3766 21 88 -7.88321 -17.7894 -1.93925
4006 21 252 -9.18206 -11.2924 2.12536
3942 21 204 -10.5654 -9.84312 5.49888
3938 21 200 -11.1477 -3.28777 -4.94385
4001 21 247 -7.74221 -4.85152 -8.27696
3869 21 153 -10.5562 -0.188204 -4.37074
4010 21 254 -5.9937 2.34814 -4.96012
3896 21 172 -8.49946 -0.216149 19.35
3965 21 221 -10.5904 5.63128 1.35892
3968 21 224 -11.3109 11.6771 3.24294
4015 21 257 -9.12908 9.76425 15.0306
3940 21 202 -9.30372 12.8316 12.9872
3988 21 238 -1.37196 -15.9168 -1.27557
3943 21 205 2.17216 -8.1114 20.0852
3821 21 123 -2.05787 -9.12111 17.6337
3810 21 116 2.18962 -4.72642 11.1556
3889 21 167 1.60734 2.71059 4.98416
3802 21 110 1.06133 2.77493 8.23138
3939 21 201 0.815036 -1.86662 19.4924
3959 21 215 1.56658 7.23725 17.9998
3843 21 137 -1.9834 10.3115 16.3543
3928 21 194 -0.0302806 10.2378 10.7106
4021 21 261 8.64362 -23.2139 7.63653
3956 21 212 9.60399 -23.3281 11.6932
3912 21 184 7.94061 -13.411 17.9795
4005 21 251 9.49261 -8.32409 -7.26785
3834 21 130 5.36617 -9.17033 2.61552
3868 21 152 8.76996 -2.43812 -0.124804
4022 21 262 7.59826 0.851401 -0.0930441
3825 21 125 8.80665 -2.34323 13.4005
4019 21 259 5.0241 10.0233 20.3065
3997 21 245 16.8922 -21.5473 9.79283
3978 21 232 14.8421 -18.9374 12.1215
3996 21 244 13.0684 -13.7768 -6.22899
4011 21 255 15.6589 -0.52264 -7.23833
3970 21 226 11.1484 0.432383 -1.43543
3974 21 230 12.2878 -1.87446 6.84701
3867 21 151 12.8618 -2.28574 16.8649
3991 21 241 10.1019 4.33955 -7.03197
3957 21 213 14.7787 5.52934 15.4498
ITEM: TIMESTEP
1010000
ITEM: NUMBER OF ATOMS
54
ITEM: BOX BOUNDS pp pp pp
-1.9068217111398042e+01 1.7249197332472605e+01
-2.4556286322481359e+01 1.4328878080393952e+01
-9.1487006367099042e+00 2.0521359459925900e+01
ITEM: ATOMS id type mol x y z
4004 21 250 -16.7883 -20.999 6.95002
3979 21 233 -18.6807 -11.6229 -7.18915
3964 21 220 -14.3027 -9.26435 5.73305
3765 21 87 -15.9164 -0.317045 12.1807
3995 21 243 -13.9346 3.70293 -2.13065
3958 21 214 -12.7503 6.74943 20.5104
3990 21 240 -12.3852 5.9924 14.503
3793 21 103 -11.8813 12.1784 6.4037
3897 21 173 -16.3975 12.399 15.9226
3720 21 62 -9.50186 -19.7019 -4.45669
3967 21 223 -10.5609 -23.0926 10.2508
3960 21 216 -9.4805 -24.1469 19.2849
4020 21 260 -9.78943 -22.8723 16.2383
3800 21 108 -7.70162 -15.1621 1.68777
3766 21 88 -7.89193 -17.9249 -1.86956
4006 21 252 -9.1924 -11.3585 2.1579
3942 21 204 -10.5774 -9.89368 5.50059
3938 21 200 -11.1605 -3.26825 -4.8467
4001 21 247 -7.75075 -4.84872 -8.14935
3869 21 153 -10.5682 -0.135551 -4.27883
4010 21 254 -6.00005 2.4279 -4.86282
3896 21 172 -8.50895 -0.163796 19.2252
3965 21 221 -10.6025 5.74614 1.39846
3968 21 224 -11.3239 11.8566 3.26527
4015 21 257 -9.13935 9.92329 14.9452
3940 21 202 -9.31421 13.0234 12.9205
3988 21 238 -1.37254 -16.0323 -1.21195
3943 21 205 2.17602 -8.14345 19.9536
3821 21 123 -2.05931 -9.16395 17.5246
3810 21 116 2.19349 -4.72228 11.1056
3889 21 167 1.61048 2.79423 4.99057
3802 21 110 1.06379 2.85926 8.20812
3939 21 201 0.817192 -1.83191 19.3663
3959 21 215 1.56968 7.36928 17.8873
3843 21 137 -1.98475 10.4764 16.2568
3928 21 194 -0.0291815 10.4019 10.6646
4021 21 261 8.65556 -23.4074 7.61871
3956 21 212 9.61713 -23.5228 11.6383
3912 21 184 7.95167 -13.4997 17.8671
4005 21 251 9.50561 -8.35841 -7.14946
3834 21 130 5.37402 -9.21369 2.64358
3868 21 152 8.78205 -2.40952 -0.0716967
4022 21 262 7.6089 0.915167 -0.0402274
3825 21 125 8.81879 -2.31362 13.33
4019 21 259 5.03152 10.1851 20.1729
3997 21 245 16.9144 -21.7229 9.7553
3978 21 232 14.8618 -19.0852 12.0627
3996 21 244 13.0858 -13.8694 -6.1201
4011 21 255 15.6796 -0.473563 -7.12022
3970 21 226 11.1635 0.491669 -1.37035
3974 21 230 12.3043 -1.83983 6.8364
3867 21 151 12.879 -2.25551 16.7627
3991 21 241 10.1157 4.4406 -6.91574
3957 21 213 14.7983 5.64311 15.3606
ITEM: TIMESTEP
1015000
ITEM: NUMBER OF ATOMS
54
ITEM: BOX BOUNDS pp pp pp
-1.9176285459169453e+01 1.7357265680244016e+01
-2.4437778161790526e+01 1.4210369919703119e+01
-9.1844327203590588e+00 2.0557091543548808e+01
ITEM: ATOMS id type mol x y z
4004 21 250 -16.8828 -20.9022 6.95307
3979 21 233 -18.7865 -11.5833 -7.22016
3964 21 220 -14.3824 -9.23905 5.73317
3765 21 87 -16.0057 -0.346282 12.1963
3995 21 243 -14.0121 3.64919 -2.14948
3958 21 214 -12.8208 6.67712 20.5461
3990 21 240 -12.4535 5.92471 14.5242
3793 21 103 -11.9466 12.073 6.40543
3897 21 173 -16.4897 12.2922 15.9473
3720 21 62 -9.553 -19.613 -4.48112
3967 21 223 -10.6183 -22.983 10.2618
3960 21 216 -9.53151 -24.0309 19.3176
4020 21 260 -9.84228 -22.7641 16.2637
3800 21 108 -7.74204 -15.1009 1.67814
3766 21 88 -7.93348 -17.8468 -1.88776
4006 21 252 -9.24169 -11.3204 2.1494
3942 21 204 -10.635 -9.86454 5.50014
3938 21 200 -11.2215 -3.2795 -4.87207
4001 21 247 -7.79146 -4.85033 -8.18267
3869 21 153 -10.6257 -0.165895 -4.30283
4010 21 254 -6.03035 2.38194 -4.88823
3896 21 172 -8.55417 -0.193967 19.2578
3965 21 221 -10.6602 5.67994 1.38813
3968 21 224 -11.3858 11.7531 3.25944
4015 21 257 -9.18833 9.83164 14.9675
3940 21 202 -9.36423 12.9128 12.9379
3988 21 238 -1.37529 -15.9657 -1.22857
3943 21 205 2.19438 -8.12498 19.988
3821 21 123 -2.06615 -9.13926 17.5531
3810 21 116 2.21196 -4.72466 11.1187
3889 21 167 1.62548 2.74602 4.9889
3802 21 110 1.07553 2.81066 8.2142
3939 21 201 0.827468 -1.85191 19.3992
3959 21 215 1.58443 7.29319 17.9167
3843 21 137 -1.99115 10.3813 16.2823
3928 21 194 -0.0239424 10.3073 10.6766
4021 21 261 8.71248 -23.2959 7.62336
3956 21 212 9.67978 -23.4106 11.6527
3912 21 184 8.00441 -13.4485 17.8965
4005 21 251 9.56759 -8.33864 -7.18038
3834 21 130 5.41141 -9.1887 2.63625
3868 21 152 8.83973 -2.426 -0.0855657
4022 21 262 7.65959 0.878419 -0.0540205
3825 21 125 8.87669 -2.33068 13.3484
4019 21 259 5.06688 10.0919 20.2078
3997 21 245 17.0205 -21.6217 9.7651
3978 21 232 14.9556 -19.0001 12.078
3996 21 244 13.1691 -13.816 -6.14853
4011 21 255 15.7783 -0.501846 -7.15106
3970 21 226 11.2353 0.457503 -1.38734
3974 21 230 12.3829 -1.85978 6.83917
3867 21 151 12.9611 -2.27293 16.7894
3991 21 241 10.1813 4.38237 -6.94609
3957 21 213 14.8918 5.57755 15.3839
ITEM: TIMESTEP
1020000
ITEM: NUMBER OF ATOMS
54
ITEM: BOX BOUNDS pp pp pp
-1.9178538536112772e+01 1.7359518757187335e+01
-2.4370287590644043e+01 1.4142879348556637e+01
-9.2902822544335137e+00 2.0662941077580065e+01
ITEM: ATOMS id type mol x y z
4004 21 250 -16.8848 -20.847 6.96209
3979 21 233 -18.7887 -11.5607 -7.31203
3964 21 220 -14.3841 -9.22464 5.7335
3765 21 87 -16.0075 -0.362932 12.2427
3995 21 243 -14.0138 3.61858 -2.20525
3958 21 214 -12.8222 6.63594 20.6519
3990 21 240 -12.4549 5.88616 14.5871
3793 21 103 -11.948 12.013 6.41055
3897 21 173 -16.4916 12.2314 16.0203
3720 21 62 -9.55406 -19.5624 -4.55349
3967 21 223 -10.6195 -22.9206 10.2944
3960 21 216 -9.53257 -23.9648 19.4147
4020 21 260 -9.84338 -22.7024 16.339
3800 21 108 -7.74289 -15.066 1.64961
3766 21 88 -7.93435 -17.8023 -1.94167
4006 21 252 -9.24272 -11.2987 2.12422
3942 21 204 -10.6362 -9.84795 5.49882
3938 21 200 -11.2228 -3.2859 -4.94722
4001 21 247 -7.79231 -4.85125 -8.28139
3869 21 153 -10.6269 -0.183175 -4.37393
4010 21 254 -6.03098 2.35576 -4.9635
3896 21 172 -8.55512 -0.211149 19.3544
3965 21 221 -10.6614 5.64225 1.35754
3968 21 224 -11.3871 11.6942 3.24217
4015 21 257 -9.18935 9.77944 15.0335
3940 21 202 -9.36527 12.8499 12.9895
3988 21 238 -1.37535 -15.9278 -1.27779
3943 21 205 2.19476 -8.11446 20.0898
3821 21 123 -2.06629 -9.1252 17.6375
3810 21 116 2.21235 -4.72602 11.1573
3889 21 167 1.62579 2.71857 4.98393
3802 21 110 1.07578 2.78298 8.23219
3939 21 201 0.827682 -1.86331 19.4968
3959 21 215 1.58474 7.24986 18.0038
3843 21 137 -1.99128 10.3272 16.3577
3928 21 194 -0.0238332 10.2535 10.7122
4021 21 261 8.71367 -23.2324 7.63715
3956 21 212 9.68108 -23.3467 11.6951
3912 21 184 8.00551 -13.4194 17.9834
4005 21 251 9.56889 -8.32737 -7.27196
3834 21 130 5.41219 -9.17447 2.61454
3868 21 152 8.84094 -2.43539 -0.12665
4022 21 262 7.66065 0.857491 -0.0948801
3825 21 125 8.8779 -2.3404 13.403
4019 21 259 5.06761 10.0388 20.3111
3997 21 245 17.0227 -21.564 9.79413
3978 21 232 14.9576 -18.9516 12.1235
3996 21 244 13.1709 -13.7856 -6.23277
4011 21 255 15.7804 -0.517953 -7.24244
3970 21 226 11.2368 0.438045 -1.43769
3974 21 230 12.3846 -1.87115 6.84737
3867 21 151 12.9628 -2.28285 16.8684
3991 21 241 10.1827 4.3492 -7.03601
3957 21 213 14.8937 5.54021 15.453
ITEM: TIMESTEP
1025000
ITEM: NUMBER OF ATOMS
54
ITEM: BOX BOUNDS pp pp pp
-1.9027667252924640e+01 1.7208647473999203e+01
-2.4434704054633304e+01 1.4207295812545897e+01
-9.3334452117904974e+00 2.0706104034908780e+01
ITEM: ATOMS id type mol x y z
4004 21 250 -16.7529 -20.8996 6.96576
3979 21 233 -18.641 -11.5822 -7.34949
3964 21 220 -14.2728 -9.2384 5.73364
3765 21 87 -15.8828 -0.34704 12.2616
3995 21 243 -13.9055 3.64779 -2.228
3958 21 214 -12.7239 6.67524 20.695
3990 21 240 -12.3595 5.92295 14.6128
3793 21 103 -11.8568 12.0703 6.41264
3897 21 173 -16.3629 12.2894 16.0501
3720 21 62 -9.48267 -19.6107 -4.58301
3967 21 223 -10.5393 -22.9801 10.3076
3960 21 216 -9.46136 -24.0278 19.4542
4020 21 260 -9.7696 -22.7612 16.3697
3800 21 108 -7.68645 -15.0993 1.63798
3766 21 88 -7.87634 -17.8447 -1.96365
4006 21 252 -9.1739 -11.3194 2.11396
3942 21 204 -10.5558 -9.86379 5.49828
3938 21 200 -11.1376 -3.27979 -4.97787
4001 21 247 -7.73547 -4.85037 -8.32165
3869 21 153 -10.5467 -0.166682 -4.40293
4010 21 254 -5.98869 2.38074 -4.99419
3896 21 172 -8.49198 -0.194749 19.3938
3965 21 221 -10.5808 5.67823 1.34506
3968 21 224 -11.3006 11.7505 3.23512
4015 21 257 -9.12098 9.82926 15.0605
3940 21 202 -9.29544 12.91 13.0106
3988 21 238 -1.3715 -15.964 -1.29786
3943 21 205 2.16913 -8.1245 20.1313
3821 21 123 -2.05674 -9.13862 17.672
3810 21 116 2.18656 -4.72473 11.1731
3889 21 167 1.60485 2.74477 4.98191
3802 21 110 1.05938 2.8094 8.23953
3939 21 201 0.813336 -1.85243 19.5366
3959 21 215 1.56414 7.29122 18.0393
3843 21 137 -1.98235 10.3789 16.3885
3928 21 194 -0.0311474 10.3049 10.7266
4021 21 261 8.6342 -23.293 7.64277
3956 21 212 9.59362 -23.4077 11.7125
3912 21 184 7.93188 -13.4472 18.0188
4005 21 251 9.48235 -8.33812 -7.30931
3834 21 130 5.35998 -9.18805 2.60569
3868 21 152 8.76041 -2.42643 -0.143403
4022 21 262 7.58988 0.877466 -0.111542
3825 21 125 8.79707 -2.33113 13.4252
4019 21 259 5.01825 10.0895 20.3533
3997 21 245 16.8746 -21.6191 9.80597
3978 21 232 14.8265 -18.9978 12.1421
3996 21 244 13.0546 -13.8146 -6.26712
4011 21 255 15.6426 -0.502579 -7.2797
3970 21 226 11.1365 0.456616 -1.45823
3974 21 230 12.2748 -1.8603 6.85072
3867 21 151 12.8482 -2.27338 16.9007
3991 21 241 10.0911 4.38085 -7.07267
3957 21 213 14.7632 5.57585 15.4811
ITEM: TIMESTEP
1030000
ITEM: NUMBER OF ATOMS
55
ITEM: BOX BOUNDS pp pp pp
-1.9157245839264210e+01 1.7338226060338773e+01
-2.4368409390682853e+01 1.4141001148595446e+01
-9.2086238157059306e+00 2.0581282638836957e+01
ITEM: ATOMS id type mol x y z
4004 21 250 -16.8662 -20.8455 6.95513
3979 21 233 -18.7678 -11.56 -7.24116
3964 21 220 -14.3684 -9.22424 5.73324
3765 21 87 -15.9899 -0.363395 12.2069
3995 21 243 -13.9985 3.61773 -2.16222
3958 21 214 -12.8084 6.63479 20.5703
3990 21 240 -12.4414 5.88508 14.5386
3793 21 103 -11.9351 12.0113 6.4066
3897 21 173 -16.4734 12.2297 15.964
3720 21 62 -9.54399 -19.561 -4.49766
3967 21 223 -10.6082 -22.9188 10.2692
3960 21 216 -9.52252 -23.9629 19.3398
4020 21 260 -9.83297 -22.7007 16.2809
3800 21 108 -7.73492 -15.065 1.67162
3766 21 88 -7.92616 -17.8011 -1.90008
4024 21 264 -7.55055 -18.6206 7.73737
4006 21 252 -9.23301 -11.2981 2.14365
3942 21 204 -10.6248 -9.84749 5.49984
4023 21 263 -4.72705 -7.63689 -0.732836
3938 21 200 -11.2107 -3.28608 -4.88925
4001 21 247 -7.78429 -4.85128 -8.20523
3869 21 153 -10.6156 -0.183656 -4.31908
4010 21 254 -6.02501 2.35503 -4.90543
3896 21 172 -8.5462 -0.211628 19.2799
3965 21 221 -10.65 5.6412 1.38114
3968 21 224 -11.3749 11.6926 3.25549
4015 21 257 -9.1797 9.77799 14.9826
3940 21 202 -9.35542 12.8481 12.9497
3988 21 238 -1.37481 -15.9267 -1.23981
3943 21 205 2.19114 -8.11417 20.0112
3821 21 123 -2.06494 -9.12481 17.5724
3810 21 116 2.20871 -4.72606 11.1275
3889 21 167 1.62284 2.71781 4.98776
3802 21 110 1.07346 2.78221 8.21831
3939 21 201 0.825658 -1.86362 19.4215
3959 21 215 1.58183 7.24865 17.9366
3928 21 194 -0.0248654 10.252 10.6847
4021 21 261 8.70245 -23.2306 7.62651
3956 21 212 9.66874 -23.3449 11.6624
3912 21 184 7.99512 -13.4186 17.9163
4005 21 251 9.55667 -8.32706 -7.20131
3834 21 130 5.40482 -9.17407 2.63129
3868 21 152 8.82957 -2.43565 -0.0949551
4022 21 262 7.65066 0.856909 -0.0633587
3825 21 125 8.86649 -2.34067 13.3609
4019 21 259 5.06065 10.0373 20.2314
3997 21 245 17.0018 -21.5624 9.77173
3978 21 232 14.9391 -18.9502 12.0884
3996 21 244 13.1544 -13.7848 -6.16778
4011 21 255 15.7609 -0.518401 -7.17195
3970 21 226 11.2227 0.437503 -1.39885
3974 21 230 12.3691 -1.87147 6.84104
3867 21 151 12.9466 -2.28313 16.8075
3991 21 241 10.1697 4.34828 -6.96664
3957 21 213 14.8753 5.53917 15.3997
ITEM: TIMESTEP
1035000
ITEM: NUMBER OF ATOMS
54
ITEM: BOX BOUNDS pp pp pp
-1.9168424570770281e+01 1.7349404791844844e+01
-2.4628203837944184e+01 1.4400795595856778e+01
-9.1474920261985488e+00 2.0520150849326836e+01
ITEM: ATOMS id type mol x y z
4004 21 250 -16.8759 -21.0577 6.94992
3964 21 220 -14.3766 -9.2797 5.73305
3765 21 87 -15.9992 -0.299302 12.1801
3995 21 243 -14.0065 3.73554 -2.13001
3958 21 214 -12.8157 6.79331 20.5092
3990 21 240 -12.4485 6.03348 14.5022
3793 21 103 -11.9419 12.2424 6.40364
3897 21 173 -16.483 12.4637 15.9218
3720 21 62 -9.54928 -19.7559 -4.45587
3967 21 223 -10.6141 -23.1591 10.2504
3960 21 216 -9.5278 -24.2173 19.2838
4020 21 260 -9.83843 -22.938 16.2374
3800 21 108 -7.7391 -15.1993 1.6881
3766 21 88 -7.93046 -17.9722 -1.86894
4024 21 264 -7.55462 -18.8028 7.72895
4006 21 252 -9.23811 -11.3816 2.15819
3942 21 204 -10.6308 -9.91136 5.5006
4023 21 263 -4.72939 -7.67093 -0.70649
3938 21 200 -11.2171 -3.26142 -4.84584
4001 21 247 -7.7885 -4.84774 -8.14822
3869 21 153 -10.6215 -0.117137 -4.27801
4010 21 254 -6.02815 2.4558 -4.86196
3896 21 172 -8.55088 -0.145486 19.2241
3965 21 221 -10.656 5.78631 1.39881
3968 21 224 -11.3813 11.9193 3.26547
4015 21 257 -9.18477 9.97891 14.9444
3940 21 202 -9.36059 13.0905 12.9199
3988 21 238 -1.37509 -16.0726 -1.21139
3943 21 205 2.19304 -8.15465 19.9524
3821 21 123 -2.06565 -9.17893 17.5236
3810 21 116 2.21062 -4.72083 11.1052
3889 21 167 1.62439 2.82348 4.99063
3802 21 110 1.07468 2.88875 8.20792
3939 21 201 0.826721 -1.81977 19.3652
3959 21 215 1.58336 7.41545 17.8863
3928 21 194 -0.0243235 10.4593 10.6642
4021 21 261 8.70834 -23.4751 7.61855
3956 21 212 9.67522 -23.5909 11.6379
3912 21 184 8.00057 -13.5307 17.8661
4005 21 251 9.56308 -8.37042 -7.14842
3834 21 130 5.40869 -9.22886 2.64383
3868 21 152 8.83554 -2.39952 -0.0712276
4022 21 262 7.65591 0.937467 -0.0397608
3825 21 125 8.87248 -2.30326 13.3294
4019 21 259 5.0643 10.2417 20.1717
3997 21 245 17.0128 -21.7844 9.75497
3978 21 232 14.9488 -19.1369 12.0622
3996 21 244 13.1631 -13.9018 -6.11913
4011 21 255 15.7711 -0.456399 -7.11918
3970 21 226 11.2301 0.512403 -1.36977
3974 21 230 12.3772 -1.82772 6.8363
3867 21 151 12.9551 -2.24494 16.7618
3991 21 241 10.1765 4.47594 -6.91471
3957 21 213 14.885 5.6829 15.3598
ITEM: TIMESTEP
1040000
ITEM: NUMBER OF ATOMS
55
ITEM: BOX BOUNDS pp pp pp
-1.8918233545304449e+01 1.7099213766379012e+01
-2.4426683852069392e+01 1.4199275609981985e+01
-9.3235340900889945e+00 2.0696192913156622e+01
ITEM: ATOMS id type mol x y z
4004 21 250 -16.6572 -20.8931 6.96492
4025 21 265 -13.1298 -21.9384 12.2455
3964 21 220 -14.1921 -9.23668 5.7336
3765 21 87 -15.7924 -0.349019 12.2572
3995 21 243 -13.827 3.64416 -2.22277
3958 21 214 -12.6525 6.67035 20.6851
3990 21 240 -12.2904 5.91837 14.6069
3793 21 103 -11.7907 12.0631 6.41216
3897 21 173 -16.2696 12.2822 16.0433
3720 21 62 -9.43089 -19.6047 -4.57623
3967 21 223 -10.4812 -22.9727 10.3046
3960 21 216 -9.40971 -24.02 19.4451
4020 21 260 -9.71609 -22.7539 16.3627
3800 21 108 -7.64552 -15.0951 1.64065
3766 21 88 -7.83426 -17.8395 -1.95861
4006 21 252 -9.12398 -11.3168 2.11632
3942 21 204 -10.4976 -9.86181 5.4984
4023 21 263 -4.67705 -7.64452 -0.782358
3938 21 200 -11.0758 -3.28055 -4.97083
4001 21 247 -7.69424 -4.85048 -8.3124
3869 21 153 -10.4885 -0.168735 -4.39627
4010 21 254 -5.95801 2.37763 -4.98715
3896 21 172 -8.44618 -0.196791 19.3847
3965 21 221 -10.5224 5.67375 1.34793
3968 21 224 -11.2378 11.7435 3.23674
4015 21 257 -9.07138 9.82306 15.0543
3940 21 202 -9.24479 12.9025 13.0058
3988 21 238 -1.36871 -15.9595 -1.29325
3943 21 205 2.15053 -8.12325 20.1217
3821 21 123 -2.04981 -9.13695 17.6641
3810 21 116 2.16786 -4.72489 11.1695
3889 21 167 1.58967 2.74151 4.98237
3802 21 110 1.04749 2.80611 8.23784
3939 21 201 0.80293 -1.85379 19.5275
3959 21 215 1.5492 7.28607 18.0311
3928 21 194 -0.0364527 10.2985 10.7233
4021 21 261 8.57656 -23.2855 7.64148
3956 21 212 9.53018 -23.4001 11.7085
3912 21 184 7.87848 -13.4438 18.0107
4005 21 251 9.41958 -8.33678 -7.30073
3834 21 130 5.32212 -9.18636 2.60772
3868 21 152 8.70201 -2.42755 -0.139556
4022 21 262 7.53854 0.874979 -0.107716
3825 21 125 8.73844 -2.33228 13.4201
4019 21 259 4.98245 10.0832 20.3436
3997 21 245 16.7672 -21.6122 9.80325
3978 21 232 14.7315 -18.9921 12.1378
3996 21 244 12.9702 -13.811 -6.25924
4011 21 255 15.5426 -0.504494 -7.27115
3970 21 226 11.0638 0.454304 -1.45351
4026 21 266 15.5513 2.3061 -8.78499
3974 21 230 12.1951 -1.86165 6.84995
3867 21 151 12.7651 -2.27456 16.8933
3991 21 241 10.0246 4.37691 -7.06425
3957 21 213 14.6686 5.57141 15.4746
ITEM: TIMESTEP
1045000
ITEM: NUMBER OF ATOMS
54
ITEM: BOX BOUNDS pp pp pp
-1.9105870420932103e+01 1.7286850642006666e+01
-2.4267918433807633e+01 1.4040510191720227e+01
-9.3531916119367828e+00 2.0725850434979368e+01
ITEM: ATOMS id type mol x y z
4004 21 250 -16.8212 -20.7634 6.96744
4025 21 265 -13.2572 -21.8001 12.2585
3964 21 220 -14.3305 -9.20279 5.7337
3995 21 243 -13.9616 3.57216 -2.2384
3958 21 214 -12.7749 6.57348 20.7147
3990 21 240 -12.409 5.82768 14.6245
3793 21 103 -11.9041 11.9219 6.41359
3897 21 173 -16.4296 12.1392 16.0637
3720 21 62 -9.51968 -19.4856 -4.59651
3967 21 223 -10.5809 -22.8259 10.3137
3960 21 216 -9.49827 -23.8646 19.4723
4020 21 260 -9.80784 -22.6089 16.3838
3800 21 108 -7.71571 -15.0131 1.63265
3766 21 88 -7.90641 -17.7348 -1.97371
4006 21 252 -9.20957 -11.2658 2.10926
3942 21 204 -10.5975 -9.82278 5.49803
4023 21 263 -4.7163 -7.62372 -0.795139
3938 21 200 -11.1817 -3.29562 -4.99189
4001 21 247 -7.76493 -4.85265 -8.34006
3869 21 153 -10.5883 -0.209386 -4.41619
4010 21 254 -6.01061 2.31605 -5.00824
3896 21 172 -8.5247 -0.237212 19.4118
3965 21 221 -10.6226 5.58507 1.33936
3968 21 224 -11.3455 11.6049 3.2319
4015 21 257 -9.15642 9.70027 15.0728
3940 21 202 -9.33164 12.7544 13.0202
3988 21 238 -1.3735 -15.8703 -1.30704
3943 21 205 2.18241 -8.09851 20.1503
3821 21 123 -2.06169 -9.10387 17.6877
3810 21 116 2.19993 -4.72808 11.1803
3889 21 167 1.61571 2.67694 4.98098
3802 21 110 1.06788 2.74101 8.24288
3939 21 201 0.820772 -1.88059 19.5548
3959 21 215 1.57482 7.18413 18.0555
3928 21 194 -0.0273561 10.1718 10.7333
4021 21 261 8.67539 -23.1361 7.64534
3956 21 212 9.63896 -23.2497 11.7204
3912 21 184 7.97005 -13.3753 18.035
4005 21 251 9.52721 -8.31029 -7.32639
3834 21 130 5.38704 -9.15288 2.60164
3868 21 152 8.80215 -2.44963 -0.151067
4022 21 262 7.62656 0.825748 -0.119164
3825 21 125 8.83897 -2.35515 13.4354
4019 21 259 5.04384 9.95823 20.3726
3997 21 245 16.9514 -21.4766 9.81138
3978 21 232 14.8945 -18.878 12.1506
3996 21 244 13.1149 -13.7395 -6.28284
4011 21 255 15.714 -0.542384 -7.29675
3970 21 226 11.1885 0.408531 -1.46762
4026 21 266 15.7228 2.2451 -8.81358
3974 21 230 12.3317 -1.88839 6.85225
3867 21 151 12.9076 -2.2979 16.9154
3991 21 241 10.1385 4.29889 -7.08945
3957 21 213 14.8309 5.48357 15.494
ITEM: TIMESTEP
1050000
ITEM: NUMBER OF ATOMS
54
ITEM: BOX BOUNDS pp pp pp
-1.9151842139820939e+01 1.7332822360895502e+01
-2.4720708458365390e+01 1.4493300216277984e+01
-9.0760827431686764e+00 2.0448741566262051e+01
ITEM: ATOMS id type mol x y z
4004 21 250 -16.8614 -21.1333 6.94384
4025 21 265 -13.2884 -22.1945 12.1374
3964 21 220 -14.3644 -9.29945 5.73283
3995 21 243 -13.9946 3.77749 -2.09238
3958 21 214 -12.8048 6.84975 20.4378
3990 21 240 -12.438 6.08633 14.4598
3793 21 103 -11.9319 12.3247 6.40019
3897 21 173 -16.4688 12.5471 15.8725
3720 21 62 -9.54143 -19.8253 -4.40704
3967 21 223 -10.6053 -23.2446 10.2285
3960 21 216 -9.51997 -24.3078 19.2183
4020 21 260 -9.83033 -23.0225 16.1867
3800 21 108 -7.7329 -15.2471 1.70734
3766 21 88 -7.92409 -18.0332 -1.83257
4006 21 252 -9.23054 -11.4113 2.17517
3942 21 204 -10.6219 -9.9341 5.5015
4023 21 263 -4.72592 -7.68305 -0.675716
3938 21 200 -11.2077 -3.25264 -4.79514
4001 21 247 -7.78225 -4.84647 -8.08162
3869 21 153 -10.6127 -0.0934521 -4.23005
4010 21 254 -6.0235 2.49168 -4.81118
3896 21 172 -8.54394 -0.121935 19.1589
3965 21 221 -10.6471 5.83798 1.41945
3968 21 224 -11.3718 12.0001 3.27712
4015 21 257 -9.17725 10.0505 14.8998
3940 21 202 -9.35292 13.1768 12.8851
3988 21 238 -1.37467 -16.1246 -1.17818
3943 21 205 2.19023 -8.16907 19.8838
3821 21 123 -2.0646 -9.1982 17.4666
3810 21 116 2.20778 -4.71897 11.0791
3889 21 167 1.62209 2.8611 4.99398
3802 21 110 1.07288 2.92668 8.19578
3939 21 201 0.825144 -1.80416 19.2993
3959 21 215 1.5811 7.47484 17.8276
3928 21 194 -0.0251274 10.5331 10.6403
4021 21 261 8.69961 -23.5621 7.60925
3956 21 212 9.66561 -23.6785 11.6092
3912 21 184 7.99248 -13.5706 17.8075
4005 21 251 9.55357 -8.38585 -7.08663
3834 21 130 5.40295 -9.24836 2.65848
3868 21 152 8.82669 -2.38665 -0.043511
4022 21 262 7.64813 0.966152 -0.0121957
3825 21 125 8.8636 -2.28994 13.2926
4019 21 259 5.05888 10.3145 20.102
3997 21 245 16.9965 -21.8634 9.73538
3978 21 232 14.9344 -19.2034 12.0315
3996 21 244 13.1503 -13.9434 -6.0623
4011 21 255 15.756 -0.434322 -7.05753
3970 21 226 11.2191 0.539072 -1.33581
4026 21 266 15.7648 2.41906 -8.54641
3974 21 230 12.3651 -1.81214 6.83077
3867 21 151 12.9425 -2.23134 16.7085
3991 21 241 10.1665 4.5214 -6.85405
3957 21 213 14.8706 5.73408 15.3133
ITEM: TIMESTEP
1055000
ITEM: NUMBER OF ATOMS
55
ITEM: BOX BOUNDS pp pp pp
-1.9145301881123157e+01 1.7326282102197720e+01
-2.4326506869333137e+01 1.4099098627245731e+01
-9.2460463517045426e+00 2.0618705174738171e+01
ITEM: ATOMS id type mol x y z
4004 21 250 -16.8557 -20.8112 6.95832
4025 21 265 -13.2839 -21.8511 12.2116
3964 21 220 -14.3595 -9.2153 5.73336
3995 21 243 -13.9899 3.59873 -2.18194
3958 21 214 -12.8006 6.60923 20.6077
3990 21 240 -12.4339 5.86115 14.5608
3793 21 103 -11.9279 11.9741 6.40841
3897 21 173 -16.4633 12.192 15.9898
3720 21 62 -9.53834 -19.5295 -4.52325
3967 21 223 -10.6018 -22.8801 10.2808
3960 21 216 -9.51689 -23.9219 19.3741
4020 21 260 -9.82713 -22.6624 16.3075
3800 21 108 -7.73045 -15.0434 1.66153
3766 21 88 -7.92157 -17.7735 -1.91914
4006 21 252 -9.22756 -11.2847 2.13475
3942 21 204 -10.6185 -9.83718 5.49937
4023 21 263 -4.72455 -7.6314 -0.748964
3938 21 200 -11.204 -3.29006 -4.91582
4001 21 247 -7.77979 -4.85185 -8.24014
3869 21 153 -10.6092 -0.194385 -4.34422
4010 21 254 -6.02166 2.33877 -4.93205
3896 21 172 -8.54121 -0.222296 19.314
3965 21 221 -10.6436 5.61779 1.37033
3968 21 224 -11.3681 11.656 3.24939
4015 21 257 -9.17429 9.74558 15.0059
3940 21 202 -9.34989 12.809 12.968
3988 21 238 -1.3745 -15.9032 -1.25722
3943 21 205 2.18911 -8.10764 20.0472
3821 21 123 -2.06419 -9.11608 17.6022
3810 21 116 2.20667 -4.7269 11.1412
4027 21 267 -1.05722 -7.81038 20.5371
3889 21 167 1.62118 2.70077 4.98601
3802 21 110 1.07217 2.76503 8.22467
3939 21 201 0.824522 -1.8707 19.456
3959 21 215 1.5802 7.22175 17.9674
3928 21 194 -0.0254445 10.2185 10.6973
4021 21 261 8.69616 -23.1912 7.63139
3956 21 212 9.66182 -23.3052 11.6774
3912 21 184 7.98929 -13.4006 17.947
4005 21 251 9.54982 -8.32007 -7.23369
3834 21 130 5.40069 -9.16524 2.62362
3868 21 152 8.8232 -2.44148 -0.10948
4022 21 262 7.64506 0.843915 -0.0778044
3825 21 125 8.86009 -2.34671 13.3802
4019 21 259 5.05674 10.0043 20.2679
3997 21 245 16.9901 -21.5266 9.782
3978 21 232 14.9287 -18.9201 12.1045
3996 21 244 13.1452 -13.7659 -6.19757
4011 21 255 15.75 -0.528402 -7.20425
3970 21 226 11.2147 0.425423 -1.41665
4026 21 266 15.7589 2.26761 -8.71028
3974 21 230 12.3604 -1.87852 6.84394
3867 21 151 12.9376 -2.28929 16.8354
3991 21 241 10.1625 4.32769 -6.99843
3957 21 213 14.865 5.51598 15.4241
ITEM: TIMESTEP
1060000
ITEM: NUMBER OF ATOMS
54
ITEM: BOX BOUNDS pp pp pp
-1.9032114268022418e+01 1.7213094489096981e+01
-2.4466141671709430e+01 1.4238733429622023e+01
-9.3619106047161402e+00 2.0734569427703047e+01
ITEM: ATOMS id type mol x y z
4004 21 250 -16.7568 -20.9253 6.96819
4025 21 265 -13.2071 -21.9727 12.2623
3964 21 220 -14.2761 -9.24511 5.73373
3995 21 243 -13.9087 3.66205 -2.24299
3958 21 214 -12.7268 6.69443 20.7234
3990 21 240 -12.3624 5.94091 14.6297
3793 21 103 -11.8595 12.0982 6.41401
3897 21 173 -16.3667 12.3178 16.0697
3720 21 62 -9.48478 -19.6343 -4.60247
3967 21 223 -10.5417 -23.0092 10.3164
3960 21 216 -9.46346 -24.0586 19.4803
4020 21 260 -9.77178 -22.79 16.39
3800 21 108 -7.68812 -15.1155 1.6303
3766 21 88 -7.87805 -17.8655 -1.97815
4006 21 252 -9.17593 -11.3295 2.10719
3942 21 204 -10.5582 -9.87151 5.49792
4023 21 263 -4.70087 -7.6497 -0.798897
3938 21 200 -11.1401 -3.27681 -4.99808
4001 21 247 -7.73715 -4.84994 -8.3482
3869 21 153 -10.549 -0.158632 -4.42205
3896 21 172 -8.49384 -0.186746 19.4197
3965 21 221 -10.5832 5.69579 1.33684
3968 21 224 -11.3032 11.7779 3.23048
4015 21 257 -9.12299 9.85358 15.0782
3940 21 202 -9.2975 12.9393 13.0245
3988 21 238 -1.37162 -15.9816 -1.31109
3943 21 205 2.16988 -8.1294 20.1587
3821 21 123 -2.05702 -9.14517 17.6947
3810 21 116 2.18732 -4.72409 11.1835
4027 21 267 -1.05631 -7.82998 20.6524
3889 21 167 1.60547 2.75756 4.98057
3802 21 110 1.05987 2.82229 8.24437
3939 21 201 0.813759 -1.84713 19.5629
3959 21 215 1.56475 7.3114 18.0627
3928 21 194 -0.0309318 10.3299 10.7362
4021 21 261 8.63654 -23.3226 7.64648
3956 21 212 9.5962 -23.4374 11.7239
3912 21 184 7.93405 -13.4608 18.0422
4005 21 251 9.4849 -8.34337 -7.33394
3834 21 130 5.36152 -9.19468 2.59985
3868 21 152 8.76279 -2.42206 -0.154451
4022 21 262 7.59196 0.887214 -0.12253
3825 21 125 8.79945 -2.3266 13.4399
4019 21 259 5.01971 10.1142 20.3811
3997 21 245 16.879 -21.6459 9.81378
3978 21 232 14.8304 -19.0204 12.1543
3996 21 244 13.058 -13.8288 -6.28978
4011 21 255 15.6466 -0.495077 -7.30428
3970 21 226 11.1395 0.46568 -1.47177
4026 21 266 15.6554 2.32126 -8.82199
3974 21 230 12.278 -1.85501 6.85293
3867 21 151 12.8516 -2.26876 16.9219
3991 21 241 10.0938 4.3963 -7.09685
3957 21 213 14.7671 5.59324 15.4997
ITEM: TIMESTEP
1065000
ITEM: NUMBER OF ATOMS
52
ITEM: BOX BOUNDS pp pp pp
-1.8858839762295645e+01 1.7039819983370208e+01
-2.4479307862055432e+01 1.4251899619968025e+01
-9.3010130910739726e+00 2.0673671914058307e+01
ITEM: ATOMS id type mol x y z
4025 21 265 -13.0895 -21.9842 12.2357
4004 21 250 -16.6052 -20.9361 6.963
3964 21 220 -14.1483 -9.24792 5.73353
3995 21 243 -13.7844 3.66802 -2.21091
3958 21 214 -12.6138 6.70246 20.6626
3990 21 240 -12.2529 5.94843 14.5935
3793 21 103 -11.7548 12.11 6.41107
3897 21 173 -16.2189 12.3296 16.0277
3720 21 62 -9.40279 -19.6442 -4.56083
3967 21 223 -10.4496 -23.0214 10.2977
3960 21 216 -9.38167 -24.0715 19.4245
4020 21 260 -9.68704 -22.802 16.3466
3800 21 108 -7.62331 -15.1223 1.64672
3766 21 88 -7.81142 -17.8741 -1.94714
4006 21 252 -9.09689 -11.3337 2.12167
3942 21 204 -10.4659 -9.87475 5.49868
4023 21 263 -4.66462 -7.65142 -0.772652
3938 21 200 -11.0423 -3.27556 -4.95484
4001 21 247 -7.67187 -4.84976 -8.2914
3896 21 172 -8.42132 -0.183394 19.3642
3965 21 221 -10.4907 5.70314 1.35444
3968 21 224 -11.2038 11.7894 3.24042
4015 21 257 -9.04446 9.86376 15.0402
3940 21 202 -9.2173 12.9516 12.9948
3988 21 238 -1.3672 -15.989 -1.28277
3943 21 205 2.14044 -8.13145 20.1001
3821 21 123 -2.04605 -9.14791 17.6461
3810 21 116 2.15771 -4.72383 11.1613
4027 21 267 -1.0549 -7.83183 20.5918
3889 21 167 1.58142 2.76292 4.98343
3802 21 110 1.04104 2.82769 8.23401
3939 21 201 0.797282 -1.8449 19.5067
4028 21 268 0.573528 7.55491 17.998
3928 21 194 -0.0393321 10.3405 10.7158
4021 21 261 8.54527 -23.335 7.63855
3956 21 212 9.49575 -23.4499 11.6995
3912 21 184 7.8495 -13.4665 17.9922
3834 21 130 5.30156 -9.19746 2.61234
3868 21 152 8.67031 -2.42023 -0.130815
4022 21 262 7.51068 0.891297 -0.0990224
3825 21 125 8.70662 -2.3247 13.4085
4019 21 259 4.96302 10.1246 20.3216
3997 21 245 16.7089 -21.6572 9.79707
3978 21 232 14.6799 -19.0299 12.1281
3996 21 244 12.9245 -13.8347 -6.24131
4011 21 255 15.4883 -0.491934 -7.2517
3970 21 226 11.0243 0.469476 -1.4428
4026 21 266 15.497 2.32631 -8.76327
3974 21 230 12.1519 -1.85279 6.84821
3867 21 151 12.72 -2.26682 16.8764
3991 21 241 9.98856 4.40277 -7.04512
3957 21 213 14.6172 5.60052 15.4599
ITEM: TIMESTEP
1070000
ITEM: NUMBER OF ATOMS
52
ITEM: BOX BOUNDS pp pp pp
-1.8969539026535760e+01 1.7150519247610323e+01
-2.4578425902153256e+01 1.4351017660065850e+01
-9.1543745052358645e+00 2.0527033328239440e+01
ITEM: ATOMS id type mol x y z
4025 21 265 -13.1647 -22.0706 12.1716
4004 21 250 -16.702 -21.0171 6.95051
3964 21 220 -14.2299 -9.26908 5.73307
3995 21 243 -13.8638 3.71297 -2.13364
3958 21 214 -12.686 6.76294 20.5161
3990 21 240 -12.3228 6.00505 14.5063
3793 21 103 -11.8217 12.1981 6.40398
3897 21 173 -16.3133 12.4189 15.9265
3720 21 62 -9.45517 -19.7185 -4.46057
3967 21 223 -10.5084 -23.113 10.2526
3960 21 216 -9.43392 -24.1685 19.2901
4020 21 260 -9.74118 -22.8925 16.2423
3800 21 108 -7.66471 -15.1735 1.68624
3766 21 88 -7.85399 -17.9394 -1.87245
4006 21 252 -9.14739 -11.3656 2.15655
3942 21 204 -10.5249 -9.89912 5.50052
4023 21 263 -4.68778 -7.66441 -0.709457
3938 21 200 -11.1048 -3.26615 -4.85073
4001 21 247 -7.71357 -4.84841 -8.15464
3896 21 172 -8.46765 -0.158159 19.2303
3965 21 221 -10.5498 5.7585 1.39682
3968 21 224 -11.2673 11.8759 3.26435
4015 21 257 -9.09463 9.94042 14.9487
3940 21 202 -9.26854 13.0441 12.9233
3988 21 238 -1.37002 -16.0447 -1.21459
3943 21 205 2.15925 -8.1469 19.9591
3821 21 123 -2.05306 -9.16856 17.5291
3810 21 116 2.17663 -4.72183 11.1077
4027 21 267 -1.0558 -7.84574 20.446
3889 21 167 1.59679 2.80323 4.99031
3802 21 110 1.05307 2.86834 8.20909
3939 21 201 0.807809 -1.82817 19.3715
4028 21 268 0.582674 7.61975 17.8775
3928 21 194 -0.0339654 10.4195 10.6665
4021 21 261 8.60358 -23.4283 7.61945
3956 21 212 9.55993 -23.5437 11.6406
3912 21 184 7.90352 -13.5092 17.8718
3834 21 130 5.33987 -9.21836 2.64242
3868 21 152 8.72939 -2.40644 -0.073899
4022 21 262 7.56261 0.922032 -0.0424176
3825 21 125 8.76593 -2.31043 13.3329
4019 21 259 4.99923 10.2026 20.1784
3997 21 245 16.8176 -21.7418 9.75685
3978 21 232 14.7761 -19.1011 12.0651
3996 21 244 13.0098 -13.8794 -6.12461
4011 21 255 15.5894 -0.468279 -7.12512
3970 21 226 11.0979 0.498052 -1.37305
4026 21 266 15.5982 2.36439 -8.6219
3974 21 230 12.2325 -1.8361 6.83684
3867 21 151 12.8041 -2.25225 16.767
3991 21 241 10.0558 4.45148 -6.92056
3957 21 213 14.713 5.65536 15.3643
ITEM: TIMESTEP
1075000
ITEM: NUMBER OF ATOMS
51
ITEM: BOX BOUNDS pp pp pp
-1.9093632052033062e+01 1.7274612273107625e+01
-2.4430035311660024e+01 1.4202627069572618e+01
-9.2172120143628753e+00 2.0589870837332739e+01
ITEM: ATOMS id type mol x y z
4025 21 265 -13.2489 -21.9413 12.199
4004 21 250 -16.8105 -20.8958 6.95586
3964 21 220 -14.3214 -9.2374 5.73327
3995 21 243 -13.9529 3.64568 -2.16675
3958 21 214 -12.7669 6.67239 20.5789
3990 21 240 -12.4012 5.92029 14.5437
3793 21 103 -11.8967 12.0661 6.40702
3897 21 173 -16.4192 12.2852 15.9699
3720 21 62 -9.51389 -19.6072 -4.50353
3967 21 223 -10.5744 -22.9758 10.2719
3960 21 216 -9.4925 -24.0233 19.3477
4020 21 260 -9.80186 -22.757 16.287
3800 21 108 -7.71113 -15.0969 1.6693
3766 21 88 -7.9017 -17.8417 -1.90445
4006 21 252 -9.20399 -11.3179 2.1416
3942 21 204 -10.591 -9.86264 5.49973
4023 21 263 -4.71374 -7.64496 -0.736537
3938 21 200 -11.1748 -3.28023 -4.89534
4001 21 247 -7.76032 -4.85044 -8.21324
3896 21 172 -8.51958 -0.195938 19.2877
3965 21 221 -10.616 5.67562 1.37866
3968 21 224 -11.3384 11.7464 3.25409
4015 21 257 -9.15087 9.82565 14.9879
3940 21 202 -9.32597 12.9056 12.9539
3988 21 238 -1.37319 -15.9614 -1.24381
3943 21 205 2.18033 -8.12377 20.0195
3821 21 123 -2.06092 -9.13765 17.5792
3810 21 116 2.19784 -4.72482 11.1306
4027 21 267 -1.05681 -7.82492 20.5085
3889 21 167 1.61401 2.74288 4.98736
3802 21 110 1.06655 2.80749 8.21977
3939 21 201 0.819609 -1.85322 19.4294
4028 21 268 0.592927 7.52267 17.9291
3928 21 194 -0.0279494 10.3011 10.6876
4021 21 261 8.66895 -23.2886 7.62763
3956 21 212 9.63186 -23.4032 11.6658
3912 21 184 7.96407 -13.4452 17.9234
3834 21 130 5.38281 -9.18707 2.62953
3868 21 152 8.79562 -2.42708 -0.0982885
4022 21 262 7.62082 0.876018 -0.0666739
3825 21 125 8.83241 -2.3318 13.3653
4019 21 259 5.03983 10.0858 20.2398
3997 21 245 16.9394 -21.6151 9.77409
3978 21 232 14.8838 -18.9945 12.0921
3996 21 244 13.1054 -13.8125 -6.17462
3970 21 226 11.1804 0.45527 -1.40294
4026 21 266 15.7116 2.30738 -8.68248
3974 21 230 12.3228 -1.86109 6.84171
3867 21 151 12.8983 -2.27407 16.8139
3991 21 241 10.1311 4.37856 -6.97393
3957 21 213 14.8203 5.57326 15.4053
ITEM: TIMESTEP
1080000
ITEM: NUMBER OF ATOMS
50
ITEM: BOX BOUNDS pp pp pp
-1.9053543963679658e+01 1.7234524184754221e+01
-2.4392429896224861e+01 1.4165021654137455e+01
-9.2267954485311066e+00 2.0599454271480642e+01
ITEM: ATOMS id type mol x y z
4025 21 265 -13.2217 -21.9085 12.2032
4004 21 250 -16.7755 -20.8651 6.95668
3995 21 243 -13.9241 3.62862 -2.1718
3958 21 214 -12.7407 6.64945 20.5884
3990 21 240 -12.3759 5.8988 14.5494
3793 21 103 -11.8725 12.0327 6.40748
3897 21 173 -16.385 12.2514 15.9765
3720 21 62 -9.49492 -19.579 -4.51009
3967 21 223 -10.5531 -22.941 10.2748
3960 21 216 -9.47357 -23.9865 19.3565
4020 21 260 -9.78226 -22.7226 16.2939
3800 21 108 -7.69613 -15.0774 1.66672
3766 21 88 -7.88629 -17.8169 -1.90933
4006 21 252 -9.1857 -11.3058 2.13932
3942 21 204 -10.5696 -9.85339 5.49961
4023 21 263 -4.70536 -7.64004 -0.740667
3938 21 200 -11.1522 -3.2838 -4.90215
4001 21 247 -7.74522 -4.85095 -8.22218
3896 21 172 -8.50281 -0.205512 19.2964
3965 21 221 -10.5946 5.65461 1.37589
3968 21 224 -11.3155 11.7136 3.25253
4015 21 257 -9.1327 9.79657 14.9939
3940 21 202 -9.30742 12.8705 12.9586
3988 21 238 -1.37216 -15.9402 -1.24826
3943 21 205 2.17352 -8.11791 20.0287
3821 21 123 -2.05838 -9.12981 17.5869
3810 21 116 2.19099 -4.72558 11.1341
4027 21 267 -1.05648 -7.81964 20.518
3889 21 167 1.60844 2.72758 4.98691
3802 21 110 1.0622 2.79206 8.2214
3939 21 201 0.815797 -1.85957 19.4383
4028 21 268 0.589615 7.49807 17.937
3928 21 194 -0.0298929 10.2711 10.6908
4029 21 269 0.360851 9.30501 7.00054
4021 21 261 8.64783 -23.2532 7.62888
3912 21 184 7.94451 -13.429 17.9312
3834 21 130 5.36894 -9.17914 2.62756
3868 21 152 8.77422 -2.43231 -0.102008
4022 21 262 7.60201 0.864357 -0.0703732
3825 21 125 8.81093 -2.33722 13.3703
4019 21 259 5.02672 10.0562 20.2491
3997 21 245 16.9 -21.583 9.77672
3978 21 232 14.849 -18.9675 12.0962
3996 21 244 13.0745 -13.7956 -6.18225
3970 21 226 11.1537 0.444428 -1.4075
4026 21 266 15.675 2.29294 -8.69172
3974 21 230 12.2936 -1.86742 6.84245
3867 21 151 12.8679 -2.2796 16.821
3991 21 241 10.1068 4.36008 -6.98208
3957 21 213 14.7856 5.55246 15.4115
ITEM: TIMESTEP
1085000
ITEM: NUMBER OF ATOMS
50
ITEM: BOX BOUNDS pp pp pp
-1.8981121808466508e+01 1.7162102029541071e+01
-2.4541669390617713e+01 1.4314261148530306e+01
-9.3080453722971228e+00 2.0680704195208207e+01
ITEM: ATOMS id type mol x y z
4025 21 265 -13.1725 -22.0385 12.2387
4004 21 250 -16.7122 -20.987 6.9636
4030 21 270 -15.2897 -3.19609 19.4441
3995 21 243 -13.8722 3.6963 -2.21461
3958 21 214 -12.6935 6.74051 20.6696
3990 21 240 -12.3301 5.98405 14.5977
3793 21 103 -11.8287 12.1654 6.41141
3897 21 173 -16.3232 12.3858 16.0326
3720 21 62 -9.46065 -19.691 -4.56564
3967 21 223 -10.5146 -23.079 10.2998
3960 21 216 -9.43939 -24.1326 19.4309
3800 21 108 -7.66904 -15.1546 1.64482
3766 21 88 -7.85844 -17.9152 -1.95072
4006 21 252 -9.15267 -11.3538 2.12
3942 21 204 -10.5311 -9.89008 5.49859
4023 21 263 -4.69021 -7.65959 -0.775683
3938 21 200 -11.1113 -3.26964 -4.95984
4001 21 247 -7.71793 -4.84891 -8.29796
3896 21 172 -8.4725 -0.167517 19.3706
3965 21 221 -10.556 5.73797 1.35241
3968 21 224 -11.2739 11.8438 3.23927
4015 21 257 -9.09988 9.91199 15.0446
3940 21 202 -9.2739 13.0098 12.9982
3988 21 238 -1.37032 -16.024 -1.28604
3943 21 205 2.16122 -8.14117 20.1068
3821 21 123 -2.05379 -9.1609 17.6517
3810 21 116 2.17861 -4.72257 11.1638
4027 21 267 -1.05589 -7.84058 20.5988
3889 21 167 1.59839 2.78828 4.9831
3802 21 110 1.05433 2.85326 8.23521
3939 21 201 0.80891 -1.83438 19.5132
4028 21 268 0.583631 7.5957 18.0038
3928 21 194 -0.0334039 10.3902 10.7181
4029 21 269 0.35578 9.41662 7.0077
4021 21 261 8.60968 -23.3937 7.63946
3912 21 184 7.90917 -13.4934 17.998
3834 21 130 5.34388 -9.21061 2.6109
3868 21 152 8.73557 -2.41155 -0.133544
4022 21 262 7.56804 0.910634 -0.101737
3825 21 125 8.77213 -2.31572 13.4121
4019 21 259 5.00302 10.1736 20.3285
3997 21 245 16.8289 -21.7104 9.799
3978 21 232 14.7861 -19.0747 12.1312
3996 21 244 13.0187 -13.8628 -6.24691
3970 21 226 11.1056 0.487455 -1.44614
4026 21 266 15.6088 2.35027 -8.77005
3974 21 230 12.2409 -1.84229 6.84875
3867 21 151 12.8129 -2.25766 16.8817
3991 21 241 10.0628 4.43342 -7.0511
3957 21 213 14.723 5.63503 15.4645
ITEM: TIMESTEP
1090000
ITEM: NUMBER OF ATOMS
51
ITEM: BOX BOUNDS pp pp pp
-1.9233055034747292e+01 1.7414035255821855e+01
-2.4299382444187120e+01 1.4071974202099714e+01
-9.2296004872814770e+00 2.0602259310194764e+01
ITEM: ATOMS id type mol x y z
4025 21 265 -13.3435 -21.8275 12.2045
4004 21 250 -16.9325 -20.7891 6.95692
4031 21 271 -14.2607 -9.1091 5.10516
4030 21 270 -15.4902 -3.22 19.3721
3995 21 243 -14.0529 3.58643 -2.17328
3958 21 214 -12.8578 6.59268 20.5912
3990 21 240 -12.4893 5.84565 14.551
3793 21 103 -11.9809 11.9499 6.40761
3897 21 173 -16.5381 12.1675 15.9785
3720 21 62 -9.57986 -19.5092 -4.51201
3967 21 223 -10.6485 -22.855 10.2757
3960 21 216 -9.5583 -23.8954 19.359
3800 21 108 -7.76328 -15.0293 1.66597
3766 21 88 -7.95531 -17.7556 -1.91076
4006 21 252 -9.26759 -11.2759 2.13866
3942 21 204 -10.6652 -9.83052 5.49958
4023 21 263 -4.74291 -7.62784 -0.741876
3938 21 200 -11.2535 -3.29263 -4.90414
4001 21 247 -7.81285 -4.85222 -8.2248
3896 21 172 -8.57793 -0.229201 19.299
3965 21 221 -10.6905 5.60264 1.37508
3968 21 224 -11.4184 11.6323 3.25207
4015 21 257 -9.21406 9.7246 14.9957
3940 21 202 -9.39051 12.7837 12.96
3988 21 238 -1.37674 -15.888 -1.24957
3943 21 205 2.20403 -8.10341 20.0314
3821 21 123 -2.06974 -9.11043 17.5891
3810 21 116 2.22166 -4.72745 11.1352
4027 21 267 -1.05793 -7.80658 20.5208
3889 21 167 1.63336 2.68973 4.98678
3802 21 110 1.0817 2.75391 8.22188
3939 21 201 0.832866 -1.87528 19.4409
4028 21 268 0.604447 7.4372 17.9393
3928 21 194 -0.0211902 10.1969 10.6918
4029 21 269 0.373419 9.23542 7.00079
3912 21 184 8.03211 -13.3889 17.9335
3834 21 130 5.43106 -9.15952 2.62699
3868 21 152 8.87003 -2.44525 -0.103097
4022 21 262 7.68622 0.835505 -0.071456
3825 21 125 8.9071 -2.35062 13.3717
4032 21 272 3.1472 13.3014 5.14991
4019 21 259 5.08545 9.98299 20.2519
3997 21 245 17.0762 -21.5035 9.77749
3978 21 232 15.0049 -18.9006 12.0974
3996 21 244 13.2129 -13.7537 -6.18448
3970 21 226 11.2731 0.417603 -1.40883
4026 21 266 15.8391 2.25719 -8.69442
3974 21 230 12.4242 -1.88309 6.84267
3867 21 151 13.0042 -2.29328 16.8231
3991 21 241 10.2158 4.31436 -6.98446
3957 21 213 14.9409 5.50098 15.4134
ITEM: TIMESTEP
1095000
ITEM: NUMBER OF ATOMS
49
ITEM: BOX BOUNDS pp pp pp
-1.9113140149977479e+01 1.7294120371052042e+01
-2.4446304113909946e+01 1.4218895871822539e+01
-9.2163350441690746e+00 2.0588993867067909e+01
ITEM: ATOMS id type mol x y z
4025 21 265 -13.2621 -21.9555 12.1987
4031 21 271 -14.1734 -9.1397 5.10568
3995 21 243 -13.9668 3.65305 -2.16629
3958 21 214 -12.7796 6.68232 20.578
3990 21 240 -12.4136 5.92958 14.5432
3793 21 103 -11.9085 12.0806 6.40697
3897 21 173 -16.4358 12.2999 15.9693
3720 21 62 -9.52312 -19.6194 -4.50294
3967 21 223 -10.5847 -22.9909 10.2716
3960 21 216 -9.5017 -24.0392 19.3469
3800 21 108 -7.71842 -15.1053 1.66954
3766 21 88 -7.9092 -17.8524 -1.90401
4006 21 252 -9.21289 -11.3231 2.14181
3942 21 204 -10.6013 -9.86664 5.49974
4023 21 263 -4.71782 -7.6471 -0.736159
3938 21 200 -11.1858 -3.27869 -4.89472
4001 21 247 -7.76767 -4.85021 -8.21243
3896 21 172 -8.52775 -0.191796 19.2869
3965 21 221 -10.6265 5.6847 1.37891
3968 21 224 -11.3496 11.7606 3.25424
4015 21 257 -9.15971 9.83823 14.9874
3940 21 202 -9.335 12.9208 12.9535
3988 21 238 -1.37368 -15.9705 -1.2434
3943 21 205 2.18365 -8.12631 20.0186
3821 21 123 -2.06215 -9.14103 17.5785
3810 21 116 2.20117 -4.72449 11.1303
4027 21 267 -1.05696 -7.8272 20.5076
3889 21 167 1.61672 2.74949 4.9874
3802 21 110 1.06867 2.81416 8.21962
3939 21 201 0.821464 -1.85048 19.4286
4028 21 268 0.594539 7.53332 17.9284
3928 21 194 -0.0270037 10.3141 10.6873
4029 21 269 0.365024 9.3453 6.99962
3912 21 184 7.97359 -13.4522 17.9227
3834 21 130 5.38956 -9.1905 2.62971
3868 21 152 8.80603 -2.42482 -0.0979481
4022 21 262 7.62997 0.881063 -0.0663353
3825 21 125 8.84286 -2.32946 13.3649
4032 21 272 3.12065 13.4424 5.15039
4019 21 259 5.04622 10.0986 20.2389
3997 21 245 16.9585 -21.629 9.77385
3978 21 232 14.9008 -19.0062 12.0917
3996 21 244 13.1205 -13.8199 -6.17392
3970 21 226 11.1933 0.459961 -1.40252
4026 21 266 15.7295 2.31364 -8.68163
3974 21 230 12.337 -1.85835 6.84164
3867 21 151 12.9131 -2.27168 16.8132
3991 21 241 10.143 4.38655 -6.97319
3957 21 213 14.8372 5.58226 15.4047
ITEM: TIMESTEP
1100000
ITEM: NUMBER OF ATOMS
49
ITEM: BOX BOUNDS pp pp pp
-1.9020431521382367e+01 1.7201411742456930e+01
-2.4370127088985097e+01 1.4142718846897690e+01
-9.2879590285356421e+00 2.0660617851398232e+01
ITEM: ATOMS id type mol x y z
4025 21 265 -13.1992 -21.8891 12.23
4031 21 271 -14.1058 -9.12383 5.10289
3995 21 243 -13.9004 3.61851 -2.20403
3958 21 214 -12.7192 6.63584 20.6496
3990 21 240 -12.355 5.88606 14.5857
3793 21 103 -11.8525 12.0128 6.41044
3897 21 173 -16.3568 12.2313 16.0187
3720 21 62 -9.47925 -19.5622 -4.55191
3967 21 223 -10.5355 -22.9204 10.2937
3960 21 216 -9.45795 -23.9646 19.4125
3800 21 108 -7.68375 -15.0659 1.65024
3766 21 88 -7.87356 -17.8022 -1.94049
4006 21 252 -9.1706 -11.2987 2.12478
3942 21 204 -10.552 -9.84791 5.49885
4023 21 263 -4.69843 -7.63711 -0.767026
3938 21 200 -11.1335 -3.28592 -4.94557
4001 21 247 -7.73274 -4.85125 -8.27923
3896 21 172 -8.48895 -0.21119 19.3523
3965 21 221 -10.577 5.64216 1.35821
3968 21 224 -11.2965 11.6941 3.24255
4015 21 257 -9.1177 9.77932 15.0321
3940 21 202 -9.29209 12.8497 12.9884
3988 21 238 -1.37132 -15.9277 -1.2767
3943 21 205 2.1679 -8.11444 20.0875
3821 21 123 -2.05628 -9.12517 17.6357
3810 21 116 2.18533 -4.72603 11.1565
4027 21 267 -1.05621 -7.81651 20.5788
3889 21 167 1.60385 2.71851 4.98404
3802 21 110 1.0586 2.78292 8.2318
3939 21 201 0.812648 -1.86333 19.4947
4028 21 268 0.586879 7.48348 17.9873
3928 21 194 -0.0314982 10.2533 10.7114
4029 21 269 0.358533 9.28833 7.00593
3912 21 184 7.92835 -13.4194 17.9815
3834 21 130 5.35748 -9.17444 2.61502
3868 21 152 8.75655 -2.43541 -0.125748
4022 21 262 7.58648 0.857441 -0.0939833
3825 21 125 8.79319 -2.34043 13.4018
4032 21 272 3.10013 13.3693 5.14781
4019 21 259 5.01588 10.0387 20.3089
3997 21 245 16.8675 -21.5639 9.79349
3978 21 232 14.8203 -18.9514 12.1225
3996 21 244 13.049 -13.7856 -6.23092
3970 21 226 11.1317 0.437998 -1.43659
4026 21 266 15.6447 2.28437 -8.75069
3974 21 230 12.2695 -1.87118 6.84719
3867 21 151 12.8428 -2.28288 16.8667
3991 21 241 10.0867 4.34912 -7.03403
3957 21 213 14.757 5.54012 15.4514
ITEM: TIMESTEP
1105000
ITEM: NUMBER OF ATOMS
47
ITEM: BOX BOUNDS pp pp pp
-1.9022498841530979e+01 1.7203479062605542e+01
-2.4394847812894138e+01 1.4167439570806732e+01
-9.2451803514689708e+00 2.0617839174325148e+01
ITEM: ATOMS id type mol x y z
4025 21 265 -13.2006 -21.9106 12.2113
4031 21 271 -14.1073 -9.12898 5.10455
3995 21 243 -13.9018 3.62972 -2.18149
3958 21 214 -12.7205 6.65092 20.6068
3990 21 240 -12.3563 5.90019 14.5603
3793 21 103 -11.8537 12.0348 6.40837
3897 21 173 -16.3585 12.2535 15.9892
3720 21 62 -9.48023 -19.5808 -4.52266
3967 21 223 -10.5366 -22.9433 10.2805
3960 21 216 -9.45892 -23.9888 19.3733
3800 21 108 -7.68452 -15.0787 1.66177
3766 21 88 -7.87435 -17.8185 -1.9187
4006 21 252 -9.17154 -11.3066 2.13495
3942 21 204 -10.5531 -9.85399 5.49938
4023 21 263 -4.69886 -7.64035 -0.74859
3938 21 200 -11.1347 -3.28357 -4.9152
4001 21 247 -7.73352 -4.85092 -8.23933
3965 21 221 -10.5781 5.65596 1.37058
3968 21 224 -11.2976 11.7157 3.24953
4015 21 257 -9.11863 9.79844 15.0054
3940 21 202 -9.29305 12.8728 12.9676
3988 21 238 -1.37137 -15.9416 -1.25681
3943 21 205 2.16825 -8.11829 20.0464
3821 21 123 -2.05641 -9.13031 17.6015
3810 21 116 2.18568 -4.72553 11.1409
3889 21 167 1.60414 2.72856 4.98605
3802 21 110 1.05882 2.79306 8.22452
3939 21 201 0.812845 -1.85916 19.4552
4028 21 268 0.58705 7.49966 17.9521
3928 21 194 -0.0313979 10.273 10.697
4029 21 269 0.358677 9.30682 7.00216
4033 21 273 6.39417 -23.0958 -4.21263
3912 21 184 7.92936 -13.43 17.9463
3834 21 130 5.3582 -9.17965 2.62379
3868 21 152 8.75765 -2.43197 -0.109144
4022 21 262 7.58745 0.865107 -0.0774701
3825 21 125 8.7943 -2.33687 13.3797
4032 21 272 3.10059 13.393 5.14935
4019 21 259 5.01656 10.0581 20.2671
3997 21 245 16.8695 -21.585 9.78176
3978 21 232 14.8221 -18.9692 12.1041
3996 21 244 13.0506 -13.7967 -6.19688
4026 21 266 15.6466 2.29387 -8.70944
3974 21 230 12.271 -1.86701 6.84388
3867 21 151 12.8443 -2.27924 16.8348
3991 21 241 10.0879 4.36127 -6.99769
3957 21 213 14.7588 5.55379 15.4235
ITEM: TIMESTEP
1110000
ITEM: NUMBER OF ATOMS
49
ITEM: BOX BOUNDS pp pp pp
-1.8954934063335447e+01 1.7135914284410010e+01
-2.4297593635649669e+01 1.4070185393562262e+01
-9.2535127792720324e+00 2.0626171602108290e+01
ITEM: ATOMS id type mol x y z
4025 21 265 -13.1547 -21.8259 12.2149
4038 21 276 -12.5791 -19.1388 15.2761
4031 21 271 -14.0581 -9.10873 5.10423
3995 21 243 -13.8534 3.58562 -2.18588
3958 21 214 -12.6764 6.59158 20.6151
3990 21 240 -12.3136 5.84463 14.5653
3793 21 103 -11.8129 11.9483 6.40877
3897 21 173 -16.3009 12.1659 15.995
3720 21 62 -9.44826 -19.5078 -4.52835
3967 21 223 -10.5007 -22.8533 10.2831
3960 21 216 -9.42703 -23.8936 19.381
3800 21 108 -7.65925 -15.0284 1.65952
3766 21 88 -7.84837 -17.7544 -1.92294
4006 21 252 -9.14072 -11.2754 2.13297
3942 21 204 -10.5171 -9.83008 5.49928
4023 21 263 -4.68473 -7.62761 -0.752181
3938 21 200 -11.0965 -3.2928 -4.92112
4001 21 247 -7.70807 -4.85224 -8.2471
3965 21 221 -10.542 5.60164 1.36817
3968 21 224 -11.2589 11.6308 3.24817
4015 21 257 -9.08801 9.72322 15.0106
3940 21 202 -9.26178 12.7821 12.9716
3988 21 238 -1.36965 -15.887 -1.26069
3943 21 205 2.15677 -8.10313 20.0544
3821 21 123 -2.05213 -9.11006 17.6082
4037 21 275 2.30299 -4.46418 -8.50847
3810 21 116 2.17414 -4.72749 11.1439
3889 21 167 1.59476 2.68901 4.98566
3802 21 110 1.05148 2.75317 8.22594
3939 21 201 0.80642 -1.87558 19.4629
4028 21 268 0.581467 7.43603 17.959
3928 21 194 -0.0346735 10.1954 10.6998
4029 21 269 0.353947 9.23408 7.0029
4033 21 273 6.36693 -23.0051 -4.21815
3912 21 184 7.89639 -13.3881 17.9532
3834 21 130 5.33482 -9.15914 2.62208
3868 21 152 8.72159 -2.4455 -0.112378
4022 21 262 7.55576 0.83495 -0.0806865
3825 21 125 8.7581 -2.35087 13.384
4032 21 272 3.08563 13.2997 5.14905
4019 21 259 4.99446 9.98158 20.2752
3997 21 245 16.8032 -21.5019 9.78404
3978 21 232 14.7634 -18.8993 12.1077
3996 21 244 12.9985 -13.7529 -6.20351
4026 21 266 15.5849 2.2565 -8.71748
3974 21 230 12.2218 -1.88339 6.84452
3867 21 151 12.793 -2.29354 16.841
3991 21 241 10.0469 4.31348 -7.00477
3957 21 213 14.7003 5.49999 15.429
ITEM: TIMESTEP
1115000
ITEM: NUMBER OF ATOMS
49
ITEM: BOX BOUNDS pp pp pp
-1.9050783634497606e+01 1.7231763855572169e+01
-2.4379708029723059e+01 1.4152299787635652e+01
-9.3308557413113498e+00 2.0703514564109703e+01
ITEM: ATOMS id type mol x y z
4025 21 265 -13.2198 -21.8974 12.2487
4038 21 276 -12.6411 -19.1988 15.3257
4031 21 271 -14.1279 -9.12583 5.10122
3995 21 243 -13.9221 3.62285 -2.22663
3958 21 214 -12.7389 6.64169 20.6924
3990 21 240 -12.3742 5.89154 14.6112
3793 21 103 -11.8708 12.0214 6.41251
3897 21 173 -16.3826 12.2399 16.0483
3720 21 62 -9.49361 -19.5694 -4.58124
3967 21 223 -10.5516 -22.9293 10.3069
3960 21 216 -9.47227 -23.974 19.4519
3800 21 108 -7.6951 -15.0708 1.63867
3766 21 88 -7.88523 -17.8085 -1.96234
4006 21 252 -9.18444 -11.3017 2.11457
3942 21 204 -10.5681 -9.85026 5.49831
4023 21 263 -4.70478 -7.63837 -0.785513
3938 21 200 -11.1506 -3.28501 -4.97603
4001 21 247 -7.74418 -4.85112 -8.31923
3965 21 221 -10.5932 5.64751 1.34581
3968 21 224 -11.3139 11.7025 3.23555
4015 21 257 -9.13145 9.78673 15.0588
3940 21 202 -9.30614 12.8587 13.0093
3988 21 238 -1.37209 -15.9331 -1.29665
3943 21 205 2.17305 -8.11593 20.1288
3821 21 123 -2.0582 -9.12716 17.6699
4037 21 275 2.32006 -4.4614 -8.58196
3810 21 116 2.19051 -4.72583 11.1722
3889 21 167 1.60806 2.72241 4.98203
3802 21 110 1.0619 2.78685 8.23909
3939 21 201 0.815534 -1.86172 19.5342
4028 21 268 0.589387 7.48975 18.0225
3928 21 194 -0.0300267 10.261 10.7258
4029 21 269 0.360658 9.29549 7.00971
4033 21 273 6.40558 -23.0817 -4.26943
3912 21 184 7.94316 -13.4235 18.0167
3834 21 130 5.36798 -9.17646 2.60622
3868 21 152 8.77275 -2.43408 -0.142398
4022 21 262 7.60072 0.860412 -0.110542
3825 21 125 8.80945 -2.33905 13.4239
4032 21 272 3.10685 13.3785 5.14627
4019 21 259 5.02581 10.0462 20.3507
3997 21 245 16.8973 -21.5721 9.80526
3978 21 232 14.8466 -18.9583 12.141
3996 21 244 13.0724 -13.7899 -6.26506
4026 21 266 15.6725 2.28805 -8.79205
3974 21 230 12.2916 -1.86956 6.85052
3867 21 151 12.8658 -2.28147 16.8987
3991 21 241 10.1051 4.35383 -7.07047
3957 21 213 14.7832 5.54542 15.4794
ITEM: TIMESTEP
1120000
ITEM: NUMBER OF ATOMS
50
ITEM: BOX BOUNDS pp pp pp
-1.9130795207659268e+01 1.7311775428733831e+01
-2.4455532052202866e+01 1.4228123810115459e+01
-9.3395882035669722e+00 2.0712247026345299e+01
ITEM: ATOMS id type mol x y z
4025 21 265 -13.2741 -21.9635 12.2525
4038 21 276 -12.6928 -19.2542 15.3313
4031 21 271 -14.1862 -9.14162 5.10088
3995 21 243 -13.9795 3.65724 -2.23123
3958 21 214 -12.7911 6.68795 20.7011
3990 21 240 -12.4247 5.93485 14.6164
3793 21 103 -11.9192 12.0888 6.41293
3897 21 173 -16.4509 12.3082 16.0543
3720 21 62 -9.53147 -19.6263 -4.58721
3967 21 223 -10.5941 -22.9994 10.3095
3960 21 216 -9.51004 -24.0482 19.4599
3800 21 108 -7.72503 -15.11 1.63632
3766 21 88 -7.91599 -17.8585 -1.96678
4006 21 252 -9.22094 -11.3261 2.1125
3942 21 204 -10.6107 -9.86891 5.4982
4023 21 263 -4.72152 -7.64831 -0.789277
3938 21 200 -11.1958 -3.27781 -4.98223
4001 21 247 -7.77432 -4.85009 -8.32738
3965 21 221 -10.6359 5.68986 1.34329
3968 21 224 -11.3598 11.7686 3.23412
4015 21 257 -9.16772 9.84537 15.0643
3940 21 202 -9.34317 12.9294 13.0136
3988 21 238 -1.37413 -15.9757 -1.30071
3943 21 205 2.18665 -8.12775 20.1372
3821 21 123 -2.06327 -9.14296 17.6769
4037 21 275 2.3343 -4.45883 -8.59025
3810 21 116 2.20419 -4.72431 11.1753
3889 21 167 1.61917 2.75325 4.98162
3802 21 110 1.07059 2.81794 8.24057
3939 21 201 0.823143 -1.84892 19.5423
4028 21 268 0.595998 7.53935 18.0297
3928 21 194 -0.0261478 10.3215 10.7287
4029 21 269 0.36626 9.3522 7.01048
4033 21 273 6.43784 -23.1524 -4.27522
3912 21 184 7.98221 -13.4562 18.0239
3834 21 130 5.39567 -9.19245 2.60443
3868 21 152 8.81545 -2.42353 -0.145787
4022 21 262 7.63825 0.883924 -0.113913
3825 21 125 8.85232 -2.32813 13.4284
4032 21 272 3.12456 13.4513 5.14595
4019 21 259 5.05199 10.1059 20.3593
4039 21 277 16.9391 -20.4616 -1.84028
3997 21 245 16.9758 -21.6369 9.80765
3978 21 232 14.9161 -19.0128 12.1447
3996 21 244 13.1341 -13.824 -6.27201
4026 21 266 15.7456 2.31718 -8.80046
3974 21 230 12.3498 -1.85679 6.8512
3867 21 151 12.9266 -2.27032 16.9052
3991 21 241 10.1537 4.39109 -7.07789
3957 21 213 14.8524 5.58737 15.4851
ITEM: TIMESTEP
1125000
ITEM: NUMBER OF ATOMS
49
ITEM: BOX BOUNDS pp pp pp
-1.9001774884255955e+01 1.7182755105330518e+01
-2.4319321202337562e+01 1.4091912960250156e+01
-9.4375194445266466e+00 2.0810178267261282e+01
ITEM: ATOMS id type mol x y z
4025 21 265 -13.1865 -21.8448 12.2953
4038 21 276 -12.6094 -19.1547 15.3942
4031 21 271 -14.0922 -9.11325 5.09706
3995 21 243 -13.887 3.59547 -2.28283
3958 21 214 -12.707 6.60484 20.799
3990 21 240 -12.3432 5.85704 14.6746
3793 21 103 -11.8412 11.9677 6.41767
3897 21 173 -16.3408 12.1855 16.1219
3720 21 62 -9.47042 -19.5241 -4.65416
3960 21 216 -9.44914 -23.9149 19.5496
3800 21 108 -7.67677 -15.0396 1.60992
3766 21 88 -7.86638 -17.7687 -2.01666
4006 21 252 -9.16209 -11.2824 2.08921
3942 21 204 -10.542 -9.83542 5.49697
4023 21 263 -4.69453 -7.63046 -0.831481
3938 21 200 -11.123 -3.29074 -5.05176
4001 21 247 -7.72572 -4.85195 -8.41871
3965 21 221 -10.567 5.61378 1.31498
3968 21 224 -11.2858 11.6497 3.21814
4015 21 257 -9.10924 9.74002 15.1254
3940 21 202 -9.28346 12.8023 13.0613
3988 21 238 -1.37084 -15.8992 -1.34625
3943 21 205 2.16473 -8.10652 20.2314
3821 21 123 -2.0551 -9.11458 17.755
4037 21 275 2.31133 -4.46344 -8.6833
3810 21 116 2.18214 -4.72705 11.2111
3889 21 167 1.60126 2.69784 4.97703
3802 21 110 1.05657 2.76208 8.25722
3939 21 201 0.810874 -1.87191 19.6326
4028 21 268 0.585337 7.45025 18.1101
3928 21 194 -0.0324026 10.2128 10.7616
4029 21 269 0.357226 9.25033 7.01911
4033 21 273 6.38581 -23.0254 -4.34014
3912 21 184 7.91925 -13.3975 18.1043
3834 21 130 5.35102 -9.16372 2.58434
3868 21 152 8.74659 -2.44248 -0.183798
4022 21 262 7.57773 0.841687 -0.151716
3825 21 125 8.7832 -2.34774 13.4788
4032 21 272 3.096 13.3205 5.14243
4019 21 259 5.00978 9.99868 20.4549
4039 21 277 16.8127 -20.3535 -1.88934
3997 21 245 16.8492 -21.5205 9.83451
3978 21 232 14.8041 -18.9149 12.1868
3996 21 244 13.0346 -13.7627 -6.34995
4026 21 266 15.6277 2.26485 -8.89488
3974 21 230 12.2559 -1.87973 6.85879
3867 21 151 12.8286 -2.29034 16.9784
3991 21 241 10.0753 4.32415 -7.16108
3957 21 213 14.7408 5.51201 15.549
ITEM: TIMESTEP
1130000
ITEM: NUMBER OF ATOMS
49
ITEM: BOX BOUNDS pp pp pp
-1.9058928301235394e+01 1.7239908522309957e+01
-2.4495081549145070e+01 1.4267673307057663e+01
-9.1066399740799682e+00 2.0479298796884940e+01
ITEM: ATOMS id type mol x y z
4025 21 265 -13.2253 -21.998 12.1507
4038 21 276 -12.6464 -19.2832 15.1818
4031 21 271 -14.1339 -9.14985 5.10995
3995 21 243 -13.928 3.67517 -2.10849
3958 21 214 -12.7443 6.71208 20.4684
3990 21 240 -12.3793 5.95744 14.478
3793 21 103 -11.8757 12.124 6.40167
3897 21 173 -16.3896 12.3438 15.8936
3720 21 62 -9.49747 -19.656 -4.42793
3960 21 216 -9.47612 -24.087 19.2463
3800 21 108 -7.69815 -15.1305 1.69911
3766 21 88 -7.88836 -17.8845 -1.84814
4006 21 252 -9.18816 -11.3388 2.1679
3942 21 204 -10.5725 -9.87863 5.50112
4023 21 263 -4.70648 -7.65349 -0.688885
3938 21 200 -11.1552 -3.27406 -4.81684
4001 21 247 -7.74725 -4.84955 -8.11012
3965 21 221 -10.5975 5.71195 1.41062
3968 21 224 -11.3185 11.8032 3.27214
4015 21 257 -9.13514 9.87596 14.9189
3940 21 202 -9.30991 12.9663 12.9
3988 21 238 -1.3723 -15.9979 -1.19239
3943 21 205 2.17444 -8.13391 19.9131
3821 21 123 -2.05872 -9.1512 17.491
4037 21 275 2.32151 -4.45749 -8.36892
3810 21 116 2.19191 -4.72351 11.0903
3889 21 167 1.60919 2.76933 4.99255
3802 21 110 1.06278 2.83416 8.20097
3939 21 201 0.816309 -1.84224 19.3275
4028 21 268 0.59006 7.56523 17.8383
3928 21 194 -0.0296319 10.353 10.6505
4029 21 269 0.361228 9.38178 6.98995
4033 21 273 6.40886 -23.1893 -4.12078
3912 21 184 7.94714 -13.4733 17.8326
3834 21 130 5.3708 -9.20079 2.65221
3868 21 152 8.7771 -2.41803 -0.0553714
4022 21 262 7.60454 0.896188 -0.0239913
3825 21 125 8.81382 -2.32243 13.3084
4032 21 272 3.10865 13.4892 5.15433
4019 21 259 5.02848 10.137 20.1318
4039 21 277 16.8687 -20.493 -1.7236
3997 21 245 16.9053 -21.6706 9.74376
3978 21 232 14.8537 -19.0412 12.0446
3996 21 244 13.0787 -13.8418 -6.08662
4026 21 266 15.6799 2.33237 -8.57587
3974 21 230 12.2975 -1.85014 6.83314
3867 21 151 12.872 -2.26451 16.7313
3991 21 241 10.11 4.41052 -6.88001
3957 21 213 14.7903 5.60925 15.3332
ITEM: TIMESTEP
1135000
ITEM: NUMBER OF ATOMS
51
ITEM: BOX BOUNDS pp pp pp
-1.8925990246450880e+01 1.7106970467525443e+01
-2.4389850909305260e+01 1.4162442667217853e+01
-9.4059700733526910e+00 2.0778628896059718e+01
ITEM: ATOMS id type mol x y z
4025 21 265 -13.1351 -21.9063 12.2815
4038 21 276 -12.5604 -19.2062 15.3739
4031 21 271 -14.037 -9.12794 5.09829
3995 21 243 -13.8326 3.62745 -2.26621
3958 21 214 -12.6576 6.64788 20.7675
3990 21 240 -12.2953 5.89733 14.6559
3793 21 103 -11.7954 12.0304 6.41614
3897 21 173 -16.2762 12.249 16.1002
3720 21 62 -9.43456 -19.577 -4.63259
3960 21 216 -9.41337 -23.9839 19.5207
3800 21 108 -7.64842 -15.0761 1.61843
3766 21 88 -7.83724 -17.8152 -2.00059
4006 21 252 -9.12752 -11.305 2.09671
3942 21 204 -10.5017 -9.85276 5.49737
4044 21 280 -10.9478 -13.3464 3.59
4023 21 263 -4.67867 -7.6397 -0.817885
3938 21 200 -11.0802 -3.28405 -5.02936
4001 21 247 -7.69716 -4.85098 -8.38929
3965 21 221 -10.5266 5.65317 1.3241
3968 21 224 -11.2423 11.7113 3.22329
4015 21 257 -9.07489 9.79457 15.1057
3940 21 202 -9.24838 12.8681 13.046
3988 21 238 -1.36891 -15.9388 -1.33158
4043 21 279 0.45811 -8.79841 -5.17828
3943 21 205 2.15185 -8.11751 20.201
3821 21 123 -2.0503 -9.12927 17.7299
4037 21 275 2.29784 -4.46105 -8.65332
3810 21 116 2.16919 -4.72563 11.1996
3889 21 167 1.59074 2.72653 4.97851
3802 21 110 1.04833 2.79101 8.25186
3939 21 201 0.803668 -1.86 19.6035
4028 21 268 0.579076 7.49639 18.0842
3928 21 194 -0.0360766 10.2691 10.751
4029 21 269 0.35192 9.30308 7.01633
4033 21 273 6.35525 -23.0912 -4.31922
3912 21 184 7.88227 -13.4279 18.0784
3834 21 130 5.3248 -9.17859 2.59081
3868 21 152 8.70615 -2.43267 -0.171553
4022 21 262 7.54218 0.863558 -0.139537
3825 21 125 8.7426 -2.33759 13.4626
4032 21 272 3.07922 13.3882 5.14357
4019 21 259 4.98499 10.0542 20.4241
4039 21 277 16.7384 -20.4095 -1.87353
3997 21 245 16.7748 -21.5807 9.82586
3978 21 232 14.7382 -18.9656 12.1733
3996 21 244 12.9762 -13.7944 -6.32484
4026 21 266 15.5584 2.29195 -8.86446
3974 21 230 12.2008 -1.86785 6.85634
3867 21 151 12.771 -2.27998 16.9548
3991 21 241 10.0293 4.35881 -7.13428
3957 21 213 14.6753 5.55103 15.5284
ITEM: TIMESTEP
1140000
ITEM: NUMBER OF ATOMS
52
ITEM: BOX BOUNDS pp pp pp
-1.9221891658714728e+01 1.7402871879789291e+01
-2.4441191337854036e+01 1.4213783095766630e+01
-9.2959220471938053e+00 2.0668580869912638e+01
ITEM: ATOMS id type mol x y z
4038 21 276 -12.7517 -19.2438 15.3033
4031 21 271 -14.2526 -9.13863 5.10258
3995 21 243 -14.0449 3.65073 -2.20822
3958 21 214 -12.8505 6.6792 20.6575
3990 21 240 -12.4823 5.92666 14.5905
3793 21 103 -11.9742 12.0761 6.41082
3897 21 173 -16.5286 12.2953 16.0242
3720 21 62 -9.57458 -19.6156 -4.55735
4045 21 281 -11.3638 -21.9098 10.0585
3960 21 216 -9.55304 -24.0342 19.4198
3800 21 108 -7.7591 -15.1026 1.64809
3766 21 88 -7.95102 -17.849 -1.94454
4006 21 252 -9.26249 -11.3215 2.12288
3942 21 204 -10.6592 -9.86538 5.49875
4044 21 280 -11.1127 -13.3683 3.60528
4023 21 263 -4.74058 -7.64643 -0.770458
3938 21 200 -11.2472 -3.27917 -4.95123
4001 21 247 -7.80864 -4.85028 -8.28665
3965 21 221 -10.6845 5.68185 1.35591
3968 21 224 -11.412 11.7561 3.24125
4015 21 257 -9.209 9.83428 15.037
3940 21 202 -9.38534 12.916 12.9923
3988 21 238 -1.37646 -15.9676 -1.28041
4043 21 279 0.480572 -8.80822 -5.09905
3943 21 205 2.20213 -8.12551 20.0952
3821 21 123 -2.06904 -9.13997 17.642
4037 21 275 2.35052 -4.45932 -8.54876
3810 21 116 2.21975 -4.7246 11.1594
3889 21 167 1.63181 2.74741 4.98367
3802 21 110 1.08049 2.81206 8.23315
3939 21 201 0.831805 -1.85134 19.502
4028 21 268 0.603524 7.52997 17.9938
3928 21 194 -0.0217314 10.31 10.714
4029 21 269 0.372638 9.34148 7.00663
4033 21 273 6.47457 -23.139 -4.24627
3912 21 184 8.02666 -13.45 17.988
4046 21 282 7.90479 -10.581 0.966889
3834 21 130 5.42719 -9.18942 2.61339
3868 21 152 8.86407 -2.42553 -0.128839
4022 21 262 7.68099 0.879477 -0.0970572
3825 21 125 8.90112 -2.33019 13.4059
4032 21 272 3.14473 13.4375 5.14752
4019 21 259 5.0818 10.0946 20.3166
4039 21 277 17.0283 -20.4502 -1.81841
3997 21 245 17.0653 -21.6246 9.79568
3978 21 232 14.9952 -19.0025 12.126
3996 21 244 13.2043 -13.8176 -6.23726
4026 21 266 15.8289 2.31167 -8.75836
3974 21 230 12.4161 -1.85921 6.84781
3867 21 151 12.9957 -2.27243 16.8726
3991 21 241 10.209 4.38404 -7.0408
3957 21 213 14.9312 5.57943 15.4566
ITEM: TIMESTEP
1145000
ITEM: NUMBER OF ATOMS
50
ITEM: BOX BOUNDS pp pp pp
-1.8966592564534789e+01 1.7147572785609352e+01
-2.4492475098598948e+01 1.4265066856511542e+01
-9.2016491473379531e+00 2.0574307970064439e+01
ITEM: ATOMS id type mol x y z
4038 21 276 -12.5866 -19.2812 15.2428
4031 21 271 -14.0666 -9.14931 5.10625
3995 21 243 -13.8617 3.67399 -2.15855
3958 21 214 -12.684 6.71049 20.5633
3990 21 240 -12.3209 5.95595 14.5344
3793 21 103 -11.8199 12.1217 6.40626
3897 21 173 -16.3108 12.3415 15.9592
3720 21 62 -9.45378 -19.654 -4.49289
4045 21 281 -11.218 -21.9543 10.031
3960 21 216 -9.43253 -24.0844 19.3334
3800 21 108 -7.66361 -15.1291 1.6735
4006 21 252 -9.14604 -11.338 2.14531
3942 21 204 -10.5233 -9.87799 5.49993
4044 21 280 -10.9705 -13.3902 3.61838
4023 21 263 -4.68717 -7.65315 -0.72983
3938 21 200 -11.1031 -3.27431 -4.88429
4001 21 247 -7.71246 -4.84959 -8.19873
3965 21 221 -10.5482 5.71049 1.38316
3968 21 224 -11.2656 11.8009 3.25663
4015 21 257 -9.0933 9.87394 14.9782
3940 21 202 -9.26717 12.9639 12.9463
3988 21 238 -1.36995 -15.9964 -1.23657
4043 21 279 0.461192 -8.81803 -5.03119
3943 21 205 2.15875 -8.1335 20.0045
3821 21 123 -2.05287 -9.15065 17.5668
4037 21 275 2.30507 -4.45758 -8.45919
3810 21 116 2.17613 -4.72356 11.125
3889 21 167 1.59638 2.76827 4.98809
3802 21 110 1.05275 2.83309 8.21712
3939 21 201 0.807529 -1.84268 19.4151
4028 21 268 0.582431 7.56352 17.9164
3928 21 194 -0.0341083 10.351 10.6824
4029 21 269 0.354763 9.37983 6.99833
4033 21 273 6.37163 -23.1869 -4.18377
3912 21 184 7.90208 -13.4721 17.9106
4046 21 282 7.78191 -10.5955 0.996585
3834 21 130 5.33885 -9.20024 2.63272
3868 21 152 8.72782 -2.4184 -0.092248
4022 21 262 7.56122 0.89538 -0.0606663
3825 21 125 8.76435 -2.32281 13.3573
4032 21 272 3.08821 13.4867 5.15091
4019 21 259 4.99827 10.1349 20.2246
3997 21 245 16.8147 -21.6684 9.76982
3978 21 232 14.7735 -19.0394 12.0854
3996 21 244 13.0075 -13.8407 -6.16223
4026 21 266 15.5955 2.33137 -8.66747
3974 21 230 12.2303 -1.85057 6.8405
3867 21 151 12.8019 -2.26489 16.8022
3991 21 241 10.054 4.40924 -6.96071
3957 21 213 14.7104 5.60781 15.3952
ITEM: TIMESTEP
1150000
ITEM: NUMBER OF ATOMS
49
ITEM: BOX BOUNDS pp pp pp
-1.9041969953354176e+01 1.7222950174428739e+01
-2.4405353116975466e+01 1.4177944874888059e+01
-9.2878764679317420e+00 2.0660535290616892e+01
ITEM: ATOMS id type mol x y z
4038 21 276 -12.6354 -19.2176 15.2981
4031 21 271 -14.1215 -9.13117 5.10289
3995 21 243 -13.9158 3.63448 -2.20398
3958 21 214 -12.7332 6.65733 20.6495
3990 21 240 -12.3686 5.90619 14.5857
3793 21 103 -11.8655 12.0442 6.41043
3897 21 173 -16.3751 12.263 16.0187
3720 21 62 -9.48944 -19.5887 -4.55185
4045 21 281 -11.2611 -21.8786 10.0562
3960 21 216 -9.46811 -23.9991 19.4125
3800 21 108 -7.6918 -15.0841 1.65026
4006 21 252 -9.18042 -11.31 2.1248
3942 21 204 -10.5634 -9.85657 5.49885
4044 21 280 -11.0124 -13.353 3.6064
4023 21 263 -4.70294 -7.64173 -0.766991
3938 21 200 -11.1457 -3.28258 -4.94552
4001 21 247 -7.74086 -4.85077 -8.27915
3965 21 221 -10.5885 5.66183 1.35824
3968 21 224 -11.3088 11.7248 3.24256
4015 21 257 -9.12746 9.80656 15.032
3940 21 202 -9.30206 12.8826 12.9884
3988 21 238 -1.37187 -15.9475 -1.27667
4043 21 279 0.466914 -8.80137 -5.09326
3943 21 205 2.17156 -8.11993 20.0874
3821 21 123 -2.05765 -9.1325 17.6356
3810 21 116 2.18901 -4.72532 11.1565
3889 21 167 1.60684 2.73284 4.98405
3802 21 110 1.06094 2.79736 8.23178
3939 21 201 0.814696 -1.85739 19.4946
4028 21 268 0.588659 7.50653 17.9872
3928 21 194 -0.030454 10.2814 10.7113
4029 21 269 0.360041 9.31467 7.00592
4033 21 273 6.40202 -23.1056 -4.24093
3912 21 184 7.93886 -13.4346 17.9814
4046 21 282 7.81819 -10.5709 0.969423
3834 21 130 5.36493 -9.18186 2.61504
3868 21 152 8.76805 -2.43051 -0.125716
4022 21 262 7.59659 0.868365 -0.0939515
3825 21 125 8.80473 -2.33535 13.4017
4032 21 272 3.1049 13.4031 5.14781
4019 21 259 5.02293 10.0664 20.3088
3997 21 245 16.8887 -21.594 9.79347
3978 21 232 14.839 -18.9768 12.1225
3996 21 244 13.0656 -13.8014 -6.23086
4026 21 266 15.6644 2.2979 -8.75061
3974 21 230 12.2852 -1.86524 6.84719
3867 21 151 12.8591 -2.2777 16.8666
3991 21 241 10.0997 4.36643 -7.03396
3957 21 213 14.7756 5.55961 15.4514
ITEM: TIMESTEP
1155000
ITEM: NUMBER OF ATOMS
49
ITEM: BOX BOUNDS pp pp pp
-1.8928119222452821e+01 1.7109099443527384e+01
-2.4446428106856995e+01 1.4219019864769589e+01
-9.2984792613924050e+00 2.0671138084056881e+01
ITEM: ATOMS id type mol x y z
4038 21 276 -12.5618 -19.2476 15.3049
4031 21 271 -14.0385 -9.13972 5.10248
3995 21 243 -13.8341 3.65311 -2.20957
3958 21 214 -12.659 6.6824 20.6601
3990 21 240 -12.2966 5.92965 14.592
3793 21 103 -11.7967 12.0807 6.41095
3897 21 173 -16.278 12.3 16.026
3720 21 62 -9.43557 -19.6195 -4.5591
4045 21 281 -11.1961 -21.9143 10.0593
3960 21 216 -9.41437 -24.0393 19.4222
3800 21 108 -7.64922 -15.1053 1.6474
4006 21 252 -9.12849 -11.3232 2.12228
3942 21 204 -10.5028 -9.86667 5.49871
4044 21 280 -10.949 -13.3706 3.60493
4023 21 263 -4.67912 -7.64711 -0.77156
3938 21 200 -11.0814 -3.27868 -4.95304
4001 21 247 -7.69797 -4.85021 -8.28904
3965 21 221 -10.5277 5.68477 1.35517
3968 21 224 -11.2435 11.7607 3.24083
4015 21 257 -9.07586 9.83833 15.0386
3940 21 202 -9.24937 12.9209 12.9935
3988 21 238 -1.36897 -15.9706 -1.2816
4043 21 279 0.458271 -8.80923 -5.10089
3943 21 205 2.15221 -8.12633 20.0976
3821 21 123 -2.05044 -9.14106 17.6441
3810 21 116 2.16955 -4.72449 11.1603
3889 21 167 1.59104 2.74954 4.98355
3802 21 110 1.04857 2.81421 8.23358
3939 21 201 0.80387 -1.85045 19.5044
4028 21 268 0.579252 7.5334 17.9959
3928 21 194 -0.0359734 10.3142 10.7149
4029 21 269 0.352069 9.34539 7.00686
4033 21 273 6.35611 -23.1439 -4.24796
3912 21 184 7.88331 -13.4523 17.9901
4046 21 282 7.76339 -10.5825 0.966084
3834 21 130 5.32554 -9.19053 2.61286
3868 21 152 8.70728 -2.4248 -0.129831
4022 21 262 7.54318 0.881101 -0.0980443
3825 21 125 8.74374 -2.32944 13.4072
4032 21 272 3.07969 13.4425 5.14743
4019 21 259 4.98568 10.0987 20.3191
3997 21 245 16.7769 -21.6291 9.79638
3978 21 232 14.7401 -19.0063 12.127
3996 21 244 12.9779 -13.8199 -6.2393
4026 21 266 15.5603 2.31368 -8.76083
3974 21 230 12.2023 -1.85833 6.84801
3867 21 151 12.7727 -2.27166 16.8745
3991 21 241 10.0306 4.38662 -7.04297
3957 21 213 14.6771 5.58233 15.4583
ITEM: TIMESTEP
1160000
ITEM: NUMBER OF ATOMS
50
ITEM: BOX BOUNDS pp pp pp
-1.9002450762882027e+01 1.7183430983956590e+01
-2.4442917427444844e+01 1.4215509185357437e+01
-9.3480272050572104e+00 2.0720686027690402e+01
ITEM: ATOMS id type mol x y z
4038 21 276 -12.6098 -19.245 15.3368
4031 21 271 -14.0927 -9.13899 5.10055
3995 21 243 -13.8875 3.65152 -2.23568
3958 21 214 -12.7074 6.68025 20.7096
3990 21 240 -12.3436 5.92764 14.6214
3793 21 103 -11.8416 12.0776 6.41334
3897 21 173 -16.3414 12.2968 16.0602
3720 21 62 -9.47074 -19.6169 -4.59298
4045 21 281 -11.2385 -21.9113 10.0738
3960 21 216 -9.44946 -24.0359 19.4676
3800 21 108 -7.67702 -15.1035 1.63405
4006 21 252 -9.1624 -11.3221 2.11049
3942 21 204 -10.5424 -9.8658 5.49809
4044 21 280 -10.9904 -13.3691 3.59805
4023 21 263 -4.69467 -7.64665 -0.792914
3938 21 200 -11.1234 -3.27901 -4.98822
4001 21 247 -7.72597 -4.85026 -8.33525
4047 21 283 -10.204 -3.73377 3.78917
3965 21 221 -10.5674 5.68281 1.34085
3968 21 224 -11.2861 11.7576 3.23274
4015 21 257 -9.10955 9.83561 15.0696
3940 21 202 -9.28377 12.9176 13.0177
3988 21 238 -1.37086 -15.9686 -1.30464
4043 21 279 0.463914 -8.80855 -5.13656
3943 21 205 2.16484 -8.12578 20.1453
3821 21 123 -2.05514 -9.14033 17.6836
3810 21 116 2.18225 -4.72456 11.1784
3889 21 167 1.60135 2.74812 4.98123
3802 21 110 1.05664 2.81277 8.24201
3939 21 201 0.810938 -1.85105 19.5501
4028 21 268 0.585393 7.5311 18.0366
3928 21 194 -0.0323699 10.3114 10.7315
4029 21 269 0.357274 9.34277 7.01122
4033 21 273 6.38609 -23.1407 -4.28081
3912 21 184 7.91958 -13.4508 18.0308
4046 21 282 7.79917 -10.5815 0.950476
3834 21 130 5.35126 -9.18979 2.6027
3868 21 152 8.74695 -2.42529 -0.149063
4022 21 262 7.57805 0.880013 -0.117171
3825 21 125 8.78356 -2.32994 13.4327
4032 21 272 3.09615 13.4392 5.14565
4019 21 259 5.01 10.0959 20.3675
3997 21 245 16.8499 -21.6261 9.80997
3978 21 232 14.8046 -19.0037 12.1483
3996 21 244 13.0351 -13.8183 -6.27873
4026 21 266 15.6283 2.31233 -8.8086
3974 21 230 12.2564 -1.85892 6.85185
3867 21 151 12.8291 -2.27217 16.9115
3991 21 241 10.0757 4.38489 -7.08506
3957 21 213 14.7414 5.58039 15.4906
ITEM: TIMESTEP
1165000
ITEM: NUMBER OF ATOMS
51
ITEM: BOX BOUNDS pp pp pp
-1.8932716496830619e+01 1.7113696717905182e+01
-2.4560450952639435e+01 1.4333042710552029e+01
-9.3511380708530183e+00 2.0723796893467821e+01
ITEM: ATOMS id type mol x y z
4038 21 276 -12.5647 -19.3309 15.3387
4031 21 271 -14.0419 -9.16347 5.10043
4048 21 284 -15.3584 -1.91503 12.8449
3995 21 243 -13.8374 3.70482 -2.23732
3958 21 214 -12.662 6.75197 20.7127
3990 21 240 -12.2995 5.99478 14.6233
3793 21 103 -11.7995 12.1821 6.41349
3897 21 173 -16.2819 12.4027 16.0623
3720 21 62 -9.43775 -19.7051 -4.5951
4045 21 281 -11.1987 -22.0134 10.0747
3960 21 216 -9.41654 -24.1509 19.4704
3800 21 108 -7.65094 -15.1643 1.63321
4006 21 252 -9.13059 -11.3598 2.10975
3942 21 204 -10.5053 -9.8947 5.49805
4044 21 280 -10.9516 -13.4193 3.59761
4023 21 263 -4.68008 -7.66205 -0.794254
3938 21 200 -11.084 -3.26785 -4.99043
4001 21 247 -7.6997 -4.84866 -8.33815
4047 21 283 -10.1682 -3.72538 3.78878
3965 21 221 -10.5302 5.74846 1.33995
3968 21 224 -11.2462 11.8602 3.23224
4015 21 257 -9.07794 9.92651 15.0715
3940 21 202 -9.25149 13.0273 13.0192
3988 21 238 -1.36908 -16.0346 -1.30608
4043 21 279 0.45862 -8.83102 -5.1388
3943 21 205 2.15299 -8.14409 20.1483
3821 21 123 -2.05073 -9.16481 17.6861
3810 21 116 2.17034 -4.72219 11.1796
3889 21 167 1.59168 2.79592 4.98108
3802 21 110 1.04906 2.86097 8.24254
3939 21 201 0.804307 -1.83121 19.5529
4028 21 268 0.579632 7.60799 18.0392
3928 21 194 -0.0357506 10.4052 10.7326
4029 21 269 0.352391 9.43067 7.0115
4033 21 273 6.35797 -23.2503 -4.28287
3912 21 184 7.88555 -13.5015 18.0333
4046 21 282 7.7656 -10.6147 0.949496
3834 21 130 5.32713 -9.21457 2.60206
3868 21 152 8.70974 -2.40894 -0.15027
4022 21 262 7.54533 0.916458 -0.118371
3825 21 125 8.7462 -2.31302 13.4343
4032 21 272 3.08071 13.552 5.14554
4019 21 259 4.98719 10.1884 20.3705
3997 21 245 16.7814 -21.7265 9.81082
3978 21 232 14.7441 -19.0882 12.1497
3996 21 244 12.9814 -13.8713 -6.2812
4026 21 266 15.5645 2.35749 -8.8116
3974 21 230 12.2057 -1.83913 6.85209
3867 21 151 12.7761 -2.2549 16.9139
3991 21 241 10.0334 4.44265 -7.0877
3957 21 213 14.6811 5.64542 15.4926
ITEM: TIMESTEP
1170000
ITEM: NUMBER OF ATOMS
51
ITEM: BOX BOUNDS pp pp pp
-1.8950312407262977e+01 1.7131292628337540e+01
-2.4647219181916821e+01 1.4419810939829414e+01
-9.2408179982427576e+00 2.0613476820870265e+01
ITEM: ATOMS id type mol x y z
4038 21 276 -12.5761 -19.3944 15.2679
4031 21 271 -14.0547 -9.18154 5.10472
4048 21 284 -15.3725 -1.90076 12.7924
3995 21 243 -13.8501 3.74416 -2.17919
3958 21 214 -12.6734 6.80491 20.6024
3990 21 240 -12.3107 6.04435 14.5577
3793 21 103 -11.8101 12.2593 6.40816
3897 21 173 -16.2969 12.4809 15.9862
4045 21 281 -11.2087 -22.0888 10.0425
3960 21 216 -9.42485 -24.2359 19.3693
3800 21 108 -7.65752 -15.2091 1.66294
4006 21 252 -9.13862 -11.3877 2.13599
3942 21 204 -10.5146 -9.91603 5.49944
4044 21 280 -10.9614 -13.4563 3.61294
4023 21 263 -4.68376 -7.67342 -0.74671
3938 21 200 -11.0939 -3.25962 -4.9121
4049 21 285 -11.7124 -6.74624 -4.2679
4001 21 247 -7.70633 -4.84748 -8.23526
4047 21 283 -10.1773 -3.71918 3.8027
3965 21 221 -10.5395 5.79693 1.37184
3968 21 224 -11.2562 11.9359 3.25024
4015 21 257 -9.08592 9.99362 15.0027
3940 21 202 -9.25964 13.1082 12.9654
3988 21 238 -1.36953 -16.0833 -1.25478
4043 21 279 0.459956 -8.84761 -5.05939
3943 21 205 2.15598 -8.15762 20.0422
3821 21 123 -2.05184 -9.18289 17.5981
3810 21 116 2.17335 -4.72045 11.1393
3889 21 167 1.59412 2.83121 4.98625
3802 21 110 1.05098 2.89655 8.22378
3939 21 201 0.805981 -1.81656 19.4512
4028 21 268 0.581085 7.66475 17.9485
3928 21 194 -0.0348975 10.4744 10.6956
4029 21 269 0.353623 9.49557 7.00178
4033 21 273 6.36506 -23.3312 -4.20974
3912 21 184 7.89414 -13.5389 17.9428
4046 21 282 7.77407 -10.6393 0.984247
3834 21 130 5.33322 -9.23287 2.62469
3868 21 152 8.71913 -2.39687 -0.107451
4022 21 262 7.55359 0.943364 -0.0757861
3825 21 125 8.75563 -2.30052 13.3775
4032 21 272 3.08461 13.6353 5.14951
4019 21 259 4.99294 10.2567 20.2628
3997 21 245 16.7987 -21.8006 9.78056
3978 21 232 14.7594 -19.1506 12.1023
3996 21 244 12.995 -13.9103 -6.19341
4026 21 266 15.5806 2.39082 -8.70524
3974 21 230 12.2185 -1.82452 6.84354
3867 21 151 12.7895 -2.24214 16.8315
3991 21 241 10.0441 4.48529 -6.99399
3957 21 213 14.6963 5.69342 15.4207
ITEM: TIMESTEP
1175000
ITEM: NUMBER OF ATOMS
50
ITEM: BOX BOUNDS pp pp pp
-1.9279295820786402e+01 1.7460276041860965e+01
-2.4457382730229490e+01 1.4229974488142084e+01
-9.1752589045545108e+00 2.0547917727182565e+01
ITEM: ATOMS id type mol x y z
4038 21 276 -12.7889 -19.2556 15.2259
4031 21 271 -14.2944 -9.142 5.10728
4048 21 284 -15.6362 -1.93199 12.7612
3995 21 243 -14.086 3.65808 -2.14464
3958 21 214 -12.888 6.68908 20.5369
3990 21 240 -12.5186 5.93591 14.5187
3793 21 103 -12.0089 12.0905 6.40499
3897 21 173 -16.5775 12.3099 15.941
4045 21 281 -11.3966 -21.9239 10.0233
3960 21 216 -9.58013 -24.05 19.3092
3800 21 108 -7.78057 -15.111 1.68061
4006 21 252 -9.28868 -11.3267 2.15158
3942 21 204 -10.6898 -9.86936 5.50026
4044 21 280 -11.1447 -13.3752 3.62204
4023 21 263 -4.75259 -7.64855 -0.718457
3938 21 200 -11.2796 -3.27764 -4.86556
4049 21 285 -11.9094 -6.73038 -4.22419
4001 21 247 -7.83027 -4.85006 -8.17412
3965 21 221 -10.7152 5.69089 1.39079
3968 21 224 -11.4449 11.7702 3.26094
4015 21 257 -9.23502 9.8468 14.9617
3940 21 202 -9.41191 12.9311 12.9335
3988 21 238 -1.37792 -15.9767 -1.2243
4043 21 279 0.484929 -8.81132 -5.01219
3943 21 205 2.21188 -8.12803 19.9791
3821 21 123 -2.07267 -9.14334 17.5458
3810 21 116 2.22956 -4.72427 11.1153
3889 21 167 1.63977 2.754 4.98933
3802 21 110 1.08673 2.8187 8.21264
3939 21 201 0.837263 -1.84861 19.3908
4028 21 268 0.608267 7.54056 17.8947
3928 21 194 -0.0189485 10.323 10.6736
4029 21 269 0.376657 9.35359 6.996
4033 21 273 6.49772 -23.1541 -4.16627
3912 21 184 8.05468 -13.457 17.8889
4046 21 282 7.93242 -10.5856 1.0049
3834 21 130 5.44706 -9.19284 2.63813
3868 21 152 8.89471 -2.42328 -0.082005
4022 21 262 7.70792 0.884498 -0.0504793
3825 21 125 8.93188 -2.32786 13.3437
4032 21 272 3.15744 13.4531 5.15186
4019 21 259 5.10058 10.1073 20.1988
3997 21 245 17.1216 -21.6384 9.76258
3978 21 232 15.0451 -19.0141 12.0741
3996 21 244 13.2485 -13.8249 -6.14123
4026 21 266 15.8813 2.31789 -8.64203
3974 21 230 12.4579 -1.85648 6.83846
3867 21 151 13.0393 -2.27005 16.7825
3991 21 241 10.2438 4.392 -6.9383
3957 21 213 14.9809 5.58839 15.3779
ITEM: TIMESTEP
1180000
ITEM: NUMBER OF ATOMS
50
ITEM: BOX BOUNDS pp pp pp
-1.8905764083220035e+01 1.7086744304294598e+01
-2.4449711300555823e+01 1.4222303058468416e+01
-9.3105226158009202e+00 2.0683181438373683e+01
ITEM: ATOMS id type mol x y z
4038 21 276 -12.5473 -19.25 15.3127
4031 21 271 -14.0223 -9.14041 5.10201
4048 21 284 -15.3367 -1.93325 12.8256
3995 21 243 -13.8181 3.6546 -2.21592
3958 21 214 -12.6444 6.6844 20.6721
3990 21 240 -12.2825 5.93152 14.5991
3793 21 103 -11.7832 12.0836 6.41153
3897 21 173 -16.259 12.303 16.0343
4045 21 281 -11.1833 -21.9172 10.0628
3960 21 216 -9.40382 -24.0425 19.4332
3800 21 108 -7.64086 -15.107 1.64415
4006 21 252 -9.1183 -11.3242 2.11941
3942 21 204 -10.4909 -9.86747 5.49856
4044 21 280 -10.9366 -13.372 3.60326
4023 21 263 -4.67444 -7.64754 -0.77675
3938 21 200 -11.0688 -3.27837 -4.96159
4049 21 285 -11.6857 -6.72974 -4.31439
4001 21 247 -7.68954 -4.85017 -8.30027
3965 21 221 -10.5158 5.68661 1.35169
3968 21 224 -11.2307 11.7636 3.23886
4015 21 257 -9.06573 9.84087 15.0462
3940 21 202 -9.23902 12.924 12.9994
3988 21 238 -1.3684 -15.9724 -1.2872
4043 21 279 0.456574 -8.80985 -5.10956
3943 21 205 2.14841 -8.12684 20.1092
3821 21 123 -2.04902 -9.14174 17.6537
3810 21 116 2.16573 -4.72442 11.1647
3889 21 167 1.58794 2.75088 4.98298
3802 21 110 1.04614 2.81555 8.23563
3939 21 201 0.801744 -1.8499 19.5155
4028 21 268 0.577405 7.53555 18.0058
3928 21 194 -0.0370572 10.3168 10.7189
4029 21 269 0.350504 9.34785 7.00792
4033 21 273 6.3471 -23.147 -4.25595
3912 21 184 7.8724 -13.4537 18
4046 21 282 7.75263 -10.5834 0.96229
3834 21 130 5.3178 -9.19122 2.61039
3868 21 152 8.69535 -2.42434 -0.134506
4022 21 262 7.53269 0.882119 -0.102693
3825 21 125 8.73176 -2.32897 13.4134
4032 21 272 3.07474 13.4457 5.147
4019 21 259 4.97837 10.1013 20.3309
3997 21 245 16.755 -21.6319 9.79968
3978 21 232 14.7207 -19.0086 12.1322
3996 21 244 12.9606 -13.8214 -6.24888
4026 21 266 15.5399 2.31494 -8.77244
3974 21 230 12.1861 -1.85778 6.84894
3867 21 151 12.7557 -2.27118 16.8835
3991 21 241 10.017 4.38823 -7.0532
3957 21 213 14.6578 5.58415 15.4661
ITEM: TIMESTEP
1185000
ITEM: NUMBER OF ATOMS
49
ITEM: BOX BOUNDS pp pp pp
-1.8968060377949246e+01 1.7149040599023810e+01
-2.4461412345542012e+01 1.4234004103454605e+01
-9.2795903075556403e+00 2.0652249130119369e+01
ITEM: ATOMS id type mol x y z
4038 21 276 -12.5876 -19.2585 15.2928
4031 21 271 -14.0676 -9.14284 5.10321
4048 21 284 -15.3867 -1.93132 12.8109
3995 21 243 -13.8628 3.6599 -2.19962
3958 21 214 -12.685 6.69154 20.6412
3990 21 240 -12.3219 5.93821 14.5808
3793 21 103 -11.8208 12.094 6.41003
3897 21 173 -16.3121 12.3135 16.0129
4045 21 281 -11.2189 -21.9274 10.0538
3960 21 216 -9.43323 -24.054 19.4049
3800 21 108 -7.66416 -15.1131 1.65249
3942 21 204 -10.5241 -9.87035 5.49895
4044 21 280 -10.9713 -13.377 3.60755
4023 21 263 -4.68747 -7.64908 -0.76342
3938 21 200 -11.1039 -3.27725 -4.93963
4049 21 285 -11.723 -6.73071 -4.29376
4001 21 247 -7.71301 -4.85001 -8.27142
3965 21 221 -10.549 5.69314 1.36063
3968 21 224 -11.2664 11.7738 3.24391
4015 21 257 -9.09396 9.84992 15.0269
3940 21 202 -9.26785 12.9349 12.9843
3988 21 238 -1.36998 -15.979 -1.27281
4043 21 279 0.461303 -8.81209 -5.0873
3943 21 205 2.159 -8.12866 20.0795
3821 21 123 -2.05297 -9.14418 17.629
3810 21 116 2.17638 -4.72419 11.1534
3889 21 167 1.59658 2.75564 4.98443
3802 21 110 1.05291 2.82035 8.23037
3939 21 201 0.807668 -1.84793 19.487
4028 21 268 0.582552 7.5432 17.9804
3928 21 194 -0.0340371 10.3262 10.7086
4029 21 269 0.354866 9.3566 7.00519
4033 21 273 6.37222 -23.1579 -4.23544
3912 21 184 7.9028 -13.4587 17.9746
4046 21 282 7.78262 -10.5867 0.972034
3834 21 130 5.33936 -9.19369 2.61674
3868 21 152 8.7286 -2.42272 -0.1225
4022 21 262 7.56191 0.885748 -0.0907529
3825 21 125 8.76514 -2.32728 13.3975
4032 21 272 3.08854 13.4569 5.14811
4019 21 259 4.99875 10.1105 20.3007
3997 21 245 16.8161 -21.6419 9.7912
3978 21 232 14.7748 -19.017 12.1189
3996 21 244 13.0086 -13.8267 -6.22426
4026 21 266 15.5968 2.31944 -8.74262
3974 21 230 12.2314 -1.8558 6.84655
3867 21 151 12.803 -2.26946 16.8604
3991 21 241 10.0549 4.39398 -7.02692
3957 21 213 14.7117 5.59062 15.446
ITEM: TIMESTEP
1190000
ITEM: NUMBER OF ATOMS
48
ITEM: BOX BOUNDS pp pp pp
-1.8912434307337044e+01 1.7093414528411607e+01
-2.4460838502451576e+01 1.4233430260364170e+01
-9.4468853670472832e+00 2.0819544189546392e+01
ITEM: ATOMS id type mol x y z
4038 21 276 -12.5516 -19.2581 15.4002
4031 21 271 -14.0271 -9.14272 5.0967
4048 21 284 -15.3421 -1.93142 12.8905
3995 21 243 -13.8229 3.65964 -2.28777
3958 21 214 -12.6487 6.69119 20.8084
3990 21 240 -12.2867 5.93788 14.6802
3793 21 103 -11.7872 12.0935 6.41812
3897 21 173 -16.2646 12.313 16.1284
4045 21 281 -11.1871 -21.9269 10.1026
3960 21 216 -9.40697 -24.0534 19.5582
3800 21 108 -7.64335 -15.1128 1.6074
3942 21 204 -10.4945 -9.87021 5.49686
4044 21 280 -10.9403 -13.3767 3.58431
4023 21 263 -4.67584 -7.649 -0.835518
3938 21 200 -11.0725 -3.27731 -5.05841
4049 21 285 -11.6897 -6.73067 -4.40532
4001 21 247 -7.69206 -4.85002 -8.42745
3965 21 221 -10.5193 5.69282 1.31228
3968 21 224 -11.2345 11.7733 3.21661
4015 21 257 -9.06875 9.84947 15.1313
3940 21 202 -9.24211 12.9344 13.0659
3988 21 238 -1.36857 -15.9787 -1.35061
4043 21 279 0.457081 -8.81198 -5.20773
3943 21 205 2.14955 -8.12857 20.2404
3821 21 123 -2.04944 -9.14406 17.7625
3810 21 116 2.16687 -4.7242 11.2145
3889 21 167 1.58886 2.7554 4.97659
3802 21 110 1.04686 2.82012 8.25881
3939 21 201 0.802379 -1.84802 19.6412
4028 21 268 0.577956 7.54283 18.1178
3928 21 194 -0.0367338 10.3257 10.7647
4029 21 269 0.350971 9.35617 7.01994
4033 21 273 6.34979 -23.1574 -4.34635
4046 21 282 7.75584 -10.5866 0.919335
3834 21 130 5.32011 -9.19356 2.58242
3868 21 152 8.69891 -2.4228 -0.187433
4022 21 262 7.53582 0.88557 -0.155331
3825 21 125 8.73534 -2.32736 13.4837
4032 21 272 3.07622 13.4564 5.14209
4019 21 259 4.98055 10.11 20.464
3997 21 245 16.7615 -21.6414 9.83708
3978 21 232 14.7265 -19.0166 12.1908
3996 21 244 12.9658 -13.8264 -6.3574
4026 21 266 15.546 2.31922 -8.90391
3974 21 230 12.1909 -1.8559 6.85951
3867 21 151 12.7607 -2.26954 16.9854
3991 21 241 10.0211 4.3937 -7.16904
3957 21 213 14.6636 5.5903 15.5551
ITEM: TIMESTEP
1195000
ITEM: NUMBER OF ATOMS
50
ITEM: BOX BOUNDS pp pp pp
-1.8938021991634947e+01 1.7119002212709511e+01
-2.4392926743501068e+01 1.4165518501413661e+01
-9.3319356924671979e+00 2.0704594514980950e+01
ITEM: ATOMS id type mol x y z
4031 21 271 -14.0458 -9.12858 5.10117
4048 21 284 -15.3626 -1.94259 12.8358
3995 21 243 -13.8412 3.62885 -2.2272
3958 21 214 -12.6654 6.64975 20.6935
3990 21 240 -12.3029 5.89909 14.6119
3793 21 103 -11.8027 12.0331 6.41256
3897 21 173 -16.2865 12.2518 16.0491
4045 21 281 -11.2017 -21.8678 10.0691
3960 21 216 -9.41905 -23.987 19.4528
3800 21 108 -7.65292 -15.0777 1.63838
3942 21 204 -10.5081 -9.85351 5.49829
4044 21 280 -10.9545 -13.3477 3.60028
4023 21 263 -4.68119 -7.6401 -0.785979
3938 21 200 -11.087 -3.28376 -4.9768
4049 21 285 -11.705 -6.72499 -4.32867
4001 21 247 -7.7017 -4.85094 -8.32024
4053 21 287 -5.91852 2.14197 -5.43898
3965 21 221 -10.533 5.65489 1.3455
3968 21 224 -11.2492 11.714 3.23537
4015 21 257 -9.08035 9.79695 15.0595
3940 21 202 -9.25395 12.871 13.0099
3988 21 238 -1.36922 -15.9405 -1.29715
4043 21 279 0.459023 -8.799 -5.12498
3943 21 205 2.15389 -8.11799 20.1298
3821 21 123 -2.05106 -9.12991 17.6708
3810 21 116 2.17125 -4.72557 11.1726
3889 21 167 1.59241 2.72778 4.98198
3802 21 110 1.04964 2.79227 8.23927
3939 21 201 0.804812 -1.85949 19.5352
4028 21 268 0.58007 7.4984 18.0234
3928 21 194 -0.0354933 10.2715 10.7261
4029 21 269 0.352763 9.30538 7.00981
4033 21 273 6.36011 -23.094 -4.27014
4046 21 282 7.76816 -10.5674 0.955545
3834 21 130 5.32896 -9.17924 2.606
4055 21 289 5.37178 -10.8928 4.98311
3868 21 152 8.71257 -2.43224 -0.142817
4022 21 262 7.54782 0.864511 -0.110959
3825 21 125 8.74904 -2.33714 13.4244
4032 21 272 3.08188 13.3912 5.14623
4019 21 259 4.98892 10.0566 20.3518
3997 21 245 16.7866 -21.5834 9.80555
3978 21 232 14.7487 -18.9678 12.1414
3996 21 244 12.9855 -13.7958 -6.26592
4054 21 288 16.6992 -11.8069 -7.64636
4026 21 266 15.5694 2.29313 -8.79309
3974 21 230 12.2095 -1.86734 6.8506
3867 21 151 12.7802 -2.27952 16.8995
3991 21 241 10.0366 4.36032 -7.07139
3957 21 213 14.6857 5.55273 15.4801
ITEM: TIMESTEP
1200000
ITEM: NUMBER OF ATOMS
50
ITEM: BOX BOUNDS pp pp pp
-1.9093448487145807e+01 1.7274428708220370e+01
-2.4524889746198948e+01 1.4297481504111541e+01
-9.2626377108366178e+00 2.0635296533351983e+01
ITEM: ATOMS id type mol x y z
4031 21 271 -14.159 -9.15606 5.10387
4048 21 284 -15.4872 -1.92088 12.8028
3995 21 243 -13.9527 3.68869 -2.19068
3958 21 214 -12.7668 6.73027 20.6242
3990 21 240 -12.4011 5.97447 14.5707
3793 21 103 -11.8966 12.1505 6.40921
3897 21 173 -16.419 12.3707 16.0013
4045 21 281 -11.2905 -21.9825 10.0488
3960 21 216 -9.49241 -24.1161 19.3893
3800 21 108 -7.71106 -15.1459 1.65706
3942 21 204 -10.5909 -9.88596 5.49916
4044 21 280 -11.0411 -13.4041 3.60991
4023 21 263 -4.71371 -7.65739 -0.756114
3938 21 200 -11.1747 -3.27123 -4.9276
4049 21 285 -11.7981 -6.73602 -4.28245
4001 21 247 -7.76025 -4.84914 -8.25561
4053 21 287 -5.9617 2.19163 -5.38764
3965 21 221 -10.616 5.7286 1.36553
3968 21 224 -11.3383 11.8292 3.24668
4015 21 257 -9.15079 9.89901 15.0163
3940 21 202 -9.32589 12.9941 12.9761
3988 21 238 -1.37318 -16.0146 -1.26493
4043 21 279 0.470822 -8.82422 -5.07509
3943 21 205 2.1803 -8.13855 20.0632
3821 21 123 -2.06091 -9.15741 17.6155
3810 21 116 2.1978 -4.72291 11.1472
3889 21 167 1.61398 2.78146 4.98523
3802 21 110 1.06653 2.84638 8.22749
3939 21 201 0.819591 -1.83721 19.4713
4028 21 268 0.592912 7.58473 17.9665
3928 21 194 -0.0279583 10.3768 10.7029
4029 21 269 0.363645 9.40408 7.0037
4033 21 273 6.42278 -23.2171 -4.2242
4046 21 282 7.84297 -10.6047 0.977374
3834 21 130 5.38275 -9.20707 2.62021
4055 21 289 5.42593 -10.9324 4.98635
3868 21 152 8.79552 -2.41389 -0.11592
4022 21 262 7.62073 0.905431 -0.0842089
3825 21 125 8.83231 -2.31814 13.3887
4032 21 272 3.1163 13.5179 5.14872
4019 21 259 5.03977 10.1604 20.2841
3997 21 245 16.9392 -21.6961 9.78655
3978 21 232 14.8837 -19.0627 12.1116
3996 21 244 13.1053 -13.8553 -6.21077
4054 21 288 16.851 -11.8527 -7.58484
4026 21 266 15.7115 2.34383 -8.72627
3974 21 230 12.3226 -1.84512 6.84523
3867 21 151 12.8982 -2.26012 16.8478
3991 21 241 10.131 4.42517 -7.01252
3957 21 213 14.8201 5.62574 15.4349
ITEM: TIMESTEP
1205000
ITEM: NUMBER OF ATOMS
53
ITEM: BOX BOUNDS pp pp pp
-1.8948875718740091e+01 1.7129855939814654e+01
-2.4377091791012276e+01 1.4149683548924870e+01
-9.4161330168546051e+00 2.0788791839308200e+01
ITEM: ATOMS id type mol x y z
4031 21 271 -14.0537 -9.12528 5.09789
4048 21 284 -15.3713 -1.94519 12.8759
3995 21 243 -13.849 3.62167 -2.27157
3958 21 214 -12.6725 6.64009 20.7776
3990 21 240 -12.3098 5.89004 14.6619
3793 21 103 -11.8092 12.019 6.41663
3897 21 173 -16.2957 12.2375 16.1072
4045 21 281 -11.2079 -21.8541 10.0936
3960 21 216 -9.42417 -23.9714 19.53
3800 21 108 -7.65698 -15.0695 1.61569
3942 21 204 -10.5139 -9.84962 5.49724
4044 21 280 -10.9606 -13.3409 3.58859
4023 21 263 -4.68346 -7.63803 -0.822265
3938 21 200 -11.0931 -3.28526 -5.03658
4049 21 285 -11.7115 -6.72367 -4.38481
4001 21 247 -7.70579 -4.85116 -8.39877
4053 21 287 -5.92153 2.13601 -5.50135
4063 21 293 -9.20601 0.164691 -4.6425
3965 21 221 -10.5388 5.64605 1.32116
3968 21 224 -11.2554 11.7002 3.22163
4015 21 257 -9.08527 9.7847 15.1121
3940 21 202 -9.25897 12.8562 13.0509
3988 21 238 -1.3695 -15.9316 -1.33631
4043 21 279 0.459847 -8.79597 -5.18559
3943 21 205 2.15574 -8.11552 20.2108
3821 21 123 -2.05175 -9.12662 17.738
3810 21 116 2.1731 -4.72589 11.2033
3889 21 167 1.59392 2.72134 4.97803
3802 21 110 1.05082 2.78577 8.25358
3939 21 201 0.805844 -1.86216 19.6129
4028 21 268 0.580967 7.48804 18.0926
4059 21 291 2.04963 13.7783 20.7024
3928 21 194 -0.0349672 10.2589 10.7544
4029 21 269 0.353523 9.29354 7.01723
4033 21 273 6.36448 -23.0793 -4.32596
4064 21 294 8.85722 -14.4333 17.6291
4046 21 282 7.77338 -10.5629 0.929022
3834 21 130 5.33272 -9.1759 2.58873
4055 21 289 5.37556 -10.8881 4.97917
3868 21 152 8.71836 -2.43444 -0.175497
4022 21 262 7.55291 0.859601 -0.143461
3825 21 125 8.75486 -2.33942 13.4678
4032 21 272 3.08429 13.376 5.1432
4019 21 259 4.99247 10.0441 20.434
3997 21 245 16.7973 -21.5698 9.82865
3978 21 232 14.7581 -18.9564 12.1776
3996 21 244 12.9939 -13.7887 -6.33293
4054 21 288 16.7098 -11.8014 -7.72111
4026 21 266 15.5793 2.28704 -8.87426
3974 21 230 12.2174 -1.87 6.85713
3867 21 151 12.7884 -2.28185 16.9624
3991 21 241 10.0432 4.35254 -7.14291
3957 21 213 14.6951 5.54397 15.535
ITEM: TIMESTEP
1210000
ITEM: NUMBER OF ATOMS
51
ITEM: BOX BOUNDS pp pp pp
-1.9095160512163485e+01 1.7276140733238048e+01
-2.4400740783649038e+01 1.4173332541561631e+01
-9.2991798571005155e+00 2.0671838679569653e+01
ITEM: ATOMS id type mol x y z
4031 21 271 -14.1603 -9.13021 5.10245
4048 21 284 -15.4886 -1.9413 12.8202
3995 21 243 -13.954 3.63239 -2.20994
3958 21 214 -12.7679 6.65452 20.6608
3990 21 240 -12.4022 5.90355 14.5924
3793 21 103 -11.8976 12.0401 6.41098
3897 21 173 -16.4205 12.2588 16.0265
4045 21 281 -11.2914 -21.8746 10.0595
3960 21 216 -9.49322 -23.9946 19.4228
3800 21 108 -7.7117 -15.0817 1.64721
3942 21 204 -10.5918 -9.85544 5.49871
4044 21 280 -11.0421 -13.351 3.60483
4023 21 263 -4.71406 -7.64113 -0.771862
3938 21 200 -11.1757 -3.28301 -4.95354
4049 21 285 -11.7991 -6.72564 -4.30682
4001 21 247 -7.7609 -4.85084 -8.28969
4053 21 287 -5.96218 2.14491 -5.41471
4063 21 293 -9.27329 0.171171 -4.56251
3965 21 221 -10.6169 5.65926 1.35497
3968 21 224 -11.3393 11.7208 3.24072
4015 21 257 -9.15157 9.80299 15.0391
3940 21 202 -9.32668 12.8783 12.9939
3988 21 238 -1.37323 -15.9449 -1.28192
4043 21 279 0.470951 -8.80049 -5.1014
3943 21 205 2.18059 -8.11921 20.0983
3821 21 123 -2.06101 -9.13154 17.6446
3810 21 116 2.1981 -4.72541 11.1606
3889 21 167 1.61422 2.73096 4.98352
3802 21 110 1.06672 2.79547 8.2337
3939 21 201 0.819754 -1.85817 19.505
4028 21 268 0.593053 7.50351 17.9965
3928 21 194 -0.0278753 10.2778 10.7151
4029 21 269 0.363765 9.31122 7.00692
4033 21 273 6.42347 -23.1013 -4.24843
4064 21 294 8.93642 -14.4448 17.5367
4046 21 282 7.84379 -10.5696 0.965863
3834 21 130 5.38334 -9.18089 2.61272
4055 21 289 5.42652 -10.8952 4.98464
3868 21 152 8.79643 -2.43115 -0.130103
4022 21 262 7.62154 0.866934 -0.0983147
3825 21 125 8.83323 -2.33602 13.4076
4019 21 259 5.04033 10.0627 20.3198
3997 21 245 16.9409 -21.5901 9.79657
3978 21 232 14.8852 -18.9734 12.1274
3996 21 244 13.1066 -13.7993 -6.23985
4054 21 288 16.8527 -11.8096 -7.61728
4026 21 266 15.713 2.29613 -8.76151
3974 21 230 12.3239 -1.86602 6.84806
3867 21 151 12.8995 -2.27837 16.8751
3991 21 241 10.132 4.36416 -7.04357
3957 21 213 14.8216 5.55705 15.4588
ITEM: TIMESTEP
1215000
ITEM: NUMBER OF ATOMS
50
ITEM: BOX BOUNDS pp pp pp
-1.9182741152208060e+01 1.7363721373282623e+01
-2.4349279104607273e+01 1.4121870862519867e+01
-9.2994468083613349e+00 2.0672105630812553e+01
ITEM: ATOMS id type mol x y z
4031 21 271 -14.2241 -9.11949 5.10244
4048 21 284 -15.5588 -1.94977 12.8203
3995 21 243 -14.0168 3.60906 -2.21008
3958 21 214 -12.825 6.62312 20.661
3990 21 240 -12.4575 5.87416 14.5926
3793 21 103 -11.9505 11.9943 6.41099
3897 21 173 -16.4952 12.2125 16.0266
4045 21 281 -11.3414 -21.8299 10.0596
3960 21 216 -9.53456 -23.9442 19.4231
3800 21 108 -7.74446 -15.0551 1.64714
3942 21 204 -10.6384 -9.84278 5.4987
4044 21 280 -11.0909 -13.3291 3.60479
4023 21 263 -4.73239 -7.63438 -0.771977
3938 21 200 -11.2251 -3.2879 -4.95373
4049 21 285 -11.8516 -6.72134 -4.307
4053 21 287 -5.98651 2.12554 -5.41491
3965 21 221 -10.6636 5.63051 1.35489
3968 21 224 -11.3895 11.6759 3.24067
4015 21 257 -9.19126 9.76319 15.0392
3940 21 202 -9.36722 12.8303 12.994
3988 21 238 -1.37546 -15.916 -1.28205
4065 21 295 0.375006 -15.7449 -9.21976
4043 21 279 0.4776 -8.79066 -5.10159
3943 21 205 2.19548 -8.11119 20.0986
3821 21 123 -2.06656 -9.12082 17.6449
3810 21 116 2.21306 -4.72645 11.1607
3889 21 167 1.62637 2.71003 4.9835
3802 21 110 1.07623 2.77437 8.23375
3939 21 201 0.828082 -1.86685 19.5053
4028 21 268 0.60029 7.46985 17.9967
3928 21 194 -0.0236294 10.2367 10.7152
4029 21 269 0.369897 9.27273 7.00694
4033 21 273 6.45878 -23.0533 -4.2486
4064 21 294 8.98384 -14.4199 17.5369
4046 21 282 7.88595 -10.555 0.965779
3834 21 130 5.41364 -9.17004 2.61266
4055 21 289 5.45704 -10.8797 4.98463
3868 21 152 8.84318 -2.43831 -0.130207
4022 21 262 7.66262 0.850977 -0.0984178
3825 21 125 8.88015 -2.34343 13.4077
4019 21 259 5.06899 10.0223 20.3201
3997 21 245 17.0268 -21.5461 9.79664
3978 21 232 14.9612 -18.9365 12.1275
3996 21 244 13.1741 -13.7762 -6.24007
4054 21 288 16.9382 -11.7917 -7.61752
4026 21 266 15.7931 2.27636 -8.76176
3974 21 230 12.3876 -1.87469 6.84808
3867 21 151 12.966 -2.28594 16.8753
3991 21 241 10.1852 4.33888 -7.04379
3957 21 213 14.8974 5.52858 15.4589
ITEM: TIMESTEP
1220000
ITEM: NUMBER OF ATOMS
49
ITEM: BOX BOUNDS pp pp pp
-1.8955926634259846e+01 1.7136906855334409e+01
-2.4431687738904060e+01 1.4204279496816653e+01
-9.3491156763122731e+00 2.0721774498731314e+01
ITEM: ATOMS id type mol x y z
4031 21 271 -14.0588 -9.13665 5.1005
4048 21 284 -15.377 -1.93621 12.844
3995 21 243 -13.8541 3.64643 -2.23625
3958 21 214 -12.6771 6.6734 20.7107
3990 21 240 -12.3142 5.92123 14.6221
3793 21 103 -11.8135 12.0676 6.41339
3897 21 173 -16.3017 12.2867 16.0609
4045 21 281 -11.2119 -21.9015 10.0741
3960 21 216 -9.4275 -24.0249 19.4686
3800 21 108 -7.65962 -15.0977 1.63375
3942 21 204 -10.5176 -9.86304 5.49808
4044 21 280 -10.9645 -13.3643 3.59789
3938 21 200 -11.0971 -3.28008 -4.989
4049 21 285 -11.7158 -6.72823 -4.34012
4053 21 287 -5.92349 2.15656 -5.4517
3965 21 221 -10.5425 5.67654 1.34054
3968 21 224 -11.2595 11.7478 3.23257
4015 21 257 -9.08846 9.82693 15.0702
3940 21 202 -9.26224 12.9072 13.0182
3988 21 238 -1.36968 -15.9623 -1.30514
4065 21 295 0.359062 -15.7905 -9.26917
4043 21 279 0.460382 -8.80641 -5.13735
3943 21 205 2.15694 -8.12403 20.1463
3821 21 123 -2.0522 -9.13799 17.6845
3810 21 116 2.1743 -4.72479 11.1788
3889 21 167 1.5949 2.74355 4.98117
3802 21 110 1.05159 2.80816 8.24219
3939 21 201 0.806514 -1.85294 19.5511
4028 21 268 0.581549 7.52376 18.0375
3928 21 194 -0.0346253 10.3024 10.7319
4029 21 269 0.354016 9.33437 7.01132
4033 21 273 6.36733 -23.1302 -4.28153
4064 21 294 8.86104 -14.4597 17.5761
4046 21 282 7.77678 -10.5783 0.950133
3834 21 130 5.33516 -9.18742 2.60248
4055 21 289 5.37801 -10.9044 4.9823
3868 21 152 8.72212 -2.42685 -0.149485
4022 21 262 7.55622 0.876531 -0.117591
3825 21 125 8.75864 -2.33156 13.4333
4019 21 259 4.99478 10.0871 20.3686
3997 21 245 16.8042 -21.6165 9.81027
3978 21 232 14.7642 -18.9957 12.1488
3996 21 244 12.9993 -13.8133 -6.27959
4054 21 288 16.7167 -11.8203 -7.66162
4026 21 266 15.5858 2.30802 -8.80965
3974 21 230 12.2226 -1.86081 6.85194
3867 21 151 12.7938 -2.27383 16.9124
3991 21 241 10.0475 4.37937 -7.08598
3957 21 213 14.7012 5.57418 15.4913
ITEM: TIMESTEP
1225000
ITEM: NUMBER OF ATOMS
50
ITEM: BOX BOUNDS pp pp pp
-1.9006520681451335e+01 1.7187500902525898e+01
-2.4425409432042468e+01 1.4198001189955061e+01
-9.3202232255970436e+00 2.0692882048006570e+01
ITEM: ATOMS id type mol x y z
4031 21 271 -14.0957 -9.13535 5.10163
4068 21 298 -15.8352 -0.133312 12.3115
3995 21 243 -13.8904 3.64358 -2.22103
3958 21 214 -12.7101 6.66957 20.6818
3990 21 240 -12.3462 5.91764 14.6049
3793 21 103 -11.8441 12.062 6.412
3897 21 173 -16.3449 12.2811 16.041
4045 21 281 -11.2408 -21.8961 10.0656
3960 21 216 -9.45138 -24.0187 19.4421
3800 21 108 -7.67854 -15.0945 1.64154
3942 21 204 -10.5446 -9.8615 5.49844
4044 21 280 -10.9927 -13.3616 3.60191
3938 21 200 -11.1257 -3.28067 -4.96848
4049 21 285 -11.7461 -6.7277 -4.32086
4053 21 287 -5.93755 2.15419 -5.4303
4066 21 296 -8.91378 0.728997 19.3401
3965 21 221 -10.5695 5.67303 1.34889
3968 21 224 -11.2885 11.7423 3.23728
3940 21 202 -9.28565 12.9013 13.0041
3988 21 238 -1.37097 -15.9588 -1.29171
4065 21 295 0.362619 -15.787 -9.24043
4043 21 279 0.464223 -8.80521 -5.11655
3943 21 205 2.16553 -8.12305 20.1186
3821 21 123 -2.0554 -9.13668 17.6614
3810 21 116 2.18295 -4.72491 11.1683
3889 21 167 1.60192 2.74099 4.98253
3802 21 110 1.05709 2.80559 8.23728
3939 21 201 0.811325 -1.854 19.5244
4028 21 268 0.58573 7.51965 18.0138
3928 21 194 -0.0321726 10.2974 10.7222
4029 21 269 0.357559 9.32967 7.00877
4033 21 273 6.38773 -23.1243 -4.26238
4064 21 294 8.88843 -14.4567 17.5533
4046 21 282 7.80113 -10.5765 0.959234
3834 21 130 5.35267 -9.18609 2.6084
4055 21 289 5.39564 -10.9026 4.98366
3868 21 152 8.74913 -2.42772 -0.138271
4067 21 297 5.72774 -2.7585 1.77078
4022 21 262 7.57996 0.874584 -0.106438
3825 21 125 8.78574 -2.33247 13.4184
4019 21 259 5.01133 10.0822 20.3404
3997 21 245 16.8539 -21.6111 9.80234
3978 21 232 14.8082 -18.9912 12.1364
3996 21 244 13.0383 -13.8105 -6.2566
4054 21 288 16.7661 -11.8182 -7.63597
4026 21 266 15.632 2.30561 -8.78179
3974 21 230 12.2594 -1.86187 6.8497
3867 21 151 12.8322 -2.27475 16.8908
3991 21 241 10.0782 4.37629 -7.06144
3957 21 213 14.7449 5.5707 15.4725
ITEM: TIMESTEP
1230000
ITEM: NUMBER OF ATOMS
50
ITEM: BOX BOUNDS pp pp pp
-1.8972859434984091e+01 1.7153839656058654e+01
-2.4592741953876544e+01 1.4365333711789138e+01
-9.3489924619291642e+00 2.0721651284312458e+01
ITEM: ATOMS id type mol x y z
4031 21 271 -14.0711 -9.17019 5.10051
4068 21 298 -15.8074 -0.0901574 12.3242
3995 21 243 -13.8662 3.71946 -2.23619
3958 21 214 -12.6881 6.77167 20.7105
3990 21 240 -12.3249 6.01323 14.622
3793 21 103 -11.8237 12.2108 6.41339
3897 21 173 -16.3162 12.4318 16.0608
4045 21 281 -11.2216 -22.0415 10.074
3960 21 216 -9.43549 -24.1826 19.4685
3800 21 108 -7.66595 -15.1809 1.63379
3942 21 204 -10.5267 -9.90264 5.49808
4044 21 280 -10.9739 -13.433 3.59791
3938 21 200 -11.1067 -3.26479 -4.98891
4049 21 285 -11.7259 -6.74169 -4.34004
4053 21 287 -5.9282 2.21717 -5.45161
4066 21 296 -8.89889 0.779623 19.3663
3965 21 221 -10.5516 5.7665 1.34057
3968 21 224 -11.2692 11.8884 3.23259
3940 21 202 -9.27007 13.0574 13.0182
3988 21 238 -1.37011 -16.0527 -1.30509
4065 21 295 0.360252 -15.8795 -9.26904
4043 21 279 0.461668 -8.83719 -5.13726
3943 21 205 2.15981 -8.14913 20.1462
3821 21 123 -2.05327 -9.17154 17.6844
3810 21 116 2.1772 -4.72154 11.1788
3889 21 167 1.59725 2.80905 4.98118
3802 21 110 1.05343 2.87421 8.24217
3939 21 201 0.808125 -1.82576 19.551
4028 21 268 0.582948 7.62911 18.0374
3928 21 194 -0.0338044 10.431 10.7319
4029 21 269 0.355202 9.45482 7.01131
4033 21 273 6.37415 -23.2804 -4.28145
4064 21 294 8.87021 -14.5376 17.576
4046 21 282 7.78493 -10.6239 0.950172
3834 21 130 5.34102 -9.22138 2.6025
4055 21 289 5.38391 -10.9527 4.98231
3868 21 152 8.73116 -2.40445 -0.149437
4067 21 297 5.71539 -2.73809 1.76327
4022 21 262 7.56416 0.926471 -0.117543
3825 21 125 8.76771 -2.30837 13.4332
4019 21 259 5.00032 10.2138 20.3684
3997 21 245 16.8208 -21.7541 9.81023
3978 21 232 14.7789 -19.1114 12.1488
3996 21 244 13.0123 -13.8858 -6.2795
4054 21 288 16.7332 -11.8762 -7.66151
4026 21 266 15.6012 2.36989 -8.80953
3974 21 230 12.2349 -1.83369 6.85193
3867 21 151 12.8066 -2.25015 16.9123
3991 21 241 10.0578 4.45852 -7.08588
3957 21 213 14.7158 5.66328 15.4912
ITEM: TIMESTEP
1235000
ITEM: NUMBER OF ATOMS
50
ITEM: BOX BOUNDS pp pp pp
-1.9134415972830290e+01 1.7315396193904853e+01
-2.4389306730389286e+01 1.4161898488301880e+01
-9.2900304843146451e+00 2.0662689306697370e+01
ITEM: ATOMS id type mol x y z
4031 21 271 -14.1889 -9.12783 5.10281
3995 21 243 -13.9821 3.62721 -2.20512
3958 21 214 -12.7935 6.64754 20.6516
3990 21 240 -12.427 5.89702 14.587
3793 21 103 -11.9213 12.0299 6.41054
3897 21 173 -16.454 12.2485 16.0202
4045 21 281 -11.3138 -21.8647 10.0568
3960 21 216 -9.51175 -23.9834 19.4144
3800 21 108 -7.72638 -15.0758 1.64968
3942 21 204 -10.6127 -9.85262 5.49882
4044 21 280 -11.064 -13.3462 3.6061
3938 21 200 -11.1979 -3.2841 -4.94705
4049 21 285 -11.8226 -6.72469 -4.30072
4053 21 287 -5.97308 2.14061 -5.40793
4066 21 296 -8.97034 0.718074 19.3127
3965 21 221 -10.6378 5.65287 1.35761
3968 21 224 -11.3618 11.7108 3.24221
3940 21 202 -9.34485 12.8676 12.9894
3988 21 238 -1.37423 -15.9385 -1.27767
4065 21 295 0.371609 -15.7671 -9.2104
4043 21 279 0.473931 -8.79831 -5.09481
3943 21 205 2.18726 -8.11743 20.0895
3821 21 123 -2.0635 -9.12916 17.6373
3810 21 116 2.20481 -4.72564 11.1572
3889 21 167 1.61967 2.72631 4.98395
3802 21 110 1.07098 2.79078 8.23215
3939 21 201 0.823487 -1.8601 19.4966
4028 21 268 0.596297 7.49603 17.989
3928 21 194 -0.0259722 10.2686 10.7121
4029 21 269 0.366513 9.30267 7.00611
4033 21 273 6.4393 -23.0907 -4.24236
4064 21 294 8.95768 -14.4392 17.5294
4046 21 282 7.86269 -10.5663 0.968745
3834 21 130 5.39692 -9.17848 2.61459
4055 21 289 5.4402 -10.8917 4.98507
3868 21 152 8.81739 -2.43275 -0.126552
4067 21 297 5.77464 -2.7629 1.77866
4022 21 262 7.63995 0.863389 -0.0947829
3825 21 125 8.85426 -2.33766 13.4028
4019 21 259 5.05318 10.0537 20.3109
3997 21 245 16.9794 -21.5803 9.79406
3978 21 232 14.9193 -18.9652 12.1234
3996 21 244 13.1369 -13.7942 -6.23257
4054 21 288 16.891 -11.8056 -7.60916
4026 21 266 15.7489 2.29174 -8.75268
3974 21 230 12.3524 -1.86795 6.84735
3867 21 151 12.9293 -2.28006 16.8682
3991 21 241 10.1559 4.35855 -7.03579
3957 21 213 14.8556 5.55073 15.4528
4072 21 300 13.9728 3.86736 18.6929
ITEM: TIMESTEP
1240000
ITEM: NUMBER OF ATOMS
49
ITEM: BOX BOUNDS pp pp pp
-1.9083192727574893e+01 1.7264172948649456e+01
-2.4413008809647117e+01 1.4185600567559710e+01
-9.2582247665747559e+00 2.0630883588948940e+01
ITEM: ATOMS id type mol x y z
4031 21 271 -14.1515 -9.13276 5.10405
3995 21 243 -13.9454 3.63795 -2.18836
3958 21 214 -12.7601 6.66201 20.6198
3990 21 240 -12.3946 5.91056 14.5681
3793 21 103 -11.8904 12.051 6.409
3897 21 173 -16.4103 12.2699 15.9982
4045 21 281 -11.2846 -21.8853 10.0475
3960 21 216 -9.48757 -24.0066 19.3853
3800 21 108 -7.70722 -15.0881 1.65825
3942 21 204 -10.5854 -9.85845 5.49922
4044 21 280 -11.0354 -13.3563 3.61052
3938 21 200 -11.1689 -3.28185 -4.92446
4049 21 285 -11.792 -6.72667 -4.27951
4053 21 287 -5.95885 2.14953 -5.38437
4066 21 296 -8.94769 0.725245 19.2837
3965 21 221 -10.6105 5.66611 1.36681
3968 21 224 -11.3325 11.7315 3.2474
3940 21 202 -9.32114 12.8897 12.9739
3988 21 238 -1.37292 -15.9518 -1.26288
4065 21 295 0.368008 -15.7802 -9.17876
4043 21 279 0.470043 -8.80284 -5.07192
3943 21 205 2.17856 -8.12112 20.0589
3821 21 123 -2.06026 -9.1341 17.612
3810 21 116 2.19605 -4.72516 11.1456
3889 21 167 1.61256 2.73595 4.98544
3939 21 201 0.818616 -1.8561 19.4673
4028 21 268 0.592064 7.51154 17.9628
3928 21 194 -0.0284555 10.2875 10.7014
4029 21 269 0.362927 9.3204 7.00331
4033 21 273 6.41864 -23.1128 -4.22127
4064 21 294 8.92995 -14.4507 17.5043
4046 21 282 7.83803 -10.573 0.978764
3834 21 130 5.3792 -9.18348 2.62112
4055 21 289 5.42235 -10.8988 4.98656
3868 21 152 8.79005 -2.42945 -0.114207
4067 21 297 5.75586 -2.76001 1.78696
4022 21 262 7.61592 0.870738 -0.0825054
3825 21 125 8.82682 -2.33425 13.3865
4019 21 259 5.03642 10.0724 20.2798
3997 21 245 16.9291 -21.6005 9.78534
3978 21 232 14.8748 -18.9823 12.1097
3996 21 244 13.0974 -13.8049 -6.20726
4054 21 288 16.841 -11.8138 -7.58093
4026 21 266 15.7021 2.30084 -8.72202
3974 21 230 12.3152 -1.86396 6.84489
3867 21 151 12.8904 -2.27657 16.8445
3991 21 241 10.1248 4.37019 -7.00877
3957 21 213 14.8113 5.56384 15.432
4072 21 300 13.931 3.8784 18.6653
ITEM: TIMESTEP
1245000
ITEM: NUMBER OF ATOMS
51
ITEM: BOX BOUNDS pp pp pp
-1.9103225196310373e+01 1.7284205417384936e+01
-2.4430241305333130e+01 1.4202833063245723e+01
-9.2987847671787840e+00 2.0671443589523275e+01
ITEM: ATOMS id type mol x y z
4073 21 301 -16.8485 -8.24226 4.08856
4031 21 271 -14.1661 -9.13635 5.10247
3995 21 243 -13.9597 3.64577 -2.20973
3958 21 214 -12.7731 6.67252 20.6604
3990 21 240 -12.4073 5.9204 14.5922
3793 21 103 -11.9025 12.0663 6.41096
3897 21 173 -16.4274 12.2854 16.0262
4045 21 281 -11.296 -21.9003 10.0594
3960 21 216 -9.49702 -24.0235 19.4225
3800 21 108 -7.71472 -15.097 1.64732
3942 21 204 -10.5961 -9.86269 5.49871
4044 21 280 -11.0466 -13.3636 3.60489
3938 21 200 -11.1802 -3.28021 -4.95326
4049 21 285 -11.804 -6.72811 -4.30656
4053 21 287 -5.96442 2.15601 -5.41442
4066 21 296 -8.95655 0.730459 19.3206
3965 21 221 -10.6212 5.67573 1.35508
3968 21 224 -11.3439 11.7466 3.24078
3940 21 202 -9.33041 12.9058 12.9937
3988 21 238 -1.37343 -15.9615 -1.28174
4065 21 295 0.369417 -15.7897 -9.2191
4043 21 279 0.471564 -8.80613 -5.10111
3943 21 205 2.18196 -8.1238 20.0979
3821 21 123 -2.06152 -9.13769 17.6443
3810 21 116 2.19948 -4.72482 11.1604
3889 21 167 1.61534 2.74296 4.98353
3939 21 201 0.820521 -1.85319 19.5047
4028 21 268 0.59372 7.52281 17.9962
3928 21 194 -0.0274844 10.3013 10.715
4029 21 269 0.364329 9.33329 7.00689
4033 21 273 6.42672 -23.1288 -4.24816
4064 21 294 8.94079 -14.459 17.5363
4046 21 282 7.84768 -10.5779 0.965987
3834 21 130 5.38613 -9.18711 2.6128
4055 21 289 5.42933 -10.904 4.98466
3868 21 152 8.80074 -2.42705 -0.12995
4067 21 297 5.7632 -2.75791 1.77637
4022 21 262 7.62532 0.876082 -0.0981622
3825 21 125 8.83755 -2.33177 13.4074
4019 21 259 5.04297 10.086 20.3194
3997 21 245 16.9488 -21.6153 9.79646
3978 21 232 14.8922 -18.9946 12.1272
3996 21 244 13.1128 -13.8126 -6.23954
4054 21 288 16.8606 -11.8198 -7.61693
4026 21 266 15.7204 2.30746 -8.76112
3974 21 230 12.3297 -1.86105 6.84803
3867 21 151 12.9056 -2.27404 16.8748
3991 21 241 10.1369 4.37866 -7.04323
4074 21 302 16.8183 6.45352 12.3751
4072 21 300 13.9473 3.88643 18.7005
3957 21 213 14.8286 5.57338 15.4585
ITEM: TIMESTEP
1250000
ITEM: NUMBER OF ATOMS
51
ITEM: BOX BOUNDS pp pp pp
-1.9120119927870974e+01 1.7301100148945537e+01
-2.4398991477490583e+01 1.4171583235403176e+01
-9.2538602859028956e+00 2.0626519108242803e+01
ITEM: ATOMS id type mol x y z
4073 21 301 -16.8633 -8.2372 4.09335
4031 21 271 -14.1784 -9.12984 5.10422
4075 21 303 -15.515 -1.08112 11.2832
3995 21 243 -13.9719 3.6316 -2.18606
3958 21 214 -12.7842 6.65345 20.6155
3990 21 240 -12.418 5.90255 14.5655
3793 21 103 -11.9127 12.0385 6.40879
3897 21 173 -16.4418 12.2573 15.9952
4045 21 281 -11.3057 -21.8731 10.0463
3960 21 216 -9.505 -23.9929 19.3813
3800 21 108 -7.72104 -15.0808 1.65943
3942 21 204 -10.6051 -9.85501 5.49927
4044 21 280 -11.056 -13.3503 3.61113
3938 21 200 -11.1898 -3.28318 -4.92136
4049 21 285 -11.8141 -6.7255 -4.2766
4053 21 287 -5.96911 2.14425 -5.38114
4066 21 296 -8.96402 0.721004 19.2797
3965 21 221 -10.6302 5.65828 1.36807
3968 21 224 -11.3536 11.7193 3.24811
3940 21 202 -9.33823 12.8767 12.9718
3988 21 238 -1.37386 -15.9439 -1.26085
4065 21 295 0.370604 -15.7724 -9.17442
4043 21 279 0.472846 -8.80016 -5.06877
3943 21 205 2.18484 -8.11893 20.0547
3821 21 123 -2.06259 -9.13118 17.6085
3810 21 116 2.20236 -4.72544 11.144
3889 21 167 1.61768 2.73025 4.98564
3939 21 201 0.822127 -1.85846 19.4632
4028 21 268 0.595116 7.50237 17.9593
3928 21 194 -0.0266653 10.2764 10.6999
4029 21 269 0.365512 9.30991 7.00293
4033 21 273 6.43353 -23.0997 -4.21838
4064 21 294 8.94994 -14.4439 17.5008
4046 21 282 7.85581 -10.5691 0.980139
3834 21 130 5.39198 -9.18052 2.62201
3868 21 152 8.80976 -2.4314 -0.112513
4067 21 297 5.7694 -2.76172 1.7881
4022 21 262 7.63325 0.866392 -0.0808207
3825 21 125 8.8466 -2.33627 13.3842
4019 21 259 5.0485 10.0614 20.2756
3997 21 245 16.9654 -21.5886 9.78414
3978 21 232 14.9068 -18.9722 12.1079
3996 21 244 13.1258 -13.7986 -6.20379
4054 21 288 16.8771 -11.809 -7.57705
4026 21 266 15.7358 2.29546 -8.71781
3974 21 230 12.342 -1.86632 6.84455
3867 21 151 12.9184 -2.27863 16.8412
3991 21 241 10.1472 4.3633 -7.00507
4074 21 302 16.8348 6.4348 12.355
4072 21 300 13.9611 3.87187 18.6615
3957 21 213 14.8432 5.55609 15.4292
ITEM: TIMESTEP
1255000
ITEM: NUMBER OF ATOMS
50
ITEM: BOX BOUNDS pp pp pp
-1.9140419643443867e+01 1.7321399864518430e+01
-2.4429675088752731e+01 1.4202266846665324e+01
-9.1828660170097436e+00 2.0555524839353001e+01
ITEM: ATOMS id type mol x y z
4031 21 271 -14.1932 -9.13623 5.10698
4075 21 303 -15.5313 -1.0747 11.2566
3995 21 243 -13.9864 3.64551 -2.14865
3958 21 214 -12.7974 6.67217 20.5445
3990 21 240 -12.4308 5.92008 14.5233
3793 21 103 -11.925 12.0658 6.40535
3897 21 173 -16.4591 12.2849 15.9462
4045 21 281 -11.3173 -21.8998 10.0256
3960 21 216 -9.51458 -24.0229 19.3162
3800 21 108 -7.72863 -15.0967 1.67856
3942 21 204 -10.6159 -9.86255 5.50016
4044 21 280 -11.0673 -13.3634 3.62099
3938 21 200 -11.2012 -3.28027 -4.87096
4049 21 285 -11.8262 -6.72806 -4.22926
4053 21 287 -5.97475 2.1558 -5.32855
4066 21 296 -8.973 0.730288 19.2151
3965 21 221 -10.641 5.67542 1.38859
3968 21 224 -11.3653 11.7461 3.2597
3940 21 202 -9.34763 12.9053 12.9372
3988 21 238 -1.37438 -15.9612 -1.22784
4065 21 295 0.372031 -15.7894 -9.1038
4043 21 279 0.474387 -8.80602 -5.01767
3943 21 205 2.18828 -8.12372 19.9865
3821 21 123 -2.06388 -9.13757 17.5518
3810 21 116 2.20583 -4.72483 11.1181
3889 21 167 1.6205 2.74273 4.98897
3939 21 201 0.824058 -1.85328 19.3978
4028 21 268 0.596793 7.52244 17.9009
3928 21 194 -0.0256812 10.3008 10.6761
4029 21 269 0.366934 9.33286 6.99667
4033 21 273 6.44172 -23.1283 -4.17132
4064 21 294 8.96093 -14.4588 17.4447
4046 21 282 7.86558 -10.5777 1.0025
3834 21 130 5.399 -9.18699 2.63657
3868 21 152 8.82059 -2.42713 -0.0849576
4067 21 297 5.77684 -2.75798 1.80662
4022 21 262 7.64277 0.875906 -0.0534158
3825 21 125 8.85748 -2.33185 13.3476
4019 21 259 5.05514 10.0855 20.2062
3997 21 245 16.9853 -21.6148 9.76467
3978 21 232 14.9245 -18.9942 12.0774
3996 21 244 13.1415 -13.8124 -6.14729
4054 21 288 16.8969 -11.8196 -7.51403
4026 21 266 15.7544 2.30725 -8.64937
3974 21 230 12.3568 -1.86115 6.83905
3867 21 151 12.9339 -2.27412 16.7882
3991 21 241 10.1595 4.37838 -6.94476
4074 21 302 16.8545 6.45318 12.3233
4072 21 300 13.9777 3.88617 18.5999
3957 21 213 14.8608 5.57306 15.3829
ITEM: TIMESTEP
1260000
ITEM: NUMBER OF ATOMS
51
ITEM: BOX BOUNDS pp pp pp
-1.9081375556000058e+01 1.7262355777074621e+01
-2.4584703889157971e+01 1.4357295647070565e+01
-9.2547763524009241e+00 2.0627435174705170e+01
ITEM: ATOMS id type mol x y z
4031 21 271 -14.1502 -9.16852 5.10418
4075 21 303 -15.484 -1.04228 11.2835
3995 21 243 -13.9441 3.71581 -2.18654
3958 21 214 -12.7589 6.76677 20.6164
3990 21 240 -12.3935 6.00864 14.566
3793 21 103 -11.8893 12.2037 6.40883
3897 21 173 -16.4087 12.4245 15.9958
4045 21 281 -11.2836 -22.0345 10.0465
3960 21 216 -9.48671 -24.1747 19.3821
4080 21 306 -8.84876 -23.3898 11.5828
3800 21 108 -7.70654 -15.1768 1.65918
3942 21 204 -10.5844 -9.90066 5.49926
4044 21 280 -11.0344 -13.4296 3.611
3938 21 200 -11.1679 -3.26555 -4.92201
4049 21 285 -11.7909 -6.74102 -4.27721
4053 21 287 -5.95835 2.21414 -5.38182
4066 21 296 -8.94688 0.777191 19.2806
3965 21 221 -10.6095 5.76201 1.3678
3968 21 224 -11.3314 11.8814 3.24796
3940 21 202 -9.3203 13.0499 12.9722
3988 21 238 -1.37287 -16.0482 -1.26127
4065 21 295 0.367881 -15.8751 -9.17533
4043 21 279 0.469905 -8.83566 -5.06943
3943 21 205 2.17825 -8.14787 20.0556
3821 21 123 -2.06014 -9.16987 17.6092
3810 21 116 2.19574 -4.72171 11.1444
3889 21 167 1.61231 2.80578 4.9856
3939 21 201 0.818443 -1.82711 19.4641
4028 21 268 0.591914 7.62386 17.96
3928 21 194 -0.0285436 10.4246 10.7002
4029 21 269 0.3628 9.44881 7.00301
4033 21 273 6.41791 -23.2729 -4.21899
4064 21 294 8.92896 -14.5338 17.5015
4046 21 282 7.83716 -10.6216 0.97985
3834 21 130 5.37857 -9.21968 2.62183
3868 21 152 8.78908 -2.40557 -0.112869
4067 21 297 5.75519 -2.73907 1.78786
4022 21 262 7.61507 0.923979 -0.0811743
3825 21 125 8.82584 -2.30952 13.3847
4019 21 259 5.03582 10.2075 20.2764
3997 21 245 16.9273 -21.7472 9.78439
3978 21 232 14.8732 -19.1056 12.1083
3996 21 244 13.096 -13.8822 -6.20452
4054 21 288 16.8392 -11.8735 -7.57786
4026 21 266 15.7004 2.36681 -8.7187
3974 21 230 12.3138 -1.83504 6.84462
3867 21 151 12.889 -2.25133 16.8419
4079 21 305 13.0623 3.52064 -9.20001
3991 21 241 10.1237 4.45457 -7.00585
4074 21 302 16.797 6.54601 12.3554
3957 21 213 14.8097 5.65883 15.4298
ITEM: TIMESTEP
1265000
ITEM: NUMBER OF ATOMS
52
ITEM: BOX BOUNDS pp pp pp
-1.8962921965432280e+01 1.7143902186506843e+01
-2.4450005548679801e+01 1.4222597306592395e+01
-9.2911276496326494e+00 2.0663786471908175e+01
ITEM: ATOMS id type mol x y z
4031 21 271 -14.0639 -9.14047 5.10276
4075 21 303 -15.389 -1.07045 11.2971
3995 21 243 -13.8591 3.65473 -2.2057
3958 21 214 -12.6817 6.68458 20.6527
3990 21 240 -12.3186 5.93169 14.5876
3793 21 103 -11.8177 12.0839 6.41059
3897 21 173 -16.3077 12.3032 16.0209
4045 21 281 -11.2159 -21.9174 10.0571
3960 21 216 -9.4308 -24.0428 19.4154
4080 21 306 -8.797 -23.2634 11.5971
3800 21 108 -7.66224 -15.1072 1.64938
3942 21 204 -10.5214 -9.86755 5.49881
4044 21 280 -10.9684 -13.3721 3.60595
3938 21 200 -11.101 -3.27834 -4.94782
4049 21 285 -11.7199 -6.72976 -4.30145
4053 21 287 -5.92543 2.16345 -5.40875
4066 21 296 -8.89449 0.736439 19.3137
3965 21 221 -10.5463 5.68677 1.3573
3968 21 224 -11.2635 11.7638 3.24203
3940 21 202 -9.26547 12.9243 12.99
3988 21 238 -1.36985 -15.9726 -1.27818
4065 21 295 0.359554 -15.8006 -9.21149
4043 21 279 0.460913 -8.80991 -5.0956
3943 21 205 2.15812 -8.12688 20.0906
3821 21 123 -2.05264 -9.14181 17.6382
3810 21 116 2.1755 -4.72442 11.1576
3889 21 167 1.59587 2.751 4.98389
4082 21 308 0.379666 -1.80579 -5.98943
3939 21 201 0.80718 -1.84985 19.4976
4028 21 268 0.582127 7.53574 17.9899
3928 21 194 -0.0342862 10.3171 10.7124
4029 21 269 0.354506 9.34807 7.00621
4033 21 273 6.37015 -23.1473 -4.24309
4064 21 294 8.86483 -14.4686 17.5303
4046 21 282 7.78014 -10.5835 0.968399
3834 21 130 5.33758 -9.19128 2.61437
3868 21 152 8.72586 -2.4243 -0.126978
4067 21 297 5.71175 -2.7555 1.77837
4022 21 262 7.5595 0.882211 -0.0952065
3825 21 125 8.76238 -2.32892 13.4034
4019 21 259 4.99707 10.1015 20.3119
3997 21 245 16.8111 -21.6321 9.79436
3978 21 232 14.7703 -19.0088 12.1239
3996 21 244 13.0047 -13.8215 -6.23345
4054 21 288 16.7235 -11.8267 -7.61014
4081 21 307 10.1461 0.730223 -1.69123
3974 21 230 12.2277 -1.85773 6.84744
3867 21 151 12.7991 -2.27113 16.8691
4079 21 305 12.9713 3.46091 -9.23622
3991 21 241 10.0517 4.38837 -7.03672
4074 21 302 16.6816 6.46535 12.3717
3957 21 213 14.7072 5.58431 15.4535
ITEM: TIMESTEP
1270000
ITEM: NUMBER OF ATOMS
52
ITEM: BOX BOUNDS pp pp pp
-1.9030279676929528e+01 1.7211259898004091e+01
-2.4556373604813992e+01 1.4328965362726585e+01
-9.3196015061995432e+00 2.0692260328448508e+01
ITEM: ATOMS id type mol x y z
4031 21 271 -14.113 -9.16262 5.10165
4075 21 303 -15.443 -1.04821 11.3078
3995 21 243 -13.9074 3.70297 -2.2207
3958 21 214 -12.7256 6.74948 20.6812
3990 21 240 -12.3612 5.99245 14.6045
3793 21 103 -11.8584 12.1785 6.41197
3897 21 173 -16.3652 12.399 16.0406
4045 21 281 -11.2544 -22.0099 10.0655
3960 21 216 -9.46259 -24.147 19.4415
4080 21 306 -8.82643 -23.3632 11.6083
3800 21 108 -7.68743 -15.1622 1.64171
3942 21 204 -10.5572 -9.8937 5.49845
4044 21 280 -11.0059 -13.4175 3.60199
3938 21 200 -11.1391 -3.26824 -4.96804
4049 21 285 -11.7603 -6.73865 -4.32044
4053 21 287 -5.94415 2.20348 -5.42984
4066 21 296 -8.92428 0.76862 19.3396
3965 21 221 -10.5822 5.74619 1.34907
3968 21 224 -11.3021 11.8567 3.23738
3940 21 202 -9.29665 13.0235 13.0038
3988 21 238 -1.37157 -16.0323 -1.29142
4065 21 295 0.364289 -15.8594 -9.23981
4043 21 279 0.466026 -8.83024 -5.1161
3943 21 205 2.16957 -8.14346 20.118
3821 21 123 -2.05691 -9.16396 17.6609
3810 21 116 2.18701 -4.72228 11.168
3889 21 167 1.60522 2.79426 4.98256
4082 21 308 0.384476 -1.78759 -6.01163
3939 21 201 0.813585 -1.8319 19.5239
4028 21 268 0.587693 7.60532 18.0133
3928 21 194 -0.0310207 10.402 10.722
4029 21 269 0.359222 9.42762 7.00872
4033 21 273 6.39731 -23.2465 -4.26197
4064 21 294 8.9013 -14.52 17.5528
4046 21 282 7.81256 -10.6136 0.95943
3834 21 130 5.36089 -9.21371 2.60853
3868 21 152 8.76181 -2.40951 -0.13803
4067 21 297 5.73645 -2.74253 1.77094
4022 21 262 7.5911 0.915194 -0.106198
3825 21 125 8.79847 -2.3136 13.4181
4019 21 259 5.01911 10.1852 20.3397
3997 21 245 16.8772 -21.723 9.80217
3978 21 232 14.8288 -19.0853 12.1361
3996 21 244 13.0566 -13.8694 -6.25611
4054 21 288 16.7893 -11.8636 -7.63541
4081 21 307 10.1873 0.76237 -1.70526
3974 21 230 12.2767 -1.83981 6.84965
3867 21 151 12.8502 -2.2555 16.8903
4079 21 305 13.0231 3.50808 -9.26459
3991 21 241 10.0926 4.44064 -7.06091
4074 21 302 16.7472 6.52905 12.3844
3957 21 213 14.7655 5.64316 15.4721
ITEM: TIMESTEP
1275000
ITEM: NUMBER OF ATOMS
52
ITEM: BOX BOUNDS pp pp pp
-1.9050728217089549e+01 1.7231708438164112e+01
-2.4509377993110213e+01 1.4281969751022807e+01
-9.2567703947402080e+00 2.0629429216990356e+01
ITEM: ATOMS id type mol x y z
4031 21 271 -14.1279 -9.15283 5.1041
4075 21 303 -15.4594 -1.05803 11.2843
3995 21 243 -13.9221 3.68166 -2.18759
3958 21 214 -12.7389 6.72081 20.6184
3990 21 240 -12.3741 5.96561 14.5672
3793 21 103 -11.8708 12.1367 6.40893
3897 21 173 -16.3826 12.3567 15.9972
4045 21 281 -11.2661 -21.969 10.0471
3960 21 216 -9.47225 -24.1009 19.3839
4080 21 306 -8.83537 -23.3191 11.5835
3800 21 108 -7.69508 -15.1379 1.65864
3942 21 204 -10.5681 -9.88214 5.49924
4044 21 280 -11.0173 -13.3974 3.61072
3938 21 200 -11.1506 -3.2727 -4.92343
4049 21 285 -11.7725 -6.73472 -4.27854
4053 21 287 -5.94983 2.18579 -5.38329
4066 21 296 -8.93333 0.754402 19.2824
3965 21 221 -10.5931 5.71994 1.36723
3968 21 224 -11.3138 11.8156 3.24764
3940 21 202 -9.30612 12.9796 12.9732
3988 21 238 -1.37209 -16.0059 -1.2622
4065 21 295 0.365726 -15.8334 -9.17731
4043 21 279 0.467579 -8.82126 -5.07087
3943 21 205 2.17304 -8.13614 20.0575
3821 21 123 -2.0582 -9.15417 17.6108
3810 21 116 2.1905 -4.72322 11.1451
3889 21 167 1.60805 2.77515 4.98551
4082 21 308 0.385936 -1.79563 -5.96265
3939 21 201 0.815529 -1.83983 19.4659
4028 21 268 0.589382 7.57458 17.9616
3928 21 194 -0.0300294 10.3644 10.7009
4029 21 269 0.360654 9.39247 7.00318
4033 21 273 6.40555 -23.2026 -4.22031
4064 21 294 8.91237 -14.4973 17.5031
4046 21 282 7.82241 -10.6003 0.979222
3834 21 130 5.36796 -9.2038 2.62142
3868 21 152 8.77272 -2.41604 -0.113643
4067 21 297 5.74395 -2.74826 1.78734
4022 21 262 7.60069 0.900621 -0.081944
3825 21 125 8.80943 -2.32037 13.3857
4019 21 259 5.0258 10.1482 20.2784
3997 21 245 16.8973 -21.6829 9.78494
3978 21 232 14.8466 -19.0515 12.1091
3996 21 244 13.0724 -13.8483 -6.2061
4054 21 288 16.8093 -11.8473 -7.57963
4081 21 307 10.1998 0.748167 -1.67431
3974 21 230 12.2915 -1.84773 6.84478
3867 21 151 12.8658 -2.2624 16.8434
4079 21 305 13.0388 3.48724 -9.20199
3991 21 241 10.1051 4.41755 -7.00754
4074 21 302 16.7671 6.5009 12.3563
3957 21 213 14.7832 5.61716 15.4311
ITEM: TIMESTEP
1280000
ITEM: NUMBER OF ATOMS
52
ITEM: BOX BOUNDS pp pp pp
-1.9294371169468516e+01 1.7475351390543079e+01
-2.4354532482337678e+01 1.4127124240250271e+01
-9.3411308288809423e+00 2.0713789651087843e+01
ITEM: ATOMS id type mol x y z
4031 21 271 -14.3054 -9.12059 5.10082
4075 21 303 -15.6548 -1.09041 11.3159
3995 21 243 -14.0968 3.61144 -2.23204
3958 21 214 -12.8978 6.62633 20.7027
3990 21 240 -12.5281 5.87716 14.6173
3793 21 103 -12.018 11.999 6.41301
3897 21 173 -16.5904 12.2172 16.0554
4045 21 281 -11.4052 -21.8345 10.0717
3960 21 216 -9.58725 -23.9494 19.4613
4080 21 306 -8.94181 -23.1738 11.6168
3800 21 108 -7.78621 -15.0578 1.6359
3942 21 204 -10.6978 -9.84408 5.49818
4044 21 280 -11.1531 -13.3313 3.599
3938 21 200 -11.2882 -3.2874 -4.98333
4049 21 285 -11.9184 -6.72178 -4.3348
4053 21 287 -6.01752 2.12752 -5.44579
4066 21 296 -9.04109 0.707554 19.3591
3965 21 221 -10.7232 5.63345 1.34284
3968 21 224 -11.4536 11.6805 3.23387
3940 21 202 -9.41889 12.8352 13.0143
3988 21 238 -1.37831 -15.919 -1.30143
4065 21 295 0.382853 -15.7478 -9.26122
4043 21 279 0.486073 -8.79166 -5.1316
3943 21 205 2.21444 -8.11201 20.1387
3821 21 123 -2.07363 -9.12192 17.6781
3810 21 116 2.23214 -4.72634 11.1759
3889 21 167 1.64187 2.71217 4.98155
4082 21 308 0.403335 -1.82212 -6.02841
3939 21 201 0.838697 -1.86597 19.5437
4028 21 268 0.609513 7.47328 18.0309
3928 21 194 -0.0182177 10.2409 10.7292
4029 21 269 0.377713 9.27666 7.01062
4033 21 273 6.5038 -23.0582 -4.27624
4064 21 294 9.04428 -14.4224 17.5698
4046 21 282 7.93968 -10.5565 0.952648
3834 21 130 5.45227 -9.17115 2.60411
3868 21 152 8.90276 -2.43758 -0.146386
4067 21 297 5.83331 -2.76714 1.76532
4022 21 262 7.71499 0.852606 -0.114508
3825 21 125 8.93995 -2.34267 13.4292
4019 21 259 5.10551 10.0264 20.3608
3997 21 245 17.1364 -21.5506 9.80808
3978 21 232 15.0582 -18.9402 12.1454
3996 21 244 13.2601 -13.7785 -6.27324
4054 21 288 17.0473 -11.7935 -7.65453
4081 21 307 10.349 0.701369 -1.71586
3974 21 230 12.4688 -1.8738 6.85132
3867 21 151 13.0508 -2.28517 16.9064
4079 21 305 13.2261 3.41857 -9.28604
3991 21 241 10.253 4.34146 -7.0792
4074 21 302 17.0045 6.40818 12.394
3957 21 213 14.9939 5.53149 15.4861
ITEM: TIMESTEP
1285000
ITEM: NUMBER OF ATOMS
50
ITEM: BOX BOUNDS pp pp pp
-1.8974363584163541e+01 1.7155343805238104e+01
-2.4429177774605595e+01 1.4201769532518188e+01
-9.4049158235038384e+00 2.0777574645673404e+01
ITEM: ATOMS id type mol x y z
4031 21 271 -14.0722 -9.13613 5.09833
4075 21 303 -15.3981 -1.0748 11.3398
3995 21 243 -13.8673 3.64529 -2.26565
3958 21 214 -12.6891 6.67187 20.7664
3990 21 240 -12.3259 5.9198 14.6552
3793 21 103 -11.8246 12.0654 6.41609
3897 21 173 -16.3175 12.2845 16.0994
3960 21 216 -9.4362 -24.0224 19.5197
4080 21 306 -8.802 -23.2438 11.642
3800 21 108 -7.66652 -15.0964 1.61871
3942 21 204 -10.5275 -9.86243 5.49738
4044 21 280 -10.9748 -13.3632 3.59014
3938 21 200 -11.1075 -3.28031 -5.02862
4049 21 285 -11.7268 -6.72802 -4.37733
4053 21 287 -5.92861 2.15561 -5.49304
4066 21 296 -8.89955 0.730137 19.4172
3965 21 221 -10.5524 5.67514 1.32441
3968 21 224 -11.27 11.7456 3.22346
3988 21 238 -1.37015 -15.9609 -1.33109
4065 21 295 0.360358 -15.7891 -9.32467
4043 21 279 0.461782 -8.80593 -5.17752
3943 21 205 2.16007 -8.12364 20.2
3821 21 123 -2.05336 -9.13747 17.729
3810 21 116 2.17746 -4.72484 11.1992
3889 21 167 1.59746 2.74253 4.97856
4082 21 308 0.380483 -1.80935 -6.07814
3939 21 201 0.808268 -1.85337 19.6025
4028 21 268 0.583073 7.52211 18.0833
3928 21 194 -0.0337315 10.3004 10.7506
4029 21 269 0.355307 9.33249 7.01624
4033 21 273 6.37476 -23.1278 -4.31852
4064 21 294 8.87102 -14.4585 17.6203
4046 21 282 7.78565 -10.5776 0.932556
3834 21 130 5.34154 -9.18689 2.59103
3868 21 152 8.73196 -2.4272 -0.171143
4067 21 297 5.71594 -2.75804 1.74868
4022 21 262 7.56487 0.875752 -0.13913
3825 21 125 8.76851 -2.33192 13.462
4019 21 259 5.00081 10.0851 20.4231
3997 21 245 16.8223 -21.6143 9.82557
3978 21 232 14.7802 -18.9939 12.1728
3996 21 244 13.0135 -13.8122 -6.324
4054 21 288 16.7347 -11.8195 -7.71115
4081 21 307 10.1531 0.723929 -1.74728
3974 21 230 12.236 -1.86123 6.85626
3867 21 151 12.8078 -2.27419 16.954
4079 21 305 12.9801 3.45167 -9.34959
3991 21 241 10.0587 4.37814 -7.13339
4074 21 302 16.6927 6.45288 12.4225
3957 21 213 14.7171 5.57279 15.5277
ITEM: TIMESTEP
1290000
ITEM: NUMBER OF ATOMS
53
ITEM: BOX BOUNDS pp pp pp
-1.9023386640862245e+01 1.7204366861936808e+01
-2.4740790353874374e+01 1.4513382111786967e+01
-9.1710309331411146e+00 2.0543689755364408e+01
ITEM: ATOMS id type mol x y z
4031 21 271 -14.108 -9.20102 5.10744
4075 21 303 -15.4375 -1.00964 11.2522
3995 21 243 -13.9025 3.78659 -2.14241
3958 21 214 -12.7211 6.86201 20.5327
3990 21 240 -12.3568 6.0978 14.5162
3793 21 103 -11.8543 12.3425 6.40478
3897 21 173 -16.3593 12.5651 15.938
3960 21 216 -9.45934 -24.3275 19.3053
4080 21 306 -8.82342 -23.5363 11.5497
3800 21 108 -7.68485 -15.2575 1.68175
3942 21 204 -10.5536 -9.93904 5.50031
4044 21 280 -11.0021 -13.4963 3.62263
3938 21 200 -11.1352 -3.25074 -4.86255
4049 21 285 -11.7562 -6.75406 -4.22137
4053 21 287 -5.94223 2.27289 -5.31978
4066 21 296 -8.92124 0.824415 19.2044
3965 21 221 -10.5786 5.84919 1.39201
3968 21 224 -11.2982 12.0176 3.26163
3988 21 238 -1.3714 -16.1359 -1.22233
4065 21 295 0.363804 -15.9613 -9.09203
4043 21 279 0.465503 -8.86549 -5.00915
3943 21 205 2.1684 -8.1722 19.9751
3821 21 123 -2.05647 -9.20238 17.5424
3810 21 116 2.18583 -4.71856 11.1138
3889 21 167 1.60426 2.86927 4.98953
4082 21 308 0.383984 -1.75604 -5.89581
3939 21 201 0.812929 -1.80077 19.3869
4028 21 268 0.587123 7.72596 17.8912
3928 21 194 -0.0313549 10.5491 10.6721
4029 21 269 0.358739 9.56555 6.99563
4033 21 273 6.39453 -23.4185 -4.16347
4064 21 294 8.89757 -14.6093 17.4353
4046 21 282 7.80925 -10.6658 1.00623
3834 21 130 5.3585 -9.2526 2.639
3868 21 152 8.75813 -2.38386 -0.0803639
4067 21 297 5.73392 -2.72003 1.80971
4022 21 262 7.58787 0.972379 -0.0488472
4083 21 309 3.73372 -0.639068 1.30591
3825 21 125 8.79478 -2.28704 13.3415
4019 21 259 5.01685 10.3303 20.1947
3997 21 245 16.8704 -21.8805 9.76142
3978 21 232 14.8228 -19.2178 12.0723
3996 21 244 13.0513 -13.9525 -6.13787
4054 21 288 16.7826 -11.9276 -7.50352
4081 21 307 10.1831 0.818106 -1.63207
3974 21 230 12.2717 -1.80876 6.83813
3867 21 151 12.845 -2.22839 16.7794
4079 21 305 13.0178 3.58986 -9.11657
3991 21 241 10.0885 4.53127 -6.93471
4085 21 311 11.4013 6.46497 -9.01115
4074 21 302 16.7405 6.63948 12.3181
4084 21 310 11.9575 7.44022 7.69273
3957 21 213 14.7595 5.74519 15.3752
ITEM: TIMESTEP
1295000
ITEM: NUMBER OF ATOMS
52
ITEM: BOX BOUNDS pp pp pp
-1.9174935064728167e+01 1.7355915285802730e+01
-2.4399823669953435e+01 1.4172415427866028e+01
-9.1748988793564301e+00 2.0547557701560859e+01
ITEM: ATOMS id type mol x y z
4031 21 271 -14.2184 -9.13002 5.10729
4075 21 303 -15.559 -1.08094 11.2536
3995 21 243 -14.0112 3.63198 -2.14445
3958 21 214 -12.8199 6.65396 20.5366
3990 21 240 -12.4526 5.90303 14.5185
3793 21 103 -11.9458 12.0393 6.40497
3897 21 173 -16.4885 12.258 15.9407
3960 21 216 -9.53087 -23.9937 19.3089
4080 21 306 -8.88963 -23.2163 11.5512
3800 21 108 -7.74154 -15.0812 1.68071
3942 21 204 -10.6342 -9.85521 5.50026
4044 21 280 -11.0865 -13.3507 3.62209
3938 21 200 -11.2207 -3.2831 -4.8653
4049 21 285 -11.8469 -6.72557 -4.22394
4053 21 287 -5.98434 2.14456 -5.32265
4066 21 296 -8.98827 0.721256 19.2079
3965 21 221 -10.6594 5.65874 1.39089
3968 21 224 -11.3851 11.72 3.261
3988 21 238 -1.37526 -15.9444 -1.22413
4065 21 295 0.374457 -15.7729 -9.09588
4043 21 279 0.477007 -8.80032 -5.01193
3943 21 205 2.19415 -8.11906 19.9788
3821 21 123 -2.06606 -9.13135 17.5455
3810 21 116 2.21173 -4.72543 11.1152
3889 21 167 1.62529 2.73059 4.98934
4082 21 308 0.394806 -1.81437 -5.89882
3939 21 201 0.82734 -1.85832 19.3904
4028 21 268 0.599645 7.50291 17.8944
3928 21 194 -0.0240079 10.277 10.6734
4029 21 269 0.36935 9.31054 6.99597
4033 21 273 6.45564 -23.1005 -4.16603
4064 21 294 8.97962 -14.4443 17.4384
4046 21 282 7.88219 -10.5693 1.00501
3834 21 130 5.41094 -9.1807 2.63821
3868 21 152 8.83901 -2.43128 -0.0818652
4022 21 262 7.65896 0.86665 -0.0503403
4083 21 309 3.77256 -0.716803 1.30476
3825 21 125 8.87597 -2.33615 13.3435
4019 21 259 5.06643 10.062 20.1984
3997 21 245 17.0192 -21.5893 9.76248
3978 21 232 14.9544 -18.9728 12.0739
3996 21 244 13.1681 -13.7989 -6.14094
4054 21 288 16.9306 -11.8093 -7.50695
4081 21 307 10.2759 0.715057 -1.63398
3974 21 230 12.3819 -1.86618 6.83843
3867 21 151 12.9601 -2.27851 16.7823
4079 21 305 13.1343 3.43866 -9.12042
3991 21 241 10.1805 4.36371 -6.93799
4085 21 311 11.5043 6.26382 -9.01498
4074 21 302 16.8882 6.4353 12.3198
4084 21 310 12.0651 7.22213 7.69326
3957 21 213 14.8906 5.55655 15.3777
ITEM: TIMESTEP
1300000
ITEM: NUMBER OF ATOMS
52
ITEM: BOX BOUNDS pp pp pp
-1.9160466879672075e+01 1.7341447100746638e+01
-2.4560005166286384e+01 1.4332596924198977e+01
-9.1460706621786549e+00 2.0518729484374347e+01
ITEM: ATOMS id type mol x y z
4031 21 271 -14.2078 -9.16337 5.10842
4075 21 303 -15.5474 -1.04745 11.2428
3995 21 243 -14.0008 3.70461 -2.12926
3958 21 214 -12.8105 6.7517 20.5078
3990 21 240 -12.4435 5.99453 14.5014
3793 21 103 -11.9371 12.1817 6.40358
3897 21 173 -16.4762 12.4023 15.9208
3960 21 216 -9.52404 -24.1505 19.2825
4080 21 306 -8.88331 -23.3666 11.5399
3800 21 108 -7.73613 -15.164 1.68848
3942 21 204 -10.6265 -9.89459 5.50062
4044 21 280 -11.0785 -13.4191 3.6261
3938 21 200 -11.2126 -3.2679 -4.84483
4049 21 285 -11.8382 -6.73895 -4.20472
4053 21 287 -5.98032 2.20485 -5.30129
4066 21 296 -8.98187 0.769719 19.1817
3965 21 221 -10.6517 5.74821 1.39922
3968 21 224 -11.3768 11.8598 3.2657
3988 21 238 -1.37489 -16.0343 -1.21073
4065 21 295 0.37344 -15.8614 -9.0672
4089 21 313 -2.67793 -15.0627 -4.15783
4043 21 279 0.475909 -8.83094 -4.99118
3943 21 205 2.19169 -8.14403 19.9511
3821 21 123 -2.06515 -9.16472 17.5225
3810 21 116 2.20926 -4.7222 11.1047
3889 21 167 1.62328 2.79574 4.9907
4082 21 308 0.393773 -1.78697 -5.87635
3939 21 201 0.825964 -1.83128 19.3638
4028 21 268 0.598449 7.6077 17.8707
3928 21 194 -0.0247093 10.4048 10.6638
4029 21 269 0.368337 9.43034 6.99343
4033 21 273 6.4498 -23.2499 -4.14692
4064 21 294 8.97178 -14.5218 17.4156
4046 21 282 7.87523 -10.6146 1.01409
3834 21 130 5.40594 -9.21448 2.64412
3868 21 152 8.83129 -2.409 -0.0706759
4022 21 262 7.65217 0.91632 -0.0392122
4083 21 309 3.76886 -0.680284 1.31326
3825 21 125 8.86822 -2.31308 13.3287
4019 21 259 5.0617 10.1881 20.1703
3997 21 245 17.005 -21.7261 9.75458
3978 21 232 14.9419 -19.0879 12.0615
3996 21 244 13.1569 -13.8711 -6.118
4081 21 307 10.267 0.763468 -1.61978
3974 21 230 12.3714 -1.8392 6.83619
3867 21 151 12.9491 -2.25496 16.7608
4079 21 305 13.1232 3.50969 -9.0917
3991 21 241 10.1717 4.44243 -6.9135
4085 21 311 11.4944 6.35832 -8.98646
4074 21 302 16.8741 6.53122 12.3069
4084 21 310 12.0548 7.32459 7.68936
3957 21 213 14.8781 5.64517 15.3589
ITEM: TIMESTEP
1305000
ITEM: NUMBER OF ATOMS
52
ITEM: BOX BOUNDS pp pp pp
-1.9060829053990844e+01 1.7241809275065407e+01
-2.4501173749839189e+01 1.4273765507751783e+01
-9.1781480343166386e+00 2.0550806856484829e+01
ITEM: ATOMS id type mol x y z
4031 21 271 -14.1352 -9.15112 5.10717
4075 21 303 -15.4675 -1.05975 11.2548
3995 21 243 -13.9293 3.67793 -2.14616
3958 21 214 -12.7455 6.7158 20.5398
3990 21 240 -12.3805 5.96092 14.5205
3793 21 103 -11.8769 12.1294 6.40513
3897 21 173 -16.3912 12.3493 15.943
3960 21 216 -9.47701 -24.0929 19.3119
4080 21 306 -8.83978 -23.3114 11.5525
3800 21 108 -7.69886 -15.1336 1.67983
3942 21 204 -10.5735 -9.88013 5.50022
4044 21 280 -11.023 -13.3939 3.62164
3938 21 200 -11.1563 -3.27348 -4.86761
4049 21 285 -11.7786 -6.73404 -4.22611
4053 21 287 -5.95264 2.18271 -5.32505
4066 21 296 -8.9378 0.751919 19.2109
3965 21 221 -10.5985 5.71535 1.38995
3968 21 224 -11.3196 11.8085 3.26047
3988 21 238 -1.37235 -16.0013 -1.22564
4065 21 295 0.366436 -15.8289 -9.09911
4089 21 313 -2.66828 -15.0326 -4.17912
4043 21 279 0.468345 -8.81969 -5.01427
3943 21 205 2.17476 -8.13486 19.9819
3821 21 123 -2.05884 -9.15246 17.5481
3810 21 116 2.19223 -4.72339 11.1164
3889 21 167 1.60946 2.77181 4.98919
4082 21 308 0.386658 -1.79704 -5.90136
3939 21 201 0.81649 -1.84121 19.3934
4028 21 268 0.590217 7.56921 17.8971
3928 21 194 -0.0295397 10.3579 10.6745
4029 21 269 0.361361 9.38634 6.99625
4033 21 273 6.40963 -23.195 -4.16819
4064 21 294 8.91784 -14.4933 17.4409
4046 21 282 7.82727 -10.598 1.00399
3834 21 130 5.37146 -9.20207 2.63754
3868 21 152 8.77811 -2.41719 -0.0831264
4022 21 262 7.60543 0.898077 -0.0515945
4083 21 309 3.74331 -0.693697 1.30381
3825 21 125 8.81484 -2.32155 13.3452
4019 21 259 5.0291 10.1418 20.2016
3997 21 245 16.9072 -21.6758 9.76337
3978 21 232 14.8553 -19.0456 12.0753
3996 21 244 13.0801 -13.8446 -6.14353
4081 21 307 10.206 0.745688 -1.63558
3974 21 230 12.2989 -1.84911 6.83868
3867 21 151 12.8734 -2.26361 16.7847
4079 21 305 13.0465 3.4836 -9.12366
3991 21 241 10.1112 4.41352 -6.94075
4085 21 311 11.4267 6.32361 -9.01819
4074 21 302 16.777 6.49599 12.3212
4084 21 310 11.984 7.28696 7.69369
3957 21 213 14.7919 5.61262 15.3798
ITEM: TIMESTEP
1310000
ITEM: NUMBER OF ATOMS
49
ITEM: BOX BOUNDS pp pp pp
-1.9147285936269853e+01 1.7328266157344416e+01
-2.4375223826996542e+01 1.4147815584909136e+01
-9.3393408840376892e+00 2.0711999706138165e+01
ITEM: ATOMS id type mol x y z
4031 21 271 -14.1982 -9.12489 5.10089
4075 21 303 -15.5368 -1.08608 11.3152
3958 21 214 -12.8019 6.63895 20.7009
3990 21 240 -12.4351 5.88898 14.6163
3793 21 103 -11.9291 12.0174 6.41292
3897 21 173 -16.465 12.2359 16.0542
3960 21 216 -9.51782 -23.9696 19.4596
4080 21 306 -8.87755 -23.1932 11.6161
3800 21 108 -7.7312 -15.0685 1.63639
3942 21 204 -10.6195 -9.84916 5.4982
4044 21 280 -11.0711 -13.3401 3.59925
3938 21 200 -11.2051 -3.28544 -4.98206
4049 21 285 -11.8303 -6.72351 -4.3336
4053 21 287 -5.97666 2.13531 -5.44446
4066 21 296 -8.97604 0.713814 19.3575
3965 21 221 -10.6447 5.645 1.34336
3968 21 224 -11.3692 11.6985 3.23416
3988 21 238 -1.37455 -15.9306 -1.3006
4065 21 295 0.372514 -15.7593 -9.25944
4089 21 313 -2.67666 -14.9681 -4.28611
4043 21 279 0.474908 -8.79561 -5.13031
3943 21 205 2.18945 -8.11523 20.1369
3821 21 123 -2.06431 -9.12623 17.6767
3810 21 116 2.207 -4.72592 11.1753
3889 21 167 1.62145 2.72058 4.98163
4082 21 308 0.392831 -1.81858 -6.02702
3939 21 201 0.824711 -1.86247 19.5421
4028 21 268 0.59736 7.48682 18.0295
3928 21 194 -0.0253483 10.2574 10.7286
4029 21 269 0.367414 9.29214 7.01046
4033 21 273 6.44449 -23.0775 -4.27505
4064 21 294 8.96465 -14.4324 17.5684
4046 21 282 7.86888 -10.5623 0.953212
3834 21 130 5.40138 -9.17551 2.60448
3868 21 152 8.82426 -2.4347 -0.145691
4083 21 309 3.76548 -0.722411 1.25628
3825 21 125 8.86115 -2.33969 13.4283
4019 21 259 5.05739 10.0427 20.359
3997 21 245 16.992 -21.5683 9.80759
3978 21 232 14.9304 -18.9551 12.1446
3996 21 244 13.1468 -13.7879 -6.27182
4081 21 307 10.259 0.707622 -1.71498
3974 21 230 12.3618 -1.87032 6.85118
3867 21 151 12.9391 -2.28213 16.9051
4079 21 305 13.113 3.42775 -9.28426
3991 21 241 10.1637 4.35163 -7.07768
4074 21 302 16.8612 6.42057 12.3932
4084 21 310 12.0455 7.2064 7.71546
3957 21 213 14.8667 5.54294 15.4849
ITEM: TIMESTEP
1315000
ITEM: NUMBER OF ATOMS
49
ITEM: BOX BOUNDS pp pp pp
-1.8994107746666156e+01 1.7175087967740719e+01
-2.4399124167823224e+01 1.4171715925735818e+01
-9.3072844603275051e+00 2.0679943282420261e+01
ITEM: ATOMS id type mol x y z
4031 21 271 -14.0866 -9.12987 5.10213
4075 21 303 -15.414 -1.08109 11.3032
3958 21 214 -12.702 6.65353 20.6689
3990 21 240 -12.3383 5.90263 14.5972
3793 21 103 -11.8366 12.0386 6.41137
3897 21 173 -16.3343 12.2574 16.0321
3960 21 216 -9.44552 -23.993 19.4302
4080 21 306 -8.81063 -23.2156 11.6035
3800 21 108 -7.6739 -15.0809 1.64503
3942 21 204 -10.538 -9.85504 5.4986
4044 21 280 -10.9858 -13.3504 3.60371
3938 21 200 -11.1186 -3.28317 -4.9593
4049 21 285 -11.7386 -6.72551 -4.31223
4053 21 287 -5.9341 2.1443 -5.42071
4066 21 296 -8.90829 0.721045 19.3284
3965 21 221 -10.5629 5.65835 1.35263
3968 21 224 -11.2814 11.7194 3.23939
3988 21 238 -1.37065 -15.944 -1.28569
4065 21 295 0.361746 -15.7725 -9.22756
4089 21 313 -2.66181 -14.9804 -4.26483
4043 21 279 0.463281 -8.80018 -5.10723
3943 21 205 2.16342 -8.11896 20.1061
3821 21 123 -2.05461 -9.13121 17.6511
3810 21 116 2.18083 -4.72544 11.1635
3889 21 167 1.6002 2.7303 4.98314
4082 21 308 0.381893 -1.81449 -6.00203
3939 21 201 0.810145 -1.85844 19.5125
4028 21 268 0.584704 7.50245 18.0031
3928 21 194 -0.0327743 10.2765 10.7179
4029 21 269 0.356689 9.31001 7.00763
4033 21 273 6.38272 -23.0998 -4.2538
4064 21 294 8.88171 -14.444 17.5431
4046 21 282 7.79515 -10.5691 0.96331
3834 21 130 5.34837 -9.18055 2.61106
3868 21 152 8.7425 -2.43138 -0.133249
4083 21 309 3.72621 -0.716962 1.26573
3825 21 125 8.77909 -2.33625 13.4117
4019 21 259 5.00727 10.0615 20.3277
3997 21 245 16.8417 -21.5887 9.79879
3978 21 232 14.7974 -18.9723 12.1308
3996 21 244 13.0287 -13.7986 -6.2463
4081 21 307 10.1652 0.714846 -1.69919
3974 21 230 12.2503 -1.86629 6.84869
3867 21 151 12.8228 -2.27861 16.8811
4079 21 305 12.9952 3.43835 -9.25232
3991 21 241 10.0707 4.36337 -7.05045
4074 21 302 16.712 6.43488 12.3789
4084 21 310 11.9367 7.22168 7.71113
3957 21 213 14.7342 5.55616 15.464
ITEM: TIMESTEP
1320000
ITEM: NUMBER OF ATOMS
49
ITEM: BOX BOUNDS pp pp pp
-1.9288647404716318e+01 1.7469627625790881e+01
-2.4271475446345082e+01 1.4044067204257676e+01
-9.2474101546964924e+00 2.0620068976790023e+01
ITEM: ATOMS id type mol x y z
4031 21 271 -14.3012 -9.10329 5.10447
4075 21 303 -15.6502 -1.10778 11.2808
3958 21 214 -12.894 6.57565 20.609
3990 21 240 -12.5245 5.82971 14.5616
3793 21 103 -12.0145 11.9251 6.40848
3897 21 173 -16.5855 12.1424 15.9907
3960 21 216 -9.58454 -23.8681 19.3754
4080 21 306 -8.93931 -23.0958 11.5799
3800 21 108 -7.78407 -15.0149 1.66117
3942 21 204 -10.6948 -9.82366 5.49935
4044 21 280 -11.1499 -13.2958 3.61202
3938 21 200 -11.2849 -3.29528 -4.91678
4049 21 285 -11.915 -6.71484 -4.2723
4053 21 287 -6.01593 2.09626 -5.37636
4066 21 296 -9.03856 0.682425 19.2739
3965 21 221 -10.7201 5.58705 1.36993
3968 21 224 -11.4503 11.608 3.24916
3988 21 238 -1.37816 -15.8723 -1.25785
4065 21 295 0.382451 -15.7019 -9.168
4089 21 313 -2.69035 -14.9151 -4.22509
4043 21 279 0.485639 -8.77578 -5.06413
3943 21 205 2.21347 -8.09906 20.0485
3821 21 123 -2.07326 -9.10461 17.6033
3810 21 116 2.23116 -4.72801 11.1417
3889 21 167 1.64107 2.67838 4.98594
4082 21 308 0.402926 -1.83633 -5.95535
3939 21 201 0.838153 -1.87999 19.4573
4028 21 268 0.60904 7.41895 17.954
3928 21 194 -0.0184951 10.1746 10.6978
4029 21 269 0.377312 9.21454 7.00236
4033 21 273 6.50149 -22.9808 -4.21411
4064 21 294 9.04118 -14.3822 17.4957
4046 21 282 7.93692 -10.533 0.98217
3834 21 130 5.45029 -9.15363 2.62334
3868 21 152 8.8997 -2.44913 -0.11001
4083 21 309 3.80171 -0.746064 1.28339
3825 21 125 8.93689 -2.35463 13.3809
4019 21 259 5.10364 9.96103 20.2693
3997 21 245 17.1308 -21.4796 9.78237
3978 21 232 15.0532 -18.8805 12.1051
3996 21 244 13.2557 -13.7411 -6.19865
4081 21 307 10.3455 0.676267 -1.6697
3974 21 230 12.4647 -1.88779 6.84405
3867 21 151 13.0464 -2.29738 16.8364
4079 21 305 13.2217 3.38174 -9.19267
3991 21 241 10.2495 4.30064 -6.99959
4074 21 302 16.999 6.35844 12.3522
4084 21 310 12.1459 7.14004 7.70305
3957 21 213 14.989 5.48554 15.425
ITEM: TIMESTEP
1325000
ITEM: NUMBER OF ATOMS
49
ITEM: BOX BOUNDS pp pp pp
-1.9177007352535771e+01 1.7357987573610334e+01
-2.4382838526711105e+01 1.4155430284623698e+01
-9.2139550919083106e+00 2.0586613913994455e+01
ITEM: ATOMS id type mol x y z
4031 21 271 -14.2199 -9.12648 5.10577
4075 21 303 -15.5607 -1.08449 11.2682
3958 21 214 -12.8213 6.6436 20.5756
3990 21 240 -12.4539 5.89333 14.5417
3793 21 103 -11.9471 12.0242 6.40686
3897 21 173 -16.4903 12.2427 15.9677
3960 21 216 -9.53185 -23.9771 19.3447
4080 21 306 -8.89054 -23.2004 11.5667
3800 21 108 -7.74231 -15.0725 1.67018
3942 21 204 -10.6353 -9.85103 5.49977
4044 21 280 -11.0877 -13.3434 3.61667
3938 21 200 -11.2219 -3.28471 -4.89303
4049 21 285 -11.8481 -6.72415 -4.24999
4053 21 287 -5.98492 2.13817 -5.35158
4066 21 296 -8.98918 0.716117 19.2434
3965 21 221 -10.6606 5.64926 1.3796
3968 21 224 -11.3863 11.7052 3.25462
3988 21 238 -1.37531 -15.9349 -1.24229
4065 21 295 0.374603 -15.7635 -9.13472
4089 21 313 -2.67954 -14.972 -4.20289
4043 21 279 0.477164 -8.79707 -5.04005
3943 21 205 2.1945 -8.11642 20.0164
3821 21 123 -2.0662 -9.12781 17.5766
3810 21 116 2.21208 -4.72577 11.1295
3889 21 167 1.62558 2.72368 4.98751
4082 21 308 0.394954 -1.81728 -5.92927
3939 21 201 0.827537 -1.86119 19.4264
4028 21 268 0.599816 7.4918 17.9265
3928 21 194 -0.0239074 10.2635 10.6865
4029 21 269 0.369495 9.29783 6.99941
4033 21 273 6.45647 -23.0846 -4.19193
4064 21 294 8.98074 -14.4361 17.4693
4046 21 282 7.88319 -10.5645 0.992709
3834 21 130 5.41166 -9.17712 2.6302
3868 21 152 8.84012 -2.43364 -0.0970244
4083 21 309 3.7731 -0.720675 1.29325
3825 21 125 8.87708 -2.3386 13.3636
4019 21 259 5.06711 10.0487 20.2366
3997 21 245 17.0212 -21.5748 9.77319
3978 21 232 14.9562 -18.9606 12.0907
3996 21 244 13.1697 -13.7913 -6.17203
4081 21 307 10.2772 0.709924 -1.65322
3974 21 230 12.3834 -1.86904 6.84146
3867 21 151 12.9616 -2.28101 16.8114
4079 21 305 13.1359 3.43112 -9.15933
3991 21 241 10.1817 4.35537 -6.97117
4074 21 302 16.8902 6.42513 12.3372
4084 21 310 12.0666 7.21127 7.69853
3957 21 213 14.8924 5.54715 15.4032
ITEM: TIMESTEP
1330000
ITEM: NUMBER OF ATOMS
48
ITEM: BOX BOUNDS pp pp pp
-1.9260534504699852e+01 1.7441514725774415e+01
-2.4225298971287359e+01 1.3997890729199952e+01
-9.2289717538789624e+00 2.0601630575942526e+01
ITEM: ATOMS id type mol x y z
4031 21 271 -14.2808 -9.09367 5.10519
4075 21 303 -15.6277 -1.11743 11.2739
3958 21 214 -12.8757 6.54747 20.5906
3990 21 240 -12.5067 5.80333 14.5507
3793 21 103 -11.9975 11.884 6.40758
3897 21 173 -16.5615 12.1008 15.978
3960 21 216 -9.57128 -23.8229 19.3585
4080 21 306 -8.92703 -23.0525 11.5726
3800 21 108 -7.77356 -14.991 1.66613
3942 21 204 -10.6798 -9.8123 5.49958
4044 21 280 -11.1342 -13.2761 3.61458
3938 21 200 -11.269 -3.29967 -4.90369
4049 21 285 -11.8982 -6.71098 -4.26
4053 21 287 -6.00812 2.07888 -5.3627
4066 21 296 -9.02613 0.668454 19.2571
3965 21 221 -10.7051 5.56126 1.37526
3968 21 224 -11.4342 11.5677 3.25217
3988 21 238 -1.37744 -15.8464 -1.24928
4065 21 295 0.380475 -15.6764 -9.14966
4089 21 313 -2.68763 -14.8914 -4.21285
4043 21 279 0.483505 -8.76696 -5.05086
3943 21 205 2.20869 -8.09187 20.0308
3821 21 123 -2.07148 -9.09499 17.5886
3810 21 116 2.22636 -4.72894 11.1349
3889 21 167 1.63717 2.6596 4.98681
4082 21 308 0.400918 -1.84423 -5.94098
3939 21 201 0.835479 -1.88778 19.4403
4028 21 268 0.606717 7.38874 17.9388
3928 21 194 -0.019858 10.1377 10.6916
4029 21 269 0.375343 9.18001 7.00073
4033 21 273 6.49015 -22.9377 -4.20188
4064 21 294 9.02596 -14.3599 17.4811
4046 21 282 7.92339 -10.5199 0.987979
3834 21 130 5.44056 -9.14389 2.62712
3868 21 152 8.8847 -2.45556 -0.102853
4083 21 309 3.79451 -0.756591 1.28882
3825 21 125 8.92183 -2.36129 13.3714
3997 21 245 17.1032 -21.4402 9.77731
3978 21 232 15.0288 -18.8474 12.0972
3996 21 244 13.2341 -13.7203 -6.18398
4081 21 307 10.3283 0.662311 -1.66061
3974 21 230 12.4442 -1.89556 6.84262
3867 21 151 13.0251 -2.30417 16.8226
4079 21 305 13.2001 3.36126 -9.1743
3991 21 241 10.2324 4.27795 -6.98392
4074 21 302 16.9716 6.33079 12.3439
4084 21 310 12.1259 7.1105 7.70056
3957 21 213 14.9647 5.45999 15.413
ITEM: TIMESTEP
1335000
ITEM: NUMBER OF ATOMS
47
ITEM: BOX BOUNDS pp pp pp
-1.9190800746344301e+01 1.7371780967418864e+01
-2.4326272187309780e+01 1.4098863945222373e+01
-9.3157737023818434e+00 2.0688432524400348e+01
ITEM: ATOMS id type mol x y z
4031 21 271 -14.2299 -9.1147 5.1018
3958 21 214 -12.8302 6.60908 20.6773
3990 21 240 -12.4626 5.86101 14.6023
3793 21 103 -11.9554 11.9738 6.41178
3897 21 173 -16.5021 12.1918 16.0379
3960 21 216 -9.53836 -23.9217 19.438
4080 21 306 -8.89656 -23.1473 11.6068
3800 21 108 -7.74747 -15.0432 1.64274
3942 21 204 -10.6427 -9.83713 5.4985
4044 21 280 -11.0954 -13.3192 3.60253
3938 21 200 -11.2297 -3.29008 -4.96532
4049 21 285 -11.8564 -6.71942 -4.31789
4053 21 287 -5.98875 2.11688 -5.427
4066 21 296 -8.99528 0.699003 19.3361
3965 21 221 -10.6679 5.61766 1.35017
3968 21 224 -11.3942 11.6558 3.23801
3988 21 238 -1.37566 -15.9031 -1.28964
4089 21 313 -2.68087 -14.9431 -4.27046
4065 21 295 0.375573 -15.7322 -9.236
4043 21 279 0.478211 -8.78626 -5.11334
3943 21 205 2.19685 -8.1076 20.1143
3821 21 123 -2.06707 -9.11603 17.6579
3810 21 116 2.21444 -4.72691 11.1666
3889 21 167 1.62749 2.70067 4.98274
4082 21 308 0.395939 -1.82696 -6.00864
3939 21 201 0.828848 -1.87074 19.5203
4028 21 268 0.600955 7.45479 18.0101
3928 21 194 -0.0232387 10.2183 10.7207
4029 21 269 0.370461 9.25553 7.00838
4033 21 273 6.46203 -23.0319 -4.25943
4064 21 294 8.98821 -14.4087 17.5498
4046 21 282 7.88983 -10.5485 0.960636
3834 21 130 5.41643 -9.16519 2.60931
3868 21 152 8.84748 -2.44151 -0.136544
4083 21 309 3.77663 -0.733571 1.26323
3825 21 125 8.88447 -2.34674 13.4161
3997 21 245 17.0347 -21.5264 9.80112
3978 21 232 14.9682 -18.9199 12.1345
3996 21 244 13.1803 -13.7658 -6.25306
4081 21 307 10.2856 0.692828 -1.70337
3974 21 230 12.3935 -1.87856 6.84935
3867 21 151 12.9721 -2.28932 16.8875
4079 21 305 13.1465 3.40604 -9.26078
3991 21 241 10.1901 4.32757 -7.05766
4074 21 302 16.9036 6.39126 12.3827
4084 21 310 12.0764 7.17509 7.71228
3957 21 213 14.9043 5.51585 15.4696
ITEM: TIMESTEP
1340000
ITEM: NUMBER OF ATOMS
48
ITEM: BOX BOUNDS pp pp pp
-1.9237692320797706e+01 1.7418672541872269e+01
-2.4475702039518460e+01 1.4248293797431053e+01
-9.1575005351178760e+00 2.0530159357168838e+01
ITEM: ATOMS id type mol x y z
4031 21 271 -14.2641 -9.14582 5.10797
3958 21 214 -12.8608 6.70026 20.5192
3990 21 240 -12.4923 5.94637 14.5082
3793 21 103 -11.9837 12.1067 6.40413
3897 21 173 -16.5421 12.3264 15.9287
3960 21 216 -9.56049 -24.068 19.2929
4080 21 306 -8.91705 -23.2875 11.5444
4097 21 317 -9.81997 -22.8914 8.61169
3800 21 108 -7.76501 -15.1205 1.6854
3942 21 204 -10.6677 -9.87386 5.50048
4044 21 280 -11.1215 -13.3831 3.62451
3938 21 200 -11.2562 -3.2759 -4.85295
4049 21 285 -11.8845 -6.73191 -4.21234
4053 21 287 -6.00178 2.17312 -5.30976
4066 21 296 -9.01602 0.744213 19.1921
3965 21 221 -10.6929 5.70113 1.39592
3968 21 224 -11.4211 11.7862 3.26384
3988 21 238 -1.37686 -15.987 -1.21604
4089 21 313 -2.68542 -15.0195 -4.16542
4065 21 295 0.378869 -15.8148 -9.07857
4043 21 279 0.481771 -8.81482 -4.99941
3943 21 205 2.20481 -8.13089 19.9621
3821 21 123 -2.07004 -9.14716 17.5316
3810 21 116 2.22245 -4.7239 11.1088
3889 21 167 1.634 2.76145 4.99016
4082 21 308 0.399287 -1.80139 -5.88526
3939 21 201 0.833307 -1.84551 19.3744
4028 21 268 0.60483 7.55255 17.8801
3928 21 194 -0.0209654 10.3376 10.6676
4029 21 269 0.373744 9.36729 6.99443
4033 21 273 6.48094 -23.1712 -4.1545
4064 21 294 9.01359 -14.481 17.4246
4046 21 282 7.9124 -10.5908 1.01049
3834 21 130 5.43266 -9.1967 2.64178
3868 21 152 8.87251 -2.42073 -0.0751123
4083 21 309 3.78865 -0.699504 1.30989
3825 21 125 8.90959 -2.32522 13.3346
3997 21 245 17.0808 -21.6541 9.75771
3978 21 232 15.009 -19.0273 12.0665
3996 21 244 13.2165 -13.8331 -6.1271
4081 21 307 10.3143 0.737989 -1.62541
3974 21 230 12.4276 -1.8534 6.83708
3867 21 151 13.0077 -2.26735 16.7693
4079 21 305 13.1825 3.4723 -9.10309
3991 21 241 10.2186 4.401 -6.92321
4074 21 302 16.9493 6.48074 12.312
4084 21 310 12.1097 7.27067 7.69091
3957 21 213 14.9449 5.59853 15.3664
ITEM: TIMESTEP
1345000
ITEM: NUMBER OF ATOMS
47
ITEM: BOX BOUNDS pp pp pp
-1.9032877428669149e+01 1.7213857649743712e+01
-2.4311054754206889e+01 1.4083646512119483e+01
-9.3666588987910124e+00 2.0739317720757764e+01
ITEM: ATOMS id type mol x y z
4031 21 271 -14.1149 -9.11153 5.09982
3958 21 214 -12.7273 6.5998 20.7282
3990 21 240 -12.3628 5.85232 14.6325
3793 21 103 -11.86 11.9603 6.41424
3897 21 173 -16.3674 12.1781 16.073
3960 21 216 -9.46382 -23.9068 19.4847
4097 21 317 -9.7204 -22.7403 8.65291
4080 21 306 -8.82757 -23.133 11.6269
3800 21 108 -7.6884 -15.0354 1.62902
3942 21 204 -10.5586 -9.83339 5.49786
4044 21 280 -11.0074 -13.3127 3.59546
3938 21 200 -11.1405 -3.29153 -5.00145
4049 21 285 -11.7618 -6.71815 -4.35182
4053 21 287 -5.94487 2.11116 -5.4647
4066 21 296 -8.92543 0.694399 19.3824
3965 21 221 -10.5836 5.60916 1.33546
3968 21 224 -11.3036 11.6425 3.2297
3988 21 238 -1.37164 -15.8945 -1.3133
4065 21 295 0.364471 -15.7238 -9.28662
4043 21 279 0.466224 -8.78335 -5.14998
3943 21 205 2.17001 -8.10523 20.1632
3821 21 123 -2.05707 -9.11286 17.6985
3810 21 116 2.18745 -4.72722 11.1852
3889 21 167 1.60558 2.69448 4.98035
4082 21 308 0.384662 -1.82956 -6.04831
3939 21 201 0.813832 -1.8733 19.5673
4028 21 268 0.587907 7.44484 18.0519
3928 21 194 -0.0308948 10.2062 10.7378
4029 21 269 0.359404 9.24415 7.01287
4033 21 273 6.39835 -23.0177 -4.29316
4064 21 294 8.9027 -14.4014 17.59
4046 21 282 7.81381 -10.5442 0.944607
3834 21 130 5.36179 -9.16198 2.59888
3868 21 152 8.76319 -2.44363 -0.156294
4083 21 309 3.73615 -0.73704 1.24823
3825 21 125 8.79986 -2.34893 13.4423
3997 21 245 16.8797 -21.5134 9.81508
3978 21 232 14.8311 -18.909 12.1564
3996 21 244 13.0586 -13.759 -6.29356
4081 21 307 10.1889 0.688229 -1.72843
3974 21 230 12.2786 -1.88112 6.8533
3867 21 151 12.8522 -2.29156 16.9255
4079 21 305 13.0251 3.39929 -9.31148
3991 21 241 10.0942 4.32009 -7.10089
4074 21 302 16.7497 6.38214 12.4054
4084 21 310 11.9642 7.16535 7.71915
3957 21 213 14.7677 5.50744 15.5028
ITEM: TIMESTEP
1350000
ITEM: NUMBER OF ATOMS
47
ITEM: BOX BOUNDS pp pp pp
-1.8990381066533001e+01 1.7171361287607564e+01
-2.4526413058266343e+01 1.4299004816178936e+01
-9.2105467913946946e+00 2.0583205613393346e+01
ITEM: ATOMS id type mol x y z
4031 21 271 -14.0839 -9.15638 5.1059
3958 21 214 -12.6996 6.7312 20.5722
3990 21 240 -12.336 5.97534 14.5397
3793 21 103 -11.8343 12.1518 6.40669
3897 21 173 -16.3311 12.372 15.9653
3960 21 216 -9.44376 -24.1176 19.3416
4097 21 317 -9.69974 -22.938 8.62214
4080 21 306 -8.809 -23.3351 11.5653
3800 21 108 -7.67251 -15.1467 1.6711
3942 21 204 -10.536 -9.88633 5.49981
4044 21 280 -10.9837 -13.4047 3.61714
3938 21 200 -11.1165 -3.27108 -4.89061
4049 21 285 -11.7364 -6.73615 -4.24772
4053 21 287 -5.93306 2.19221 -5.34905
4066 21 296 -8.90664 0.759556 19.2403
3965 21 221 -10.5609 5.72945 1.38059
3968 21 224 -11.2792 11.8305 3.25518
3988 21 238 -1.37055 -16.0155 -1.24071
4065 21 295 0.361484 -15.8428 -9.13133
4043 21 279 0.462998 -8.82451 -5.03759
3943 21 205 2.16279 -8.13879 20.0131
3821 21 123 -2.05438 -9.15772 17.5739
4101 21 319 -4.05737 -6.67028 11.0488
3810 21 116 2.18019 -4.72288 11.1282
3889 21 167 1.59968 2.78208 4.98767
4082 21 308 0.381627 -1.79272 -5.92661
3939 21 201 0.809791 -1.83695 19.4233
4028 21 268 0.584396 7.58572 17.9237
3928 21 194 -0.032955 10.378 10.6854
4029 21 269 0.356429 9.40521 6.99911
4033 21 273 6.38122 -23.2185 -4.18967
4064 21 294 8.8797 -14.5056 17.4666
4046 21 282 7.79336 -10.6051 0.993782
3834 21 130 5.34708 -9.20739 2.6309
3868 21 152 8.74051 -2.41368 -0.0957015
4083 21 309 3.72526 -0.687942 1.29425
3825 21 125 8.77709 -2.31792 13.3619
3997 21 245 16.838 -21.6974 9.77226
3978 21 232 14.7942 -19.0637 12.0893
3996 21 244 13.0258 -13.8559 -6.16932
4081 21 307 10.1629 0.753316 -1.65154
3974 21 230 12.2476 -1.84486 6.84119
3867 21 151 12.8199 -2.2599 16.8089
4079 21 305 12.9924 3.49479 -9.15594
3991 21 241 10.0684 4.42592 -6.96827
4074 21 302 16.7083 6.51111 12.3357
3957 21 213 14.731 5.62658 15.401
ITEM: TIMESTEP
1355000
ITEM: NUMBER OF ATOMS
45
ITEM: BOX BOUNDS pp pp pp
-1.9096470798189355e+01 1.7277451019263918e+01
-2.4493184432738889e+01 1.4265776190651483e+01
-9.1539278819189391e+00 2.0526586703918039e+01
ITEM: ATOMS id type mol x y z
4031 21 271 -14.1612 -9.14946 5.10811
3958 21 214 -12.7687 6.71093 20.5156
3990 21 240 -12.403 5.95636 14.5061
3793 21 103 -11.8984 12.1223 6.40395
3897 21 173 -16.4216 12.3421 15.9262
3960 21 216 -9.49384 -24.0851 19.2897
4080 21 306 -8.85535 -23.3039 11.543
3800 21 108 -7.71219 -15.1295 1.68636
3942 21 204 -10.5925 -9.87816 5.50052
4044 21 280 -11.0428 -13.3905 3.62501
3938 21 200 -11.1764 -3.27424 -4.85041
4049 21 285 -11.7999 -6.73337 -4.20996
4053 21 287 -5.96254 2.1797 -5.30711
4066 21 296 -8.95356 0.749502 19.1888
3965 21 221 -10.6176 5.71089 1.39695
3968 21 224 -11.3401 11.8015 3.26442
3988 21 238 -1.37326 -15.9968 -1.21438
4065 21 295 0.368942 -15.8245 -9.07502
4043 21 279 0.471051 -8.81816 -4.99684
3943 21 205 2.18082 -8.13361 19.9586
3821 21 123 -2.0611 -9.1508 17.5287
4101 21 319 -4.07584 -6.66761 11.0284
3810 21 116 2.19832 -4.72355 11.1075
3889 21 167 1.6144 2.76856 4.99033
4082 21 308 0.389203 -1.7984 -5.88248
3939 21 201 0.819879 -1.84256 19.3711
4028 21 268 0.593162 7.56399 17.8772
3928 21 194 -0.0278118 10.3515 10.6664
4029 21 269 0.363856 9.38036 6.99412
4033 21 273 6.424 -23.1875 -4.15213
4064 21 294 8.93713 -14.4895 17.4218
4046 21 282 7.84442 -10.5957 1.01162
3834 21 130 5.38379 -9.20039 2.64251
3868 21 152 8.79713 -2.4183 -0.0737256
4083 21 309 3.75245 -0.695518 1.31095
3825 21 125 8.83393 -2.3227 13.3327
3997 21 245 16.9422 -21.669 9.75673
3978 21 232 14.8863 -19.0399 12.0649
3996 21 244 13.1076 -13.841 -6.12426
4081 21 307 10.2279 0.743273 -1.62365
3974 21 230 12.3248 -1.85045 6.8368
3867 21 151 12.9005 -2.26478 16.7666
3991 21 241 10.1328 4.40959 -6.92018
4074 21 302 16.8117 6.49121 12.3104
3957 21 213 14.8228 5.6082 15.364
ITEM: TIMESTEP
1360000
ITEM: NUMBER OF ATOMS
44
ITEM: BOX BOUNDS pp pp pp
-1.9117368613589893e+01 1.7298348834664456e+01
-2.4528480677361834e+01 1.4301072435274428e+01
-9.1233863614581736e+00 2.0496045183449482e+01
ITEM: ATOMS id type mol x y z
4031 21 271 -14.1764 -9.15681 5.1093
3958 21 214 -12.7824 6.73246 20.4851
3990 21 240 -12.4162 5.97652 14.4879
3793 21 103 -11.911 12.1537 6.40248
3897 21 173 -16.4394 12.3739 15.9052
3960 21 216 -9.5037 -24.1197 19.2617
4080 21 306 -8.86448 -23.3371 11.5309
3800 21 108 -7.72001 -15.1477 1.69459
3942 21 204 -10.6036 -9.88684 5.50091
4044 21 280 -11.0545 -13.4056 3.62925
3938 21 200 -11.1882 -3.27089 -4.82873
4049 21 285 -11.8124 -6.73632 -4.18959
4053 21 287 -5.96835 2.19298 -5.28449
4066 21 296 -8.9628 0.760181 19.161
3965 21 221 -10.6287 5.73061 1.40578
3968 21 224 -11.3521 11.8323 3.2694
3988 21 238 -1.37379 -16.0166 -1.20018
4065 21 295 0.370411 -15.844 -9.04464
4043 21 279 0.472637 -8.82491 -4.97485
3943 21 205 2.18437 -8.13911 19.9293
3821 21 123 -2.06242 -9.15815 17.5044
4101 21 319 -4.07948 -6.67044 11.0174
3810 21 116 2.20189 -4.72284 11.0964
3889 21 167 1.6173 2.78292 4.99176
4082 21 308 0.390695 -1.79236 -5.85867
3939 21 201 0.821866 -1.8366 19.3429
4028 21 268 0.594888 7.58708 17.8521
3928 21 194 -0.0267987 10.3797 10.6561
4029 21 269 0.36532 9.40676 6.99143
4033 21 273 6.43242 -23.2205 -4.13188
4064 21 294 8.94845 -14.5066 17.3976
4046 21 282 7.85448 -10.6057 1.02124
3834 21 130 5.39102 -9.20783 2.64877
3868 21 152 8.80829 -2.41339 -0.0618713
4083 21 309 3.75781 -0.687471 1.31995
3825 21 125 8.84513 -2.31762 13.317
3997 21 245 16.9627 -21.6992 9.74835
3978 21 232 14.9045 -19.0652 12.0518
3996 21 244 13.1237 -13.8569 -6.09995
4081 21 307 10.2407 0.75394 -1.6086
3974 21 230 12.34 -1.84451 6.83444
3867 21 151 12.9164 -2.2596 16.7438
3991 21 241 10.1455 4.42694 -6.89423
3957 21 213 14.8408 5.62773 15.3441
ITEM: TIMESTEP
1365000
ITEM: NUMBER OF ATOMS
44
ITEM: BOX BOUNDS pp pp pp
-1.9238498528900234e+01 1.7419478749974797e+01
-2.4310903821155307e+01 1.4083495579067900e+01
-9.2939500020000025e+00 2.0666608823918580e+01
ITEM: ATOMS id type mol x y z
4031 21 271 -14.2647 -9.1115 5.10265
3958 21 214 -12.8613 6.59971 20.6555
3990 21 240 -12.4928 5.85223 14.5893
3793 21 103 -11.9842 11.9602 6.41073
3897 21 173 -16.5428 12.1779 16.0229
3960 21 216 -9.56087 -23.9067 19.418
4080 21 306 -8.9174 -23.1328 11.5982
3800 21 108 -7.76531 -15.0353 1.64862
3942 21 204 -10.6681 -9.83335 5.49877
4044 21 280 -11.1219 -13.3127 3.60556
3938 21 200 -11.2566 -3.29154 -4.94983
4049 21 285 -11.885 -6.71814 -4.30333
4053 21 287 -6.002 2.1111 -5.41084
4066 21 296 -9.01638 0.694354 19.3162
3965 21 221 -10.6934 5.60908 1.35648
3968 21 224 -11.4215 11.6424 3.24157
3988 21 238 -1.37688 -15.8945 -1.27949
4065 21 295 0.378926 -15.7237 -9.21429
4043 21 279 0.481832 -8.78332 -5.09763
3943 21 205 2.20495 -8.10521 20.0933
3821 21 123 -2.07009 -9.11283 17.6405
4101 21 319 -4.10057 -6.653 11.0788
3810 21 116 2.22259 -4.72722 11.1587
3889 21 167 1.63411 2.69442 4.98376
4082 21 308 0.399345 -1.82959 -5.99163
3939 21 201 0.833384 -1.87333 19.5002
4028 21 268 0.604896 7.44474 17.9922
3928 21 194 -0.0209263 10.2061 10.7134
4029 21 269 0.373801 9.24403 7.00646
4033 21 273 6.48127 -23.0175 -4.24496
4064 21 294 9.01403 -14.4013 17.5325
4046 21 282 7.91279 -10.5442 0.96751
3834 21 130 5.43294 -9.16195 2.61379
3868 21 152 8.87294 -2.44365 -0.128073
4083 21 309 3.78886 -0.737075 1.26966
3825 21 125 8.91002 -2.34896 13.4049
3997 21 245 17.0816 -21.5133 9.79514
3978 21 232 15.0097 -18.9089 12.1251
3996 21 244 13.2171 -13.7589 -6.23569
4081 21 307 10.3148 0.688183 -1.69262
4105 21 321 12.5855 3.08408 -7.80956
3974 21 230 12.4282 -1.88115 6.84766
3867 21 151 13.0083 -2.29158 16.8712
3957 21 213 14.9456 5.50735 15.4553
ITEM: TIMESTEP
1370000
ITEM: NUMBER OF ATOMS
43
ITEM: BOX BOUNDS pp pp pp
-1.9148692374256470e+01 1.7329672595331033e+01
-2.4273564096832711e+01 1.4046155854745304e+01
-9.2586647842908079e+00 2.0631323606202972e+01
ITEM: ATOMS id type mol x y z
4031 21 271 -14.1993 -9.10372 5.10403
3958 21 214 -12.8028 6.57692 20.6203
3990 21 240 -12.436 5.8309 14.5683
3793 21 103 -11.93 11.927 6.40902
3897 21 173 -16.4662 12.1443 15.9985
3960 21 216 -9.51849 -23.8701 19.3857
4080 21 306 -8.87817 -23.0978 11.5843
3800 21 108 -7.73172 -15.016 1.65813
3942 21 204 -10.6203 -9.82417 5.49921
4044 21 280 -11.0719 -13.2967 3.61046
3938 21 200 -11.2059 -3.29508 -4.92478
4049 21 285 -11.8312 -6.71501 -4.2798
4053 21 287 -5.97705 2.09705 -5.3847
4066 21 296 -8.97666 0.683057 19.2841
3965 21 221 -10.6454 5.58822 1.36668
3968 21 224 -11.37 11.6098 3.24733
3988 21 238 -1.37459 -15.8735 -1.26308
4065 21 295 0.372613 -15.7031 -9.1792
4043 21 279 0.475015 -8.77618 -5.07223
3943 21 205 2.18969 -8.09939 20.0594
3821 21 123 -2.0644 -9.10505 17.6123
4101 21 319 -4.08493 -6.65 11.0661
3810 21 116 2.20724 -4.72797 11.1458
3889 21 167 1.62165 2.67923 4.98542
4082 21 308 0.392932 -1.83597 -5.96413
3939 21 201 0.824844 -1.87963 19.4677
4028 21 268 0.597476 7.42031 17.9632
3928 21 194 -0.0252801 10.1763 10.7015
4029 21 269 0.367513 9.21611 7.00335
4033 21 273 6.44505 -22.9827 -4.22157
4064 21 294 8.96541 -14.3832 17.5046
4046 21 282 7.86956 -10.5336 0.978625
3834 21 130 5.40186 -9.15407 2.62103
3868 21 152 8.82501 -2.44884 -0.114378
4083 21 309 3.76584 -0.745588 1.28007
3825 21 125 8.86191 -2.35433 13.3867
3997 21 245 16.9934 -21.4814 9.78546
3978 21 232 14.9317 -18.882 12.1099
3996 21 244 13.1479 -13.7421 -6.20761
4081 21 307 10.2598 0.676898 -1.67524
3974 21 230 12.3628 -1.88744 6.84492
3867 21 151 12.9401 -2.29707 16.8448
3957 21 213 14.8679 5.48669 15.4323
ITEM: TIMESTEP
1375000
ITEM: NUMBER OF ATOMS
44
ITEM: BOX BOUNDS pp pp pp
-1.9269189270589010e+01 1.7450169491663573e+01
-2.4522727294491485e+01 1.4295319052404079e+01
-9.1229406321076283e+00 2.0495599454045916e+01
ITEM: ATOMS id type mol x y z
4031 21 271 -14.2871 -9.15561 5.10932
3958 21 214 -12.8814 6.72895 20.4847
3990 21 240 -12.5122 5.97323 14.4877
3793 21 103 -12.0028 12.1486 6.40246
3897 21 173 -16.5689 12.3687 15.9049
3960 21 216 -9.57536 -24.114 19.2613
4080 21 306 -8.93081 -23.3317 11.5307
4109 21 323 -8.91769 -23.0795 16.7059
3800 21 108 -7.77679 -15.1448 1.69471
3942 21 204 -10.6844 -9.88543 5.50091
4044 21 280 -11.139 -13.4031 3.62931
3938 21 200 -11.2739 -3.27143 -4.82841
4049 21 285 -11.9033 -6.73584 -4.1893
4053 21 287 -6.01053 2.19082 -5.28416
4066 21 296 -9.02995 0.75844 19.1606
3965 21 221 -10.7098 5.72739 1.40591
3968 21 224 -11.4391 11.8273 3.26948
3988 21 238 -1.37766 -16.0134 -1.19997
4065 21 295 0.381083 -15.8408 -9.04419
4043 21 279 0.484162 -8.82381 -4.97453
3943 21 205 2.21017 -8.13822 19.9288
3821 21 123 -2.07203 -9.15695 17.504
4101 21 319 -4.10591 -6.66998 11.0172
3810 21 116 2.22784 -4.72295 11.0962
3889 21 167 1.63837 2.78058 4.99178
4082 21 308 0.401536 -1.79335 -5.85832
3939 21 201 0.836302 -1.83758 19.3425
4028 21 268 0.607432 7.58331 17.8517
3928 21 194 -0.0194385 10.3751 10.656
4029 21 269 0.375949 9.40246 6.99139
4033 21 273 6.49364 -23.2151 -4.13159
4064 21 294 9.03065 -14.5038 17.3973
4046 21 282 7.92756 -10.6041 1.02138
3834 21 130 5.44356 -9.20662 2.64887
3868 21 152 8.88932 -2.41419 -0.0616983
4083 21 309 3.79672 -0.688783 1.32008
3825 21 125 8.92646 -2.31845 13.3168
3997 21 245 17.1117 -21.6943 9.74823
3978 21 232 15.0363 -19.0611 12.0516
3996 21 244 13.2407 -13.8543 -6.09959
4081 21 307 10.3336 0.752202 -1.60838
3974 21 230 12.4505 -1.84548 6.8344
3867 21 151 13.0316 -2.26044 16.7435
3957 21 213 14.9722 5.62455 15.3438
ITEM: TIMESTEP
1380000
ITEM: NUMBER OF ATOMS
43
ITEM: BOX BOUNDS pp pp pp
-1.9052435649107977e+01 1.7233415870182540e+01
-2.4508168317002809e+01 1.4280760074915403e+01
-9.1645576927202441e+00 2.0537216514627278e+01
ITEM: ATOMS id type mol x y z
4031 21 271 -14.1291 -9.15258 5.1077
3958 21 214 -12.74 6.72007 20.5262
3990 21 240 -12.3752 5.96492 14.5124
3793 21 103 -11.8718 12.1356 6.40447
3897 21 173 -16.3841 12.3556 15.9336
3960 21 216 -9.47305 -24.0998 19.2994
4080 21 306 -8.83611 -23.318 11.5472
4109 21 323 -8.82314 -23.066 16.7369
3800 21 108 -7.69572 -15.1372 1.6835
3942 21 204 -10.569 -9.88185 5.50039
4044 21 280 -11.0183 -13.3969 3.62353
3938 21 200 -11.1516 -3.27282 -4.85796
4049 21 285 -11.7735 -6.73462 -4.21705
4053 21 287 -5.9503 2.18534 -5.31498
4066 21 296 -8.93408 0.754036 19.1985
3965 21 221 -10.5941 5.71926 1.39388
4113 21 325 -10.635 7.26574 3.78771
3968 21 224 -11.3148 11.8146 3.26269
3988 21 238 -1.37214 -16.0052 -1.21932
4065 21 295 0.365846 -15.8328 -9.08559
4043 21 279 0.467708 -8.82103 -5.00449
3943 21 205 2.17333 -8.13595 19.9689
3821 21 123 -2.05831 -9.15392 17.5372
4101 21 319 -4.06817 -6.66882 11.0322
3810 21 116 2.1908 -4.72325 11.1114
3889 21 167 1.60829 2.77465 4.98983
4082 21 308 0.386058 -1.79584 -5.89076
3939 21 201 0.815691 -1.84003 19.3809
4028 21 268 0.589523 7.57379 17.8859
3928 21 194 -0.0299466 10.3635 10.67
4029 21 269 0.360773 9.39157 6.99506
4033 21 273 6.40624 -23.2015 -4.15918
4046 21 282 7.82323 -10.6 1.00827
3834 21 130 5.36855 -9.20355 2.64033
3868 21 152 8.77363 -2.41621 -0.0778514
3825 21 125 8.81034 -2.32055 13.3382
3997 21 245 16.8989 -21.6818 9.75965
3978 21 232 14.8481 -19.0506 12.0695
3996 21 244 13.0737 -13.8477 -6.13271
4081 21 307 10.2009 0.747801 -1.62888
3974 21 230 12.2928 -1.84793 6.83763
3867 21 151 12.8671 -2.26258 16.7746
3957 21 213 14.7847 5.61649 15.371
ITEM: TIMESTEP
1385000
ITEM: NUMBER OF ATOMS
43
ITEM: BOX BOUNDS pp pp pp
-1.9037024011233999e+01 1.7218004232308562e+01
-2.4443891268689946e+01 1.4216483026602539e+01
-9.2118186451455060e+00 2.0584477467019344e+01
ITEM: ATOMS id type mol x y z
4031 21 271 -14.1179 -9.13919 5.10585
3958 21 214 -12.73 6.68085 20.5735
3990 21 240 -12.3655 5.9282 14.5405
3793 21 103 -11.8625 12.0785 6.40675
3897 21 173 -16.3709 12.2977 15.9662
3960 21 216 -9.46578 -24.0368 19.3427
4080 21 306 -8.82938 -23.2577 11.5658
4109 21 323 -8.81642 -23.0065 16.7721
3800 21 108 -7.68995 -15.104 1.67076
3942 21 204 -10.5608 -9.86604 5.4998
4044 21 280 -11.0097 -13.3695 3.61697
3938 21 200 -11.1429 -3.27892 -4.89151
4049 21 285 -11.7643 -6.72925 -4.24857
4053 21 287 -5.94602 2.16115 -5.34999
4066 21 296 -8.92727 0.734589 19.2415
3965 21 221 -10.5858 5.68336 1.38022
4113 21 325 -10.6267 7.22471 3.78167
3968 21 224 -11.306 11.7585 3.25497
3988 21 238 -1.37174 -15.9691 -1.2413
4065 21 295 0.364763 -15.7972 -9.1326
4043 21 279 0.466538 -8.80874 -5.03851
3943 21 205 2.17072 -8.12593 20.0143
3821 21 123 -2.05733 -9.14053 17.5749
4101 21 319 -4.06549 -6.66366 11.0492
3810 21 116 2.18816 -4.72454 11.1287
3889 21 167 1.60615 2.74851 4.98761
4082 21 308 0.384958 -1.80684 -5.92761
3939 21 201 0.814226 -1.85088 19.4245
4028 21 268 0.58825 7.53174 17.9247
3928 21 194 -0.0306938 10.3122 10.6858
4029 21 269 0.359694 9.3435 6.99922
4033 21 273 6.40003 -23.1416 -4.19051
4046 21 282 7.81581 -10.5818 0.993382
3834 21 130 5.36322 -9.18999 2.63064
3868 21 152 8.76541 -2.42515 -0.0961952
3825 21 125 8.80208 -2.3298 13.3625
3997 21 245 16.8838 -21.6269 9.77261
3978 21 232 14.8347 -19.0044 12.0898
3996 21 244 13.0618 -13.8188 -6.17033
4081 21 307 10.1915 0.728375 -1.65216
3974 21 230 12.2816 -1.85876 6.84129
3867 21 151 12.8553 -2.27203 16.8098
3957 21 213 14.7713 5.58093 15.4018
ITEM: TIMESTEP
1390000
ITEM: NUMBER OF ATOMS
42
ITEM: BOX BOUNDS pp pp pp
-1.9117358100498823e+01 1.7298338321573386e+01
-2.4570660476526388e+01 1.4343252234438982e+01
-9.1623957114048515e+00 2.0535054533276860e+01
ITEM: ATOMS id type mol x y z
4031 21 271 -14.1764 -9.16559 5.10778
3958 21 214 -12.7824 6.7582 20.5241
3990 21 240 -12.4162 6.00061 14.5111
3793 21 103 -11.911 12.1912 6.40436
3897 21 173 -16.4394 12.4119 15.9321
3960 21 216 -9.5037 -24.1609 19.2974
4080 21 306 -8.86448 -23.3766 11.5463
4109 21 323 -8.85146 -23.1239 16.7353
3800 21 108 -7.72 -15.1695 1.68408
3942 21 204 -10.6036 -9.89721 5.50042
4044 21 280 -11.0545 -13.4236 3.62383
3938 21 200 -11.1882 -3.26689 -4.85642
4049 21 285 -11.8124 -6.73984 -4.21561
4053 21 287 -5.96834 2.20886 -5.31338
4066 21 296 -8.9628 0.772942 19.1965
3965 21 221 -10.6287 5.75417 1.3945
3968 21 224 -11.352 11.8691 3.26304
3988 21 238 -1.37379 -16.0403 -1.21832
4065 21 295 0.37041 -15.8673 -9.08344
4043 21 279 0.472636 -8.83297 -5.00293
3943 21 205 2.18437 -8.14569 19.9668
3821 21 123 -2.06242 -9.16694 17.5355
4101 21 319 -4.07948 -6.67383 11.0314
3810 21 116 2.20189 -4.72199 11.1106
3889 21 167 1.6173 2.80007 4.98993
4082 21 308 0.390694 -1.78515 -5.88908
3939 21 201 0.821865 -1.82949 19.3789
4028 21 268 0.594887 7.61467 17.8841
3928 21 194 -0.0267992 10.4134 10.6692
4029 21 269 0.365319 9.43831 6.99487
4033 21 273 6.43242 -23.2598 -4.15774
4046 21 282 7.85448 -10.6176 1.00895
3834 21 130 5.39102 -9.21672 2.64077
3868 21 152 8.80828 -2.40752 -0.0770123
3825 21 125 8.84512 -2.31155 13.3371
3997 21 245 16.9627 -21.7352 9.75905
3978 21 232 14.9044 -19.0955 12.0686
3996 21 244 13.1237 -13.8759 -6.13099
4081 21 307 10.2406 0.766688 -1.62782
3974 21 230 12.34 -1.83741 6.83746
3867 21 151 12.9164 -2.2534 16.7729
3957 21 213 14.8408 5.65106 15.3696
ITEM: TIMESTEP
1395000
ITEM: NUMBER OF ATOMS
43
ITEM: BOX BOUNDS pp pp pp
-1.9170940718159684e+01 1.7351920939234247e+01
-2.4310274937350830e+01 1.4082866695263423e+01
-9.2202511165775718e+00 2.0592909938412699e+01
ITEM: ATOMS id type mol x y z
4031 21 271 -14.2155 -9.11137 5.10553
3958 21 214 -12.8173 6.59932 20.5819
3990 21 240 -12.4501 5.85188 14.5455
3793 21 103 -11.9434 11.9596 6.40716
3897 21 173 -16.4851 12.1774 15.972
3960 21 216 -9.52899 -23.906 19.3505
4080 21 306 -8.88789 -23.1322 11.5691
4109 21 323 -8.87483 -22.8828 16.7783
3800 21 108 -7.74004 -15.035 1.66849
3942 21 204 -10.6321 -9.83319 5.49969
4044 21 280 -11.0843 -13.3124 3.61579
3938 21 200 -11.2185 -3.2916 -4.8975
4049 21 285 -11.8445 -6.71808 -4.25419
4053 21 287 -5.98323 2.11086 -5.35624
4066 21 296 -8.9865 0.694164 19.2492
3965 21 221 -10.6573 5.60872 1.37778
3968 21 224 -11.3828 11.6418 3.2536
3988 21 238 -1.37516 -15.8941 -1.24522
4065 21 295 0.374177 -15.7234 -9.14099
4043 21 279 0.476704 -8.7832 -5.04458
3943 21 205 2.19347 -8.10511 20.0224
3821 21 123 -2.06581 -9.1127 17.5817
4101 21 319 -4.0888 -6.65295 11.0522
3810 21 116 2.21105 -4.72723 11.1318
3889 21 167 1.62474 2.69417 4.98722
4082 21 308 0.394521 -1.82969 -5.93418
3939 21 201 0.82696 -1.87344 19.4322
4028 21 268 0.599315 7.44433 17.9316
3928 21 194 -0.0242015 10.2056 10.6887
4029 21 269 0.36907 9.24356 6.99996
4033 21 273 6.45403 -23.0169 -4.1961
4046 21 282 7.88027 -10.544 0.990726
3834 21 130 5.40956 -9.16181 2.62891
3868 21 152 8.83688 -2.44374 -0.0994681
3825 21 125 8.87383 -2.34905 13.3669
3997 21 245 17.0153 -21.5128 9.77492
3978 21 232 14.951 -18.9084 12.0934
3996 21 244 13.165 -13.7586 -6.17704
4081 21 307 10.2735 0.687993 -1.65632
3974 21 230 12.379 -1.88125 6.84194
3867 21 151 12.957 -2.29167 16.8161
3957 21 213 14.8872 5.507 15.4073
4113 21 325 16.391 6.04193 20.4111
ITEM: TIMESTEP
1400000
ITEM: NUMBER OF ATOMS
44
ITEM: BOX BOUNDS pp pp pp
-1.9223608658357865e+01 1.7404588879432428e+01
-2.4391038569717061e+01 1.4163630327629654e+01
-9.1529299211186803e+00 2.0525588742958448e+01
ITEM: ATOMS id type mol x y z
4031 21 271 -14.2538 -9.12819 5.10815
3958 21 214 -12.8516 6.6486 20.5146
3990 21 240 -12.4834 5.89801 14.5055
3793 21 103 -11.9752 12.0314 6.40391
3897 21 173 -16.5301 12.2501 15.9256
3960 21 216 -9.55385 -23.9851 19.2888
4080 21 306 -8.9109 -23.208 11.5426
4109 21 323 -8.89781 -22.9576 16.7282
3800 21 108 -7.75974 -15.0767 1.68663
3942 21 204 -10.6602 -9.85305 5.50054
4044 21 280 -11.1137 -13.3469 3.62515
3938 21 200 -11.2482 -3.28393 -4.8497
4049 21 285 -11.876 -6.72483 -4.20929
4053 21 287 -5.99786 2.14126 -5.30637
4066 21 296 -9.00979 0.718598 19.1879
3965 21 221 -10.6854 5.65384 1.39724
3968 21 224 -11.413 11.7123 3.26458
3988 21 238 -1.3765 -15.9395 -1.21392
4065 21 295 0.377879 -15.768 -9.07402
4043 21 279 0.480702 -8.79864 -4.99612
3943 21 205 2.20242 -8.1177 19.9577
3821 21 123 -2.06915 -9.12952 17.5279
4101 21 319 -4.09797 -6.65942 11.028
3810 21 116 2.22005 -4.72561 11.1072
3889 21 167 1.63205 2.72701 4.99038
4082 21 308 0.398282 -1.81588 -5.8817
3939 21 201 0.831968 -1.8598 19.3702
4028 21 268 0.603666 7.49716 17.8763
3928 21 194 -0.0216482 10.27 10.6661
4029 21 269 0.372758 9.30397 6.99403
4033 21 273 6.47526 -23.0923 -4.15147
4046 21 282 7.90562 -10.5668 1.01193
3834 21 130 5.42779 -9.17885 2.64271
3868 21 152 8.86499 -2.4325 -0.0733383
3825 21 125 8.90204 -2.33742 13.3322
3997 21 245 17.0669 -21.5818 9.75646
3978 21 232 14.9967 -18.9665 12.0645
3996 21 244 13.2056 -13.795 -6.12346
4081 21 307 10.3057 0.712402 -1.62316
3974 21 230 12.4173 -1.86765 6.83673
3867 21 151 12.997 -2.2798 16.7659
4114 21 326 11.2759 7.45633 -5.84153
3957 21 213 14.9327 5.55169 15.3634
4113 21 325 16.4409 6.08886 20.3446
ITEM: TIMESTEP
1405000
ITEM: NUMBER OF ATOMS
46
ITEM: BOX BOUNDS pp pp pp
-1.9318900133341209e+01 1.7499880354415772e+01
-2.4412907550892545e+01 1.4185499308805138e+01
-9.1275860863813065e+00 2.0500244908211787e+01
ITEM: ATOMS id type mol x y z
4115 21 327 -13.0401 -18.5387 14.6943
4031 21 271 -14.3233 -9.13274 5.10914
3958 21 214 -12.9138 6.66194 20.4893
3990 21 240 -12.5436 5.9105 14.4904
3793 21 103 -12.0328 12.0509 6.40268
3897 21 173 -16.6113 12.2698 15.9081
3960 21 216 -9.59882 -24.0065 19.2655
4080 21 306 -8.95253 -23.2286 11.5326
4109 21 323 -8.93937 -22.9778 16.7094
3800 21 108 -7.79539 -15.088 1.69346
3942 21 204 -10.7109 -9.85843 5.50085
4044 21 280 -11.1667 -13.3562 3.62867
3938 21 200 -11.302 -3.28186 -4.83171
4049 21 285 -11.9331 -6.72666 -4.19239
4053 21 287 -6.02434 2.14949 -5.2876
4066 21 296 -9.05194 0.725215 19.1649
3965 21 221 -10.7363 5.66605 1.40457
3968 21 224 -11.4676 11.7314 3.26872
3988 21 238 -1.37893 -15.9517 -1.20213
4065 21 295 0.384577 -15.7801 -9.04881
4043 21 279 0.487935 -8.80282 -4.97787
3943 21 205 2.21861 -8.1211 19.9333
3821 21 123 -2.07518 -9.13408 17.5077
4101 21 319 -4.11456 -6.66118 11.0189
3810 21 116 2.23633 -4.72516 11.0979
3889 21 167 1.64527 2.73591 4.99156
4082 21 308 0.405086 -1.81214 -5.86194
3939 21 201 0.841029 -1.85611 19.3468
4028 21 268 0.611539 7.51147 17.8555
3928 21 194 -0.0170285 10.2875 10.6576
4029 21 269 0.37943 9.32032 6.9918
4033 21 273 6.51369 -23.1127 -4.13467
4116 21 328 2.99758 -24.1706 5.69693
4046 21 282 7.95149 -10.573 1.01992
3834 21 130 5.46076 -9.18346 2.64791
3868 21 152 8.91585 -2.42946 -0.0635014
3825 21 125 8.9531 -2.33427 13.3191
3997 21 245 17.1605 -21.6004 9.74951
3978 21 232 15.0795 -18.9822 12.0536
3996 21 244 13.279 -13.8048 -6.10329
4081 21 307 10.3641 0.719011 -1.61067
3974 21 230 12.4867 -1.86397 6.83476
3867 21 151 13.0694 -2.27659 16.747
4114 21 326 11.3393 7.47059 -5.82184
3957 21 213 15.0152 5.56379 15.3469
4113 21 325 16.5311 6.10157 20.3196
ITEM: TIMESTEP
1410000
ITEM: NUMBER OF ATOMS
47
ITEM: BOX BOUNDS pp pp pp
-1.9249200618210821e+01 1.7430180839285384e+01
-2.4453683263913156e+01 1.4226275021825749e+01
-9.2259855196956266e+00 2.0598644341476124e+01
ITEM: ATOMS id type mol x y z
4115 21 327 -12.9941 -18.5671 14.7542
4031 21 271 -14.2725 -9.14123 5.1053
3958 21 214 -12.8683 6.68682 20.5876
3990 21 240 -12.4995 5.93379 14.5489
3793 21 103 -11.9907 12.0872 6.40744
3897 21 173 -16.5519 12.3065 15.976
3960 21 216 -9.56593 -24.0464 19.3557
4080 21 306 -8.92208 -23.2668 11.5714
3800 21 108 -7.76932 -15.1091 1.66694
3942 21 204 -10.6738 -9.86845 5.49962
4044 21 280 -11.1279 -13.3737 3.615
4121 21 331 -7.21664 -5.59801 -7.43344
3938 21 200 -11.2627 -3.27799 -4.90157
4049 21 285 -11.8914 -6.73007 -4.25801
4053 21 287 -6.00497 2.16483 -5.36049
4066 21 296 -9.02111 0.737551 19.2544
3965 21 221 -10.6991 5.68883 1.37612
3968 21 224 -11.4277 11.767 3.25266
3988 21 238 -1.37715 -15.9746 -1.24789
4065 21 295 0.379678 -15.8026 -9.14669
4043 21 279 0.482645 -8.81061 -5.04871
3943 21 205 2.20677 -8.12746 20.0279
3821 21 123 -2.07077 -9.14257 17.5862
4101 21 319 -4.10243 -6.66445 11.0543
3810 21 116 2.22442 -4.72434 11.1338
3889 21 167 1.6356 2.75249 4.98695
4082 21 308 0.400109 -1.80516 -5.93865
3939 21 201 0.834402 -1.84923 19.4375
4028 21 268 0.605781 7.53814 17.9364
3928 21 194 -0.0204075 10.32 10.6906
4029 21 269 0.37455 9.35082 7.00047
4033 21 273 6.48558 -23.1507 -4.1999
4116 21 328 2.98279 -24.2109 5.697
4046 21 282 7.91794 -10.5845 0.988919
3834 21 130 5.43664 -9.19206 2.62773
3868 21 152 8.87865 -2.42379 -0.101694
3825 21 125 8.91575 -2.32839 13.3698
4120 21 330 5.81964 9.88119 20.5299
3997 21 245 17.0921 -21.6353 9.77649
3978 21 232 15.019 -19.0115 12.0959
3996 21 244 13.2253 -13.8232 -6.1816
4081 21 307 10.3214 0.731335 -1.65914
3974 21 230 12.436 -1.85711 6.84239
3867 21 151 13.0165 -2.27059 16.8204
4114 21 326 11.2929 7.49718 -5.89828
3957 21 213 14.9549 5.58635 15.411
4113 21 325 16.4651 6.12526 20.4168
ITEM: TIMESTEP
1415000
ITEM: NUMBER OF ATOMS
48
ITEM: BOX BOUNDS pp pp pp
-1.9352940876777740e+01 1.7533921097852303e+01
-2.4450458615138238e+01 1.4223050373050832e+01
-9.1639635796437453e+00 2.0536622401426804e+01
ITEM: ATOMS id type mol x y z
4115 21 327 -13.0625 -18.5649 14.7164
4031 21 271 -14.3481 -9.14056 5.10772
3958 21 214 -12.936 6.68486 20.5256
3990 21 240 -12.5651 5.93195 14.512
3793 21 103 -12.0534 12.0843 6.40444
3897 21 173 -16.6404 12.3036 15.9332
3960 21 216 -9.61489 -24.0433 19.2989
4080 21 306 -8.9674 -23.2638 11.5469
3800 21 108 -7.80812 -15.1074 1.68366
3942 21 204 -10.729 -9.86766 5.5004
4044 21 280 -11.1857 -13.3723 3.62361
4121 21 331 -7.25231 -5.59793 -7.37888
3938 21 200 -11.3212 -3.27829 -4.85754
4049 21 285 -11.9535 -6.7298 -4.21665
4053 21 287 -6.0338 2.16362 -5.31454
4066 21 296 -9.067 0.736576 19.198
3965 21 221 -10.7545 5.68703 1.39405
3968 21 224 -11.4872 11.7642 3.26278
3988 21 238 -1.3798 -15.9728 -1.21905
4065 21 295 0.38697 -15.8009 -9.085
4043 21 279 0.490519 -8.81 -5.00406
3943 21 205 2.2244 -8.12695 19.9683
3821 21 123 -2.07734 -9.1419 17.5367
4101 21 319 -4.12049 -6.66419 11.032
3810 21 116 2.24215 -4.72441 11.1112
3889 21 167 1.64999 2.75118 4.98986
4082 21 308 0.407517 -1.80571 -5.8903
3939 21 201 0.844266 -1.84977 19.3803
4028 21 268 0.614352 7.53603 17.8854
3928 21 194 -0.0153782 10.3174 10.6698
4029 21 269 0.381813 9.34841 6.995
4033 21 273 6.52741 -23.1477 -4.15878
4116 21 328 3.00481 -24.2077 5.69695
4046 21 282 7.96787 -10.5836 1.00846
3834 21 130 5.47254 -9.19138 2.64045
3868 21 152 8.93402 -2.42424 -0.0776208
4122 21 332 7.64811 1.23656 -2.04029
3825 21 125 8.97133 -2.32886 13.3379
4120 21 330 5.8577 9.87869 20.4682
3997 21 245 17.1939 -21.6325 9.75948
3978 21 232 15.1091 -19.0092 12.0692
3996 21 244 13.3053 -13.8217 -6.13224
4081 21 307 10.3849 0.73036 -1.62859
3974 21 230 12.5115 -1.85765 6.83758
3867 21 151 13.0952 -2.27107 16.7741
4114 21 326 11.362 7.49508 -5.8501
3957 21 213 15.0446 5.58456 15.3706
4113 21 325 16.5634 6.12339 20.3555
ITEM: TIMESTEP
1420000
ITEM: NUMBER OF ATOMS
46
ITEM: BOX BOUNDS pp pp pp
-1.9272272625410189e+01 1.7453252846484752e+01
-2.4448516970589221e+01 1.4221108728501815e+01
-9.1211787002958964e+00 2.0493837522075378e+01
ITEM: ATOMS id type mol x y z
4115 21 327 -13.0093 -18.5635 14.6904
4031 21 271 -14.2893 -9.14016 5.10939
3958 21 214 -12.8834 6.68367 20.4829
3990 21 240 -12.5141 5.93084 14.4866
3897 21 173 -16.5716 12.3019 15.9036
3960 21 216 -9.57682 -24.0414 19.2597
4080 21 306 -8.93216 -23.262 11.53
3800 21 108 -7.77795 -15.1064 1.69519
3942 21 204 -10.6861 -9.86718 5.50093
4044 21 280 -11.1408 -13.3715 3.62956
4121 21 331 -7.22457 -5.59789 -7.34123
3938 21 200 -11.2757 -3.27848 -4.82716
4049 21 285 -11.9052 -6.72964 -4.18812
4053 21 287 -6.01138 2.16289 -5.28285
4066 21 296 -9.03132 0.735988 19.159
3965 21 221 -10.7114 5.68594 1.40642
3968 21 224 -11.4409 11.7625 3.26976
3988 21 238 -1.37774 -15.9717 -1.19915
4065 21 295 0.3813 -15.7998 -9.04244
4043 21 279 0.484396 -8.80962 -4.97326
3943 21 205 2.21069 -8.12665 19.9271
3821 21 123 -2.07223 -9.1415 17.5026
4101 21 319 -4.10645 -6.66403 11.0166
3810 21 116 2.22836 -4.72445 11.0956
3889 21 167 1.6388 2.75039 4.99186
4082 21 308 0.401757 -1.80604 -5.85695
3939 21 201 0.836596 -1.8501 19.3409
4028 21 268 0.607687 7.53476 17.8503
3928 21 194 -0.019289 10.3159 10.6554
4029 21 269 0.376165 9.34696 6.99123
4033 21 273 6.49489 -23.1459 -4.13042
4116 21 328 2.98769 -24.2058 5.69692
4046 21 282 7.92904 -10.5831 1.02193
3834 21 130 5.44463 -9.19097 2.64923
3868 21 152 8.89096 -2.42451 -0.0610144
3825 21 125 8.92811 -2.32914 13.3158
4120 21 330 5.8281 9.87718 20.4256
3997 21 245 17.1147 -21.6309 9.74775
3978 21 232 15.039 -19.0078 12.0508
3996 21 244 13.2431 -13.8209 -6.09819
4081 21 307 10.3355 0.729773 -1.60752
3974 21 230 12.4528 -1.85798 6.83426
3867 21 151 13.034 -2.27135 16.7422
4114 21 326 11.3083 7.49381 -5.81686
3957 21 213 14.9748 5.58349 15.3427
4113 21 325 16.487 6.12226 20.3133
ITEM: TIMESTEP
1425000
ITEM: NUMBER OF ATOMS
46
ITEM: BOX BOUNDS pp pp pp
-1.9399409636841302e+01 1.7580389857915865e+01
-2.4387956856802198e+01 1.4160548614714791e+01
-9.1763621518466394e+00 2.0549020973589677e+01
ITEM: ATOMS id type mol x y z
4115 21 327 -13.0931 -18.5214 14.724
4031 21 271 -14.3819 -9.12755 5.10724
3958 21 214 -12.9663 6.64672 20.538
3990 21 240 -12.5945 5.89625 14.5194
3897 21 173 -16.68 12.2473 15.9417
3960 21 216 -9.63683 -23.9821 19.3102
4080 21 306 -8.9877 -23.2052 11.5518
3800 21 108 -7.8255 -15.0751 1.68031
3942 21 204 -10.7538 -9.85229 5.50024
4044 21 280 -11.2116 -13.3456 3.62189
4121 21 331 -7.26829 -5.59637 -7.38978
3938 21 200 -11.3474 -3.28423 -4.86634
4049 21 285 -11.9813 -6.72457 -4.22492
4053 21 287 -6.04671 2.1401 -5.32373
4066 21 296 -9.08755 0.717666 19.2092
3965 21 221 -10.7793 5.65211 1.39047
3968 21 224 -11.5138 11.7097 3.26076
3988 21 238 -1.38098 -15.9377 -1.22481
4065 21 295 0.390237 -15.7663 -9.09733
4043 21 279 0.494047 -8.79805 -5.01299
3943 21 205 2.23229 -8.11721 19.9802
3821 21 123 -2.08028 -9.12888 17.5466
4101 21 319 -4.12858 -6.65918 11.0364
3810 21 116 2.25009 -4.72567 11.1157
3889 21 167 1.65644 2.72576 4.98928
4082 21 308 0.410835 -1.8164 -5.89997
3939 21 201 0.848685 -1.86032 19.3918
4028 21 268 0.618191 7.49515 17.8956
3928 21 194 -0.0131254 10.2676 10.6739
4029 21 269 0.385067 9.30166 6.9961
4033 21 273 6.54615 -23.0894 -4.167
4116 21 328 3.01467 -24.146 5.69696
4046 21 282 7.99024 -10.5659 1.00455
3834 21 130 5.48862 -9.1782 2.63791
3868 21 152 8.95882 -2.43293 -0.0824332
3825 21 125 8.99623 -2.33786 13.3443
4120 21 330 5.87475 9.83023 20.4805
3997 21 245 17.2395 -21.5791 9.76288
3978 21 232 15.1494 -18.9643 12.0746
3996 21 244 13.3411 -13.7936 -6.14211
4081 21 307 10.4134 0.71147 -1.6347
3974 21 230 12.5453 -1.86817 6.83854
3867 21 151 13.1305 -2.28025 16.7834
4114 21 326 11.3929 7.45432 -5.85973
3957 21 213 15.0848 5.54998 15.3787
4113 21 325 16.6074 6.08707 20.3678
ITEM: TIMESTEP
1430000
ITEM: NUMBER OF ATOMS
47
ITEM: BOX BOUNDS pp pp pp
-1.9293923187869098e+01 1.7474903408943661e+01
-2.4310567182108812e+01 1.4083158940021406e+01
-9.1878386051237868e+00 2.0560497426845171e+01
ITEM: ATOMS id type mol x y z
4115 21 327 -13.0236 -18.4675 14.731
4031 21 271 -14.3051 -9.11143 5.10679
3958 21 214 -12.8975 6.5995 20.5495
3990 21 240 -12.5278 5.85204 14.5262
3897 21 173 -16.59 12.1776 15.9496
3960 21 216 -9.58703 -23.9063 19.3208
4080 21 306 -8.94162 -23.1325 11.5563
4123 21 333 -9.06413 -23.0933 16.2871
3800 21 108 -7.78604 -15.0351 1.67722
4044 21 280 -11.1528 -13.3125 3.6203
4121 21 331 -7.23202 -5.59443 -7.39988
3938 21 200 -11.2879 -3.29157 -4.87449
4049 21 285 -11.9182 -6.71811 -4.23257
4053 21 287 -6.0174 2.11097 -5.33223
4066 21 296 -9.04089 0.694252 19.2197
3965 21 221 -10.723 5.60889 1.38715
3968 21 224 -11.4533 11.6421 3.25889
3988 21 238 -1.37829 -15.8943 -1.23015
4065 21 295 0.382822 -15.7235 -9.10875
4043 21 279 0.486039 -8.78326 -5.02125
3943 21 205 2.21437 -8.10516 19.9912
3821 21 123 -2.0736 -9.11276 17.5558
4101 21 319 -4.11022 -6.65297 11.0406
3810 21 116 2.23206 -4.72723 11.1199
3889 21 167 1.6418 2.69428 4.98874
4082 21 308 0.403303 -1.82964 -5.90891
3939 21 201 0.838654 -1.87339 19.4024
4028 21 268 0.609476 7.44452 17.905
3928 21 194 -0.0182394 10.2058 10.6778
4122 21 332 2.30312 13.7428 20.4071
4029 21 269 0.377681 9.24378 6.99711
4033 21 273 6.50362 -23.0172 -4.17461
4116 21 328 2.99228 -24.0696 5.69697
4046 21 282 7.93946 -10.5441 1.00094
3834 21 130 5.45212 -9.16188 2.63555
3868 21 152 8.90252 -2.4437 -0.0868876
3825 21 125 8.93971 -2.349 13.3502
4120 21 330 5.83605 9.77023 20.492
3997 21 245 17.136 -21.513 9.76603
3978 21 232 15.0578 -18.9086 12.0795
3996 21 244 13.2598 -13.7587 -6.15124
4081 21 307 10.3488 0.688081 -1.64035
3974 21 230 12.4685 -1.88121 6.83943
3867 21 151 13.0504 -2.29163 16.7919
4114 21 326 11.3227 7.40386 -5.86864
3957 21 213 14.9936 5.50717 15.3861
4113 21 325 16.5075 6.0421 20.3791
ITEM: TIMESTEP
1435000
ITEM: NUMBER OF ATOMS
45
ITEM: BOX BOUNDS pp pp pp
-1.9301652416236568e+01 1.7482632637311131e+01
-2.4271650338403770e+01 1.4044242096316363e+01
-9.2218438280644612e+00 2.0594502649756613e+01
ITEM: ATOMS id type mol x y z
4115 21 327 -13.0287 -18.4405 14.7516
4031 21 271 -14.3107 -9.10333 5.10546
3958 21 214 -12.9025 6.57575 20.5835
3990 21 240 -12.5327 5.82981 14.5464
3897 21 173 -16.5966 12.1426 15.9731
4123 21 333 -9.06755 -23.0569 16.3113
4080 21 306 -8.94499 -23.096 11.5698
3800 21 108 -7.78894 -15.015 1.66806
4044 21 280 -11.1571 -13.2959 3.61557
3938 21 200 -11.2923 -3.29527 -4.89863
4049 21 285 -11.9228 -6.71485 -4.25525
4053 21 287 -6.01955 2.09633 -5.35742
4066 21 296 -9.04431 0.682478 19.2506
3965 21 221 -10.7271 5.58715 1.37732
3968 21 224 -11.4577 11.6081 3.25334
3988 21 238 -1.37849 -15.8724 -1.24596
4065 21 295 0.383365 -15.702 -9.14257
4043 21 279 0.486626 -8.77582 -5.04573
3943 21 205 2.21568 -8.09909 20.0239
3821 21 123 -2.07409 -9.10465 17.5829
4101 21 319 -4.11156 -6.64985 11.0528
3810 21 116 2.23338 -4.72801 11.1323
3889 21 167 1.64288 2.67846 4.98714
4082 21 308 0.403855 -1.8363 -5.93542
3939 21 201 0.839389 -1.87996 19.4337
4028 21 268 0.610114 7.41906 17.933
3928 21 194 -0.0178647 10.1747 10.6892
4122 21 332 2.30447 13.7045 20.4408
4029 21 269 0.378222 9.21468 7.0001
4033 21 273 6.50673 -22.9809 -4.19716
4116 21 328 2.99392 -24.0311 5.69699
4046 21 282 7.94318 -10.533 0.990224
3834 21 130 5.45479 -9.15367 2.62858
3868 21 152 8.90664 -2.44911 -0.100086
3825 21 125 8.94385 -2.35461 13.3677
4120 21 330 5.83888 9.74005 20.5258
3997 21 245 17.1436 -21.4798 9.77536
3978 21 232 15.0645 -18.8807 12.0941
3996 21 244 13.2657 -13.7412 -6.17831
4081 21 307 10.3535 0.67632 -1.6571
3974 21 230 12.4741 -1.88776 6.84207
3867 21 151 13.0563 -2.29735 16.8173
4114 21 326 11.3278 7.37848 -5.89506
3957 21 213 15.0002 5.48563 15.4083
4113 21 325 16.5148 6.01948 20.4127
ITEM: TIMESTEP
1440000
ITEM: NUMBER OF ATOMS
44
ITEM: BOX BOUNDS pp pp pp
-1.9167004729072712e+01 1.7347984950147275e+01
-2.4491571562914352e+01 1.4264163320826945e+01
-9.2146532186023720e+00 2.0587312040279070e+01
ITEM: ATOMS id type mol x y z
4115 21 327 -12.94 -18.5935 14.7473
3958 21 214 -12.8147 6.70994 20.5763
3990 21 240 -12.4476 5.95544 14.5422
3897 21 173 -16.4818 12.3407 15.9681
4123 21 333 -9.00783 -23.2628 16.3062
4080 21 306 -8.88617 -23.3024 11.5669
3800 21 108 -7.73857 -15.1287 1.66999
4044 21 280 -11.0821 -13.3898 3.61657
3938 21 200 -11.2162 -3.27439 -4.89353
4049 21 285 -11.8422 -6.73323 -4.25046
4053 21 287 -5.98214 2.17909 -5.35209
4066 21 296 -8.98476 0.749014 19.2441
3965 21 221 -10.6552 5.70999 1.3794
3968 21 224 -11.3805 11.8001 3.25451
3988 21 238 -1.37506 -15.9959 -1.24262
4065 21 295 0.3739 -15.8236 -9.13542
4043 21 279 0.476405 -8.81785 -5.04055
3943 21 205 2.1928 -8.13336 20.017
3821 21 123 -2.06556 -9.15046 17.5772
4101 21 319 -4.08812 -6.66748 11.0502
3810 21 116 2.21037 -4.72358 11.1297
3889 21 167 1.62419 2.7679 4.98748
4082 21 308 0.39424 -1.79868 -5.92982
3939 21 201 0.826586 -1.84283 19.4271
4028 21 268 0.598989 7.56293 17.927
3928 21 194 -0.0243923 10.3502 10.6868
4122 21 332 2.28094 13.9206 20.4336
4029 21 269 0.368795 9.37916 6.99947
4033 21 273 6.45244 -23.186 -4.19239
4116 21 328 2.96535 -24.2483 5.69699
4046 21 282 7.87837 -10.5953 0.992489
3834 21 130 5.4082 -9.20005 2.63005
3868 21 152 8.83478 -2.41852 -0.0972954
3825 21 125 8.87172 -2.32294 13.364
4120 21 330 5.78948 9.91057 20.5186
3997 21 245 17.0114 -21.6676 9.77339
3978 21 232 14.9476 -19.0387 12.091
3996 21 244 13.162 -13.8403 -6.17258
4081 21 307 10.271 0.742786 -1.65356
3974 21 230 12.3762 -1.85073 6.84151
3867 21 151 12.954 -2.26502 16.812
4114 21 326 11.2382 7.52189 -5.88948
3957 21 213 14.8838 5.60731 15.4036
4113 21 325 16.3872 6.14728 20.4056
ITEM: TIMESTEP
1445000
ITEM: NUMBER OF ATOMS
43
ITEM: BOX BOUNDS pp pp pp
-1.9147373695321637e+01 1.7328353916396200e+01
-2.4502853928972065e+01 1.4275445686884659e+01
-9.1886610658939212e+00 2.0561319887561698e+01
ITEM: ATOMS id type mol x y z
4115 21 327 -12.927 -18.6013 14.7315
3958 21 214 -12.8019 6.71683 20.5503
3990 21 240 -12.4352 5.96188 14.5267
3897 21 173 -16.465 12.3508 15.9502
4123 21 333 -8.99912 -23.2734 16.2877
4080 21 306 -8.87759 -23.313 11.5567
3800 21 108 -7.73123 -15.1345 1.677
3938 21 200 -11.2052 -3.27332 -4.87507
4049 21 285 -11.8304 -6.73418 -4.23312
4053 21 287 -5.97668 2.18334 -5.33284
4066 21 296 -8.97608 0.752428 19.2204
3965 21 221 -10.6447 5.71629 1.38691
3968 21 224 -11.3693 11.8099 3.25875
3988 21 238 -1.37456 -16.0023 -1.23053
4065 21 295 0.37252 -15.8298 -9.10957
4043 21 279 0.474915 -8.82001 -5.02184
3943 21 205 2.18947 -8.13512 19.992
3821 21 123 -2.06432 -9.15281 17.5564
4101 21 319 -4.0847 -6.66839 11.0409
3810 21 116 2.20702 -4.72335 11.1202
3889 21 167 1.62147 2.77249 4.9887
4082 21 308 0.392838 -1.79675 -5.90955
3939 21 201 0.824719 -1.84093 19.4031
4028 21 268 0.597367 7.57031 17.9057
3928 21 194 -0.025344 10.3592 10.678
4122 21 332 2.27751 13.9317 20.4079
4029 21 269 0.36742 9.38759 6.99718
4033 21 273 6.44452 -23.1965 -4.17516
4116 21 328 2.96118 -24.2594 5.69697
4046 21 282 7.86893 -10.5985 1.00068
3834 21 130 5.40141 -9.20242 2.63539
3868 21 152 8.8243 -2.41695 -0.0872069
3825 21 125 8.8612 -2.32131 13.3506
3997 21 245 16.9921 -21.6773 9.76626
3978 21 232 14.9305 -19.0468 12.0798
3996 21 244 13.1468 -13.8453 -6.1519
4127 21 335 13.8477 -16.9608 14.6276
4081 21 307 10.259 0.746195 -1.64076
3974 21 230 12.3619 -1.84883 6.8395
3867 21 151 12.9391 -2.26336 16.7926
4114 21 326 11.2252 7.52924 -5.86928
3957 21 213 14.8668 5.61355 15.3867
4113 21 325 16.3686 6.15384 20.3799
ITEM: TIMESTEP
1450000
ITEM: NUMBER OF ATOMS
43
ITEM: BOX BOUNDS pp pp pp
-1.9216166912721818e+01 1.7397147133796381e+01
-2.4391147069121065e+01 1.4163738827033658e+01
-9.1971175638484475e+00 2.0569776385495686e+01
ITEM: ATOMS id type mol x y z
4115 21 327 -12.9724 -18.5236 14.7366
3958 21 214 -12.8468 6.64867 20.5588
3990 21 240 -12.4787 5.89807 14.5317
3897 21 173 -16.5237 12.2502 15.956
4123 21 333 -9.02964 -23.1688 16.2937
4080 21 306 -8.90765 -23.2081 11.56
3800 21 108 -7.75696 -15.0768 1.67472
3938 21 200 -11.244 -3.28392 -4.88108
4049 21 285 -11.8716 -6.72484 -4.23876
4053 21 287 -5.9958 2.1413 -5.3391
4066 21 296 -9.0065 0.718631 19.2281
3965 21 221 -10.6815 5.6539 1.38447
3968 21 224 -11.4087 11.7124 3.25737
3988 21 238 -1.37631 -15.9395 -1.23446
4065 21 295 0.377356 -15.7681 -9.11798
4043 21 279 0.480137 -8.79866 -5.02793
3943 21 205 2.20116 -8.11771 20.0002
3821 21 123 -2.06868 -9.12954 17.5632
4101 21 319 -4.09668 -6.65943 11.0439
3810 21 116 2.21878 -4.7256 11.1233
3889 21 167 1.63101 2.72706 4.9883
4082 21 308 0.39775 -1.81586 -5.91615
3939 21 201 0.831261 -1.85979 19.4109
4028 21 268 0.603051 7.49723 17.9126
3928 21 194 -0.022009 10.2701 10.6809
4122 21 332 2.28953 13.8219 20.4163
4029 21 269 0.372237 9.30405 6.99793
4033 21 273 6.47226 -23.0924 -4.18076
4116 21 328 2.97578 -24.1491 5.69698
4046 21 282 7.90204 -10.5669 0.998013
3834 21 130 5.42521 -9.17887 2.63365
3868 21 152 8.86102 -2.43249 -0.0904891
3825 21 125 8.89806 -2.3374 13.355
3997 21 245 17.0596 -21.5819 9.76858
3978 21 232 14.9903 -18.9665 12.0835
3996 21 244 13.1999 -13.795 -6.15863
4127 21 335 13.9033 -16.8926 14.6327
4081 21 307 10.3012 0.712435 -1.64492
3974 21 230 12.4119 -1.86764 6.84015
3867 21 151 12.9914 -2.27979 16.7989
4114 21 326 11.2709 7.4564 -5.87585
3957 21 213 14.9263 5.55175 15.3922
4113 21 325 16.4338 6.08892 20.3883
ITEM: TIMESTEP
1455000
ITEM: NUMBER OF ATOMS
44
ITEM: BOX BOUNDS pp pp pp
-1.9112347259403048e+01 1.7293327480477611e+01
-2.4312761482143689e+01 1.4085353240056282e+01
-9.2544807262940729e+00 2.0627139547903834e+01
ITEM: ATOMS id type mol x y z
4115 21 327 -12.904 -18.4691 14.7715
3958 21 214 -12.7791 6.60084 20.6161
3990 21 240 -12.4131 5.8533 14.5658
3897 21 173 -16.4352 12.1796 15.9956
4123 21 333 -8.98359 -23.0954 16.3346
4080 21 306 -8.86229 -23.1346 11.5826
3800 21 108 -7.71813 -15.0362 1.65926
4128 21 336 -6.71038 -5.91206 -7.62422
3938 21 200 -11.1854 -3.29136 -4.9218
4049 21 285 -11.8094 -6.71829 -4.27701
4053 21 287 -5.96695 2.1118 -5.3816
4066 21 296 -8.96058 0.694916 19.2803
3965 21 221 -10.626 5.61011 1.36789
3968 21 224 -11.3492 11.644 3.24801
4129 21 337 -10.1122 13.9345 19.2338
3988 21 238 -1.37366 -15.8955 -1.26114
4065 21 295 0.370058 -15.7248 -9.17503
4043 21 279 0.472256 -8.78367 -5.06922
3943 21 205 2.18351 -8.1055 20.0553
3821 21 123 -2.0621 -9.11321 17.609
3810 21 116 2.20103 -4.72718 11.1443
3889 21 167 1.61661 2.69518 4.98561
4082 21 308 0.390337 -1.82927 -5.96086
3939 21 201 0.821388 -1.87302 19.4638
4028 21 268 0.594473 7.44596 17.9598
3928 21 194 -0.0270421 10.2075 10.7001
4122 21 332 2.27139 13.7449 20.4731
4029 21 269 0.364968 9.24542 7.00298
4033 21 273 6.4304 -23.0193 -4.21879
4116 21 328 2.95375 -24.0717 5.69702
4046 21 282 7.85207 -10.5447 0.979943
3834 21 130 5.38929 -9.16234 2.62189
3868 21 152 8.80561 -2.44339 -0.112754
3825 21 125 8.84244 -2.34869 13.3845
3997 21 245 16.9577 -21.5149 9.78431
3978 21 232 14.9001 -18.9102 12.1081
3996 21 244 13.1198 -13.7597 -6.20428
4127 21 335 13.8193 -16.8447 14.6672
4081 21 307 10.2376 0.688745 -1.67318
3974 21 230 12.3364 -1.88084 6.8446
3867 21 151 12.9125 -2.29131 16.8417
4114 21 326 11.2019 7.40529 -5.92042
3957 21 213 14.8365 5.50838 15.4296
4113 21 325 16.3355 6.04337 20.445
ITEM: TIMESTEP
1460000
ITEM: NUMBER OF ATOMS
44
ITEM: BOX BOUNDS pp pp pp
-1.9332111426494897e+01 1.7513091647569460e+01
-2.4319980465686555e+01 1.4092572223599149e+01
-9.2979327204876157e+00 2.0670591542064432e+01
ITEM: ATOMS id type mol x y z
4115 21 327 -13.0488 -18.4741 14.7979
3958 21 214 -12.9224 6.60524 20.6595
3990 21 240 -12.5519 5.85742 14.5917
3897 21 173 -16.6226 12.1861 16.0256
4123 21 333 -9.08106 -23.1021 16.3655
4080 21 306 -8.9583 -23.1413 11.5998
3800 21 108 -7.80033 -15.04 1.64755
4128 21 336 -6.78041 -5.91236 -7.66293
3938 21 200 -11.3095 -3.29068 -4.95266
4049 21 285 -11.941 -6.71889 -4.30599
4053 21 287 -6.02801 2.11451 -5.41379
4066 21 296 -9.05778 0.6971 19.3198
3965 21 221 -10.7433 5.61415 1.35533
3968 21 224 -11.4752 11.6503 3.24092
4129 21 337 -10.2233 13.9416 19.2732
3988 21 238 -1.37927 -15.8996 -1.28134
4065 21 295 0.385506 -15.7287 -9.21826
4043 21 279 0.488938 -8.78505 -5.1005
3943 21 205 2.22086 -8.10662 20.0971
3821 21 123 -2.07602 -9.11472 17.6436
3810 21 116 2.23859 -4.72704 11.1601
3889 21 167 1.6471 2.69811 4.98357
4082 21 308 0.40603 -1.82803 -5.99474
3939 21 201 0.842286 -1.8718 19.5039
4028 21 268 0.612631 7.45068 17.9955
3928 21 194 -0.016388 10.2133 10.7147
4122 21 332 2.30979 13.752 20.5161
4029 21 269 0.380355 9.25082 7.00681
4033 21 273 6.51901 -23.026 -4.2476
4116 21 328 3.00039 -24.0789 5.69705
4046 21 282 7.95785 -10.5467 0.966256
3834 21 130 5.46533 -9.16386 2.61297
3868 21 152 8.9229 -2.44239 -0.129619
3825 21 125 8.96017 -2.34765 13.4069
3997 21 245 17.1735 -21.5211 9.79623
3978 21 232 15.091 -18.9154 12.1268
3996 21 244 13.2892 -13.763 -6.23886
4127 21 335 13.9971 -16.8491 14.6933
4081 21 307 10.3722 0.690926 -1.69458
3974 21 230 12.4963 -1.87962 6.84797
3867 21 151 13.0794 -2.29025 16.8741
4114 21 326 11.3481 7.41 -5.95417
3957 21 213 15.0266 5.51237 15.4579
4113 21 325 16.5437 6.04757 20.4879
ITEM: TIMESTEP
1465000
ITEM: NUMBER OF ATOMS
45
ITEM: BOX BOUNDS pp pp pp
-1.9174232699648524e+01 1.7355212920723087e+01
-2.4560982650247990e+01 1.4333574408160583e+01
-9.2287772226573850e+00 2.0601436044240536e+01
ITEM: ATOMS id type mol x y z
4115 21 327 -12.9447 -18.6417 14.7559
3958 21 214 -12.8194 6.75229 20.5904
3990 21 240 -12.4522 5.99509 14.5506
3897 21 173 -16.4879 12.4032 15.9779
4123 21 333 -9.01104 -23.3279 16.3163
4080 21 306 -8.88932 -23.3676 11.5725
3800 21 108 -7.74128 -15.1645 1.66619
4128 21 336 -6.7301 -5.92239 -7.60132
3938 21 200 -11.2203 -3.2678 -4.90355
4049 21 285 -11.8465 -6.73904 -4.25987
4053 21 287 -5.98414 2.20522 -5.36256
4066 21 296 -8.98795 0.770014 19.2569
3965 21 221 -10.6591 5.74876 1.37532
3968 21 224 -11.3847 11.8607 3.2522
4129 21 337 -10.1435 14.1807 19.2105
3988 21 238 -1.37524 -16.0349 -1.24919
4065 21 295 0.374408 -15.8619 -9.14947
4043 21 279 0.476954 -8.83112 -5.05072
3943 21 205 2.19403 -8.14418 20.0306
3821 21 123 -2.06602 -9.16492 17.5885
3810 21 116 2.21161 -4.72218 11.1349
3889 21 167 1.62519 2.79614 4.98682
4082 21 308 0.394756 -1.7868 -5.94083
3939 21 201 0.827273 -1.83112 19.4401
4028 21 268 0.599587 7.60834 17.9386
3928 21 194 -0.0240419 10.4056 10.6915
4122 21 332 2.28221 13.9887 20.4476
4029 21 269 0.369301 9.43107 7.00072
4033 21 273 6.45535 -23.2508 -4.20175
4116 21 328 2.96688 -24.3168 5.697
4046 21 282 7.88185 -10.6149 0.98804
3834 21 130 5.4107 -9.21468 2.62716
4130 21 338 4.78674 -12.3341 4.32944
3868 21 152 8.83864 -2.40887 -0.102777
3825 21 125 8.87559 -2.31294 13.3713
3997 21 245 17.0185 -21.7269 9.77726
3978 21 232 14.9538 -19.0886 12.0971
3996 21 244 13.1675 -13.8715 -6.18382
4127 21 335 13.8694 -16.9964 14.6517
4081 21 307 10.2755 0.763763 -1.66052
3974 21 230 12.3814 -1.83904 6.84261
3867 21 151 12.9595 -2.25482 16.8225
4114 21 326 11.243 7.56715 -5.90045
3957 21 213 14.89 5.64571 15.4128
4113 21 325 16.3941 6.18762 20.4196
ITEM: TIMESTEP
1470000
ITEM: NUMBER OF ATOMS
44
ITEM: BOX BOUNDS pp pp pp
-1.9069764976741695e+01 1.7250745197816258e+01
-2.4376134365864605e+01 1.4148726123777198e+01
-9.3566279651479256e+00 2.0729286786668638e+01
ITEM: ATOMS id type mol x y z
4115 21 327 -12.8759 -18.5132 14.8336
3958 21 214 -12.7513 6.63951 20.7182
3990 21 240 -12.3861 5.8895 14.6265
3897 21 173 -16.3988 12.2367 16.0661
4123 21 333 -8.9647 -23.1547 16.4074
4080 21 306 -8.84368 -23.1941 11.623
3800 21 108 -7.7022 -15.069 1.63173
4128 21 336 -6.69681 -5.9147 -7.71522
3938 21 200 -11.1614 -3.28535 -4.99433
4049 21 285 -11.7839 -6.72359 -4.34513
4053 21 287 -5.95512 2.13565 -5.45727
4066 21 296 -8.94175 0.714089 19.3732
3965 21 221 -10.6033 5.64551 1.33836
3968 21 224 -11.3248 11.6993 3.23134
4129 21 337 -10.0907 13.9973 19.3264
3988 21 238 -1.37258 -15.9311 -1.30864
4065 21 295 0.367064 -15.7598 -9.27664
4043 21 279 0.469024 -8.79579 -5.14275
3943 21 205 2.17628 -8.11537 20.1536
3821 21 123 -2.05941 -9.12642 17.6905
3810 21 116 2.19376 -4.72591 11.1816
3889 21 167 1.6107 2.72095 4.98082
4082 21 308 0.387296 -1.81843 -6.04049
3939 21 201 0.817339 -1.86232 19.558
4028 21 268 0.590955 7.48741 18.0437
3928 21 194 -0.0291065 10.2581 10.7344
4029 21 269 0.361987 9.29282 7.01198
4116 21 328 2.94471 -24.1343 5.69709
4046 21 282 7.83157 -10.5626 0.947767
3834 21 130 5.37455 -9.1757 2.60094
4130 21 338 4.75416 -12.2654 4.31781
3868 21 152 8.78288 -2.43458 -0.152401
3825 21 125 8.81962 -2.33956 13.4372
3997 21 245 16.9159 -21.569 9.81233
3978 21 232 14.8631 -18.9558 12.152
3996 21 244 13.087 -13.7883 -6.28557
4127 21 335 13.7849 -16.8834 14.7286
4081 21 307 10.2115 0.707897 -1.72349
3974 21 230 12.3054 -1.87016 6.85252
3867 21 151 12.8802 -2.28199 16.918
4114 21 326 11.1735 7.44661 -5.99977
4131 21 339 10.4387 5.85174 0.436966
3957 21 213 14.7996 5.54344 15.4962
4113 21 325 16.2951 6.0802 20.5459
ITEM: TIMESTEP
1475000
ITEM: NUMBER OF ATOMS
42
ITEM: BOX BOUNDS pp pp pp
-1.9085460548926097e+01 1.7266440770000660e+01
-2.4348029847250988e+01 1.4120621605163581e+01
-9.1792080382420735e+00 2.0551866859807024e+01
ITEM: ATOMS id type mol x y z
4115 21 327 -12.8863 -18.4936 14.7257
3958 21 214 -12.7616 6.62236 20.5409
3990 21 240 -12.3961 5.87344 14.5211
3897 21 173 -16.4122 12.2114 15.9437
4123 21 333 -8.97166 -23.1284 16.2809
4080 21 306 -8.85054 -23.1677 11.5529
3800 21 108 -7.70807 -15.0545 1.67955
3938 21 200 -11.1702 -3.28802 -4.86836
4049 21 285 -11.7933 -6.72124 -4.22682
4053 21 287 -5.95948 2.12507 -5.32584
4066 21 296 -8.94869 0.705586 19.2118
3965 21 221 -10.6117 5.62981 1.38964
3968 21 224 -11.3338 11.6748 3.26029
4129 21 337 -10.0986 13.9695 19.1656
3988 21 238 -1.37298 -15.9153 -1.22614
4065 21 295 0.368168 -15.7442 -9.10016
4043 21 279 0.470215 -8.79042 -5.01503
3943 21 205 2.17895 -8.11099 19.9829
3821 21 123 -2.0604 -9.12056 17.5489
3810 21 116 2.19644 -4.72647 11.1168
3889 21 167 1.61287 2.70952 4.98914
4082 21 308 0.388417 -1.82323 -5.90218
3939 21 201 0.818832 -1.86706 19.3944
4028 21 268 0.592252 7.46903 17.8979
3928 21 194 -0.0283456 10.2357 10.6749
4029 21 269 0.363086 9.2718 6.99635
4116 21 328 2.94804 -24.1066 5.69696
4046 21 282 7.83912 -10.5547 1.00365
4130 21 338 4.75906 -12.255 4.33395
3834 21 130 5.37998 -9.16978 2.63732
3868 21 152 8.79126 -2.43849 -0.0835378
3825 21 125 8.82803 -2.34361 13.3457
3997 21 245 16.9313 -21.545 9.76366
3978 21 232 14.8767 -18.9356 12.0758
3996 21 244 13.0991 -13.7756 -6.14437
4127 21 335 13.7976 -16.8662 14.6219
4081 21 307 10.2211 0.699404 -1.6361
3974 21 230 12.3168 -1.8749 6.83876
3867 21 151 12.8921 -2.28612 16.7855
4114 21 326 11.184 7.42829 -5.86194
4131 21 339 10.4485 5.83574 0.498878
3957 21 213 14.8132 5.52789 15.3805
ITEM: TIMESTEP
1480000
ITEM: NUMBER OF ATOMS
42
ITEM: BOX BOUNDS pp pp pp
-1.9118918728074107e+01 1.7299898949148670e+01
-2.4475798950645306e+01 1.4248390708557899e+01
-9.3025107622074792e+00 2.0675169583711678e+01
ITEM: ATOMS id type mol x y z
4115 21 327 -12.9083 -18.5825 14.8007
3958 21 214 -12.7834 6.70032 20.6641
3990 21 240 -12.4172 5.94643 14.5944
3897 21 173 -16.4408 12.3265 16.0288
4123 21 333 -8.9865 -23.2481 16.3688
4080 21 306 -8.86516 -23.2876 11.6016
3800 21 108 -7.72059 -15.1205 1.64631
3938 21 200 -11.1891 -3.27589 -4.95591
4049 21 285 -11.8134 -6.73192 -4.30904
4053 21 287 -5.96878 2.17316 -5.41718
4066 21 296 -8.96349 0.744242 19.324
3965 21 221 -10.6295 5.70118 1.35401
3968 21 224 -11.3529 11.7863 3.24017
4129 21 337 -10.1155 14.0962 19.2774
3988 21 238 -1.37383 -15.9871 -1.28347
4065 21 295 0.37052 -15.8149 -9.22281
4043 21 279 0.472755 -8.81484 -5.1038
3943 21 205 2.18463 -8.1309 20.1015
3821 21 123 -2.06252 -9.14718 17.6473
3810 21 116 2.20216 -4.7239 11.1618
3889 21 167 1.61752 2.76149 4.98336
4082 21 308 0.390806 -1.80138 -5.99831
3939 21 201 0.822013 -1.8455 19.5081
4028 21 268 0.595016 7.55261 17.9992
4135 21 341 -3.78199 9.3428 17.232
3928 21 194 -0.0267235 10.3377 10.7163
4029 21 269 0.365428 9.36736 7.00721
4116 21 328 2.95514 -24.2327 5.69705
4046 21 282 7.85523 -10.5908 0.964814
4130 21 338 4.76949 -12.3024 4.32273
3834 21 130 5.39156 -9.19672 2.61203
3868 21 152 8.80912 -2.42072 -0.131396
3825 21 125 8.84596 -2.32521 13.4093
3997 21 245 16.9642 -21.6542 9.79748
3978 21 232 14.9058 -19.0274 12.1288
3996 21 244 13.1249 -13.8332 -6.2425
4081 21 307 10.2416 0.738019 -1.69684
3974 21 230 12.3412 -1.85338 6.84832
3867 21 151 12.9175 -2.26734 16.8776
4114 21 326 11.2062 7.5116 -5.95773
4131 21 339 10.4694 5.90848 0.455851
3957 21 213 14.8422 5.59858 15.4609
ITEM: TIMESTEP
1485000
ITEM: NUMBER OF ATOMS
40
ITEM: BOX BOUNDS pp pp pp
-1.9100095987500378e+01 1.7281076208574941e+01
-2.4343335586464800e+01 1.4115927344377393e+01
-9.3777305368553812e+00 2.0750389358315211e+01
ITEM: ATOMS id type mol x y z
3958 21 214 -12.7711 6.61949 20.7393
3990 21 240 -12.4053 5.87076 14.6391
3897 21 173 -16.4247 12.2071 16.0807
4123 21 333 -8.97815 -23.124 16.4224
4080 21 306 -8.85693 -23.1633 11.6313
3800 21 108 -7.71355 -15.052 1.62604
3938 21 200 -11.1785 -3.28846 -5.00931
4049 21 285 -11.8021 -6.72085 -4.3592
4066 21 296 -8.95516 0.704166 19.3924
3965 21 221 -10.6195 5.62719 1.33226
3968 21 224 -11.3421 11.6707 3.2279
4129 21 337 -10.106 13.9648 19.3456
3988 21 238 -1.37335 -15.9127 -1.31845
4065 21 295 0.369197 -15.7417 -9.29763
4043 21 279 0.471326 -8.78952 -5.15795
3943 21 205 2.18143 -8.11026 20.1739
3821 21 123 -2.06133 -9.11958 17.7073
3810 21 116 2.19894 -4.72657 11.1893
3889 21 167 1.61491 2.70761 4.97983
4082 21 308 0.389462 -1.82404 -6.05694
3939 21 201 0.820223 -1.86786 19.5775
4028 21 268 0.593461 7.46596 18.061
4135 21 341 -3.77902 9.2439 17.2899
3928 21 194 -0.0276361 10.2319 10.7415
4029 21 269 0.36411 9.26829 7.01384
4116 21 328 2.95115 -24.1019 5.6971
4046 21 282 7.84617 -10.5533 0.941119
4130 21 338 4.76362 -12.2533 4.31589
3834 21 130 5.38505 -9.16879 2.59661
3868 21 152 8.79907 -2.43914 -0.160592
3825 21 125 8.83587 -2.34429 13.448
3997 21 245 16.9457 -21.541 9.81812
3978 21 232 14.8894 -18.9322 12.1611
3996 21 244 13.1104 -13.7735 -6.30237
4081 21 307 10.2301 0.697985 -1.73389
3974 21 230 12.3275 -1.87569 6.85415
3867 21 151 12.9032 -2.28681 16.9337
4114 21 326 11.1937 7.42523 -6.01616
4131 21 339 10.4577 5.83307 0.429602
3957 21 213 14.8259 5.52529 15.51
ITEM: TIMESTEP
1490000
ITEM: NUMBER OF ATOMS
43
ITEM: BOX BOUNDS pp pp pp
-1.9205328847359166e+01 1.7386309068433729e+01
-2.4503131882752673e+01 1.4275723640665266e+01
-9.1833685226171546e+00 2.0556027344127692e+01
ITEM: ATOMS id type mol x y z
3958 21 214 -12.8397 6.717 20.545
3990 21 240 -12.4718 5.96204 14.5236
3897 21 173 -16.5145 12.3511 15.9466
4123 21 333 -9.02483 -23.2737 16.2839
4080 21 306 -8.90291 -23.3133 11.5546
4136 21 342 -9.1772 -22.8106 7.41864
3800 21 108 -7.75291 -15.1346 1.67843
3938 21 200 -11.2379 -3.27329 -4.87131
4049 21 285 -11.8651 -6.7342 -4.22959
4066 21 296 -9.00171 0.752512 19.2156
3965 21 221 -10.6757 5.71645 1.38844
3968 21 224 -11.4025 11.8102 3.25962
4129 21 337 -10.1592 14.1233 19.1693
3988 21 238 -1.37603 -16.0024 -1.22807
4065 21 295 0.376594 -15.83 -9.1043
4043 21 279 0.479314 -8.82006 -5.01803
4137 21 343 0.000195853 -11.3454 9.56007
3943 21 205 2.19931 -8.13516 19.9869
3821 21 123 -2.06799 -9.15287 17.5522
3810 21 116 2.21692 -4.72335 11.1183
3889 21 167 1.62951 2.77261 4.98895
4082 21 308 0.396976 -1.7967 -5.90543
3939 21 201 0.83023 -1.84088 19.3982
4028 21 268 0.602156 7.57049 17.9013
4135 21 341 -3.79562 9.36321 17.1402
3928 21 194 -0.0225344 10.3595 10.6763
4029 21 269 0.371478 9.3878 6.99671
4116 21 328 2.97348 -24.2597 5.69697
4046 21 282 7.89682 -10.5985 1.00234
4130 21 338 4.79644 -12.3126 4.33357
3834 21 130 5.42146 -9.20248 2.63647
3868 21 152 8.85523 -2.41691 -0.0851526
4138 21 344 7.81262 2.01987 -2.22495
3825 21 125 8.89225 -2.32127 13.3479
3997 21 245 17.049 -21.6775 9.76481
3978 21 232 14.9808 -19.047 12.0776
3996 21 244 13.1915 -13.8455 -6.14769
4081 21 307 10.2945 0.746279 -1.63815
3974 21 230 12.404 -1.84878 6.83909
3867 21 151 12.9831 -2.26332 16.7886
4114 21 326 11.2637 7.52942 -5.86517
4131 21 339 10.5234 5.92403 0.497426
3957 21 213 14.9169 5.6137 15.3832
ITEM: TIMESTEP
1495000
ITEM: NUMBER OF ATOMS
45
ITEM: BOX BOUNDS pp pp pp
-1.9229271797023063e+01 1.7410252018097626e+01
-2.4443451075811719e+01 1.4216042833724313e+01
-9.0458266295483405e+00 2.0418485451089889e+01
ITEM: ATOMS id type mol x y z
4140 21 346 -14.2339 -7.92245 3.11966
3958 21 214 -12.8553 6.68058 20.4076
3990 21 240 -12.487 5.92795 14.4418
3897 21 173 -16.5349 12.2973 15.8516
4123 21 333 -9.03545 -23.2178 16.1859
4080 21 306 -8.91337 -23.2572 11.5003
4136 21 342 -9.18802 -22.7561 7.40261
3800 21 108 -7.76186 -15.1038 1.7155
3938 21 200 -11.2514 -3.27896 -4.77366
4049 21 285 -11.8794 -6.72921 -4.13787
4066 21 296 -9.0123 0.734456 19.0905
3965 21 221 -10.6885 5.68311 1.4282
3968 21 224 -11.4162 11.7581 3.28206
4141 21 347 -11.4163 11.3236 6.57429
4129 21 337 -10.1713 14.0641 19.0446
3988 21 238 -1.37665 -15.9689 -1.16411
4065 21 295 0.378277 -15.797 -8.96749
4043 21 279 0.481132 -8.80866 -4.91902
4137 21 343 0.00138635 -11.3262 9.52424
3943 21 205 2.20338 -8.12586 19.8547
3821 21 123 -2.06951 -9.14044 17.4425
3810 21 116 2.22101 -4.72455 11.068
3889 21 167 1.63283 2.74833 4.9954
4082 21 308 0.398686 -1.80691 -5.79821
3939 21 201 0.832507 -1.85096 19.2714
4028 21 268 0.604134 7.53145 17.7884
4135 21 341 -3.7994 9.31865 17.0343
3928 21 194 -0.0213737 10.3118 10.6301
4029 21 269 0.373155 9.34317 6.98459
4116 21 328 2.97856 -24.2008 5.69687
4046 21 282 7.90835 -10.5816 1.04567
4130 21 338 4.80391 -12.2904 4.34608
3834 21 130 5.42975 -9.1899 2.66468
3868 21 152 8.86801 -2.42521 -0.0317675
3825 21 125 8.90508 -2.32987 13.277
3997 21 245 17.0725 -21.6265 9.72708
3978 21 232 15.0016 -19.0041 12.0185
3996 21 244 13.21 -13.8186 -6.03822
4139 21 345 13.818 -17.702 14.6515
4081 21 307 10.3092 0.728242 -1.5704
3974 21 230 12.4215 -1.85883 6.82842
3867 21 151 13.0013 -2.2721 16.6859
4114 21 326 11.2797 7.49051 -5.75832
4131 21 339 10.5384 5.89006 0.545423
3957 21 213 14.9376 5.58068 15.2935
ITEM: TIMESTEP
1500000
ITEM: NUMBER OF ATOMS
45
ITEM: BOX BOUNDS pp pp pp
-1.9197107217664168e+01 1.7378087438738731e+01
-2.4466485207335918e+01 1.4239076965248511e+01
-9.0678512163385960e+00 2.0440510037854668e+01
ITEM: ATOMS id type mol x y z
4140 21 346 -14.2105 -7.9258 3.11582
3958 21 214 -12.8344 6.69464 20.4296
3990 21 240 -12.4666 5.94111 14.4549
3897 21 173 -16.5074 12.3181 15.8668
4123 21 333 -9.02118 -23.2393 16.2016
4080 21 306 -8.89932 -23.2789 11.509
4136 21 342 -9.17349 -22.7771 7.40518
3800 21 108 -7.74983 -15.1157 1.70956
3938 21 200 -11.2332 -3.27677 -4.7893
4049 21 285 -11.8602 -6.73114 -4.15256
4066 21 296 -8.99807 0.741425 19.1105
3965 21 221 -10.6713 5.69598 1.42183
3968 21 224 -11.3978 11.7782 3.27847
4141 21 347 -11.3978 11.3432 6.57562
4129 21 337 -10.1551 14.087 19.0646
3988 21 238 -1.37583 -15.9818 -1.17435
4065 21 295 0.376016 -15.8097 -8.9894
4043 21 279 0.47869 -8.81306 -4.93487
4137 21 343 -0.000212944 -11.3337 9.52998
3943 21 205 2.19792 -8.12945 19.8758
3821 21 123 -2.06747 -9.14524 17.46
3810 21 116 2.21552 -4.72409 11.0761
3889 21 167 1.62837 2.7577 4.99437
4082 21 308 0.396389 -1.80297 -5.81538
3939 21 201 0.829448 -1.84707 19.2917
4028 21 268 0.601477 7.54652 17.8065
4135 21 341 -3.79432 9.33585 17.0512
3928 21 194 -0.022933 10.3302 10.6375
4029 21 269 0.370903 9.36039 6.98653
4116 21 328 2.97174 -24.2235 5.69688
4046 21 282 7.89286 -10.5882 1.03873
4130 21 338 4.79388 -12.299 4.34408
3834 21 130 5.41862 -9.19476 2.66016
3868 21 152 8.85085 -2.42201 -0.0403161
3825 21 125 8.88785 -2.32655 13.2884
3997 21 245 17.0409 -21.6462 9.73312
3978 21 232 14.9737 -19.0207 12.0279
3996 21 244 13.1852 -13.829 -6.05575
4139 21 345 13.7921 -17.717 14.6649
4081 21 307 10.2895 0.735204 -1.58125
3974 21 230 12.3981 -1.85495 6.83013
3867 21 151 12.9769 -2.26871 16.7024
4114 21 326 11.2583 7.50553 -5.77543
4131 21 339 10.5183 5.90317 0.537737
3957 21 213 14.9098 5.59343 15.3079
ITEM: TIMESTEP
1505000
ITEM: NUMBER OF ATOMS
45
ITEM: BOX BOUNDS pp pp pp
-1.9089121329527284e+01 1.7270101550601847e+01
-2.4536855353706226e+01 1.4309447111618820e+01
-9.2319954444565546e+00 2.0604654265896226e+01
ITEM: ATOMS id type mol x y z
4140 21 346 -14.132 -7.93602 3.08722
3958 21 214 -12.7639 6.73757 20.5936
3990 21 240 -12.3984 5.9813 14.5525
3897 21 173 -16.4153 12.3815 15.9801
4123 21 333 -8.97328 -23.3053 16.3185
4080 21 306 -8.85214 -23.3449 11.5738
4136 21 342 -9.12469 -22.8414 7.4243
3800 21 108 -7.70944 -15.1521 1.66532
3938 21 200 -11.1723 -3.27009 -4.90584
4049 21 285 -11.7955 -6.73702 -4.26202
4066 21 296 -8.95031 0.762715 19.2599
3965 21 221 -10.6136 5.73528 1.37439
3968 21 224 -11.3359 11.8396 3.25168
4141 21 347 -11.3359 11.403 6.58551
4129 21 337 -10.1005 14.1568 19.2134
3988 21 238 -1.37307 -16.0213 -1.25068
4065 21 295 0.368425 -15.8486 -9.15267
4043 21 279 0.470493 -8.82651 -5.05303
4137 21 343 -0.00558222 -11.3563 9.57274
3943 21 205 2.17957 -8.14042 20.0337
3821 21 123 -2.06063 -9.1599 17.591
3810 21 116 2.19707 -4.72267 11.136
3889 21 167 1.61338 2.78632 4.98667
4082 21 308 0.388678 -1.79093 -5.94333
3939 21 201 0.81918 -1.83519 19.4431
4028 21 268 0.592554 7.59255 17.9413
4135 21 341 -3.77729 9.38839 17.1777
3928 21 194 -0.0281681 10.3864 10.6926
4029 21 269 0.363342 9.41302 7.001
4142 21 348 4.3853 -23.8999 7.86687
4046 21 282 7.84089 -10.6081 0.987026
4130 21 338 4.7602 -12.3251 4.32915
3834 21 130 5.38125 -9.20959 2.6265
3868 21 152 8.79321 -2.41222 -0.104027
3825 21 125 8.82999 -2.31642 13.3729
3997 21 245 16.9349 -21.7063 9.77814
3978 21 232 14.8799 -19.0712 12.0985
3996 21 244 13.1019 -13.8606 -6.18639
4139 21 345 13.7053 -17.7628 14.7648
4081 21 307 10.2234 0.756471 -1.6621
3974 21 230 12.3195 -1.8431 6.84286
3867 21 151 12.8949 -2.25836 16.8249
4114 21 326 11.1864 7.55141 -5.90295
4131 21 339 10.4508 5.94323 0.480457
3957 21 213 14.8164 5.63236 15.4149
ITEM: TIMESTEP
1510000
ITEM: NUMBER OF ATOMS
45
ITEM: BOX BOUNDS pp pp pp
-1.9307977065096228e+01 1.7488957286170791e+01
-2.4531416329921086e+01 1.4304008087833679e+01
-9.1327245848309282e+00 2.0505383406288267e+01
ITEM: ATOMS id type mol x y z
4140 21 346 -14.2912 -7.93523 3.10452
3958 21 214 -12.9067 6.73425 20.4944
3990 21 240 -12.5367 5.9782 14.4935
3897 21 173 -16.602 12.3766 15.9116
4123 21 333 -9.07036 -23.3002 16.2478
4080 21 306 -8.94776 -23.3398 11.5346
4136 21 342 -9.22359 -22.8364 7.41274
3800 21 108 -7.7913 -15.1493 1.69208
3938 21 200 -11.2958 -3.27061 -4.83536
4049 21 285 -11.9266 -6.73656 -4.19582
4066 21 296 -9.04711 0.761069 19.1695
3965 21 221 -10.7305 5.73225 1.40308
4141 21 347 -11.4614 11.3984 6.57953
4129 21 337 -10.2111 14.1514 19.1234
3988 21 238 -1.37865 -16.0183 -1.20452
4065 21 295 0.38381 -15.8456 -9.05393
4043 21 279 0.487106 -8.82547 -4.98157
4137 21 343 0.00529973 -11.3545 9.54688
3943 21 205 2.21676 -8.13957 19.9382
3821 21 123 -2.07449 -9.15876 17.5118
3810 21 116 2.23446 -4.72278 11.0998
3889 21 167 1.64375 2.78411 4.99132
4082 21 308 0.404306 -1.79186 -5.86595
3939 21 201 0.839991 -1.83611 19.3515
4028 21 268 0.610637 7.589 17.8597
4135 21 341 -3.81181 9.38433 17.1012
3928 21 194 -0.017558 10.382 10.6593
4029 21 269 0.378665 9.40896 6.99225
4142 21 348 4.44904 -23.8947 7.85236
4046 21 282 7.94623 -10.6065 1.0183
4130 21 338 4.82845 -12.3231 4.33818
3834 21 130 5.45698 -9.20845 2.64686
3868 21 152 8.91002 -2.41298 -0.0654958
3825 21 125 8.94724 -2.3172 13.3218
3997 21 245 17.1498 -21.7017 9.75091
3978 21 232 15.07 -19.0673 12.0558
3996 21 244 13.2706 -13.8582 -6.10738
4139 21 345 13.8812 -17.7593 14.7044
4143 21 349 13.7791 -3.43278 19.3301
4081 21 307 10.3574 0.754828 -1.6132
3974 21 230 12.4787 -1.84402 6.83516
3867 21 151 13.0611 -2.25916 16.7508
4114 21 326 11.332 7.54787 -5.82583
4131 21 339 10.5876 5.94014 0.515099
3957 21 213 15.0057 5.62935 15.3502
ITEM: TIMESTEP
1515000
ITEM: NUMBER OF ATOMS
45
ITEM: BOX BOUNDS pp pp pp
-1.9187919504315524e+01 1.7368899725390087e+01
-2.4454667043337174e+01 1.4227258801249768e+01
-9.2927841258491100e+00 2.0665442947231334e+01
ITEM: ATOMS id type mol x y z
4140 21 346 -14.2038 -7.92408 3.07663
3958 21 214 -12.8284 6.68742 20.6544
3990 21 240 -12.4608 5.93436 14.5886
3897 21 173 -16.4996 12.3074 16.0221
4123 21 333 -9.01711 -23.2283 16.3619
4080 21 306 -8.8953 -23.2678 11.5978
4136 21 342 -9.16934 -22.7664 7.43138
3800 21 108 -7.7464 -15.1096 1.64894
4144 21 350 -5.1908 -17.5549 17.6453
3938 21 200 -11.2281 -3.27789 -4.949
4049 21 285 -11.8547 -6.73015 -4.30256
4066 21 296 -8.99401 0.737849 19.3152
3965 21 221 -10.6664 5.68938 1.35682
4141 21 347 -11.3925 11.3331 6.58918
4129 21 337 -10.1504 14.0753 19.2685
3988 21 238 -1.37559 -15.9752 -1.27895
4043 21 279 0.477993 -8.8108 -5.0968
4137 21 343 -0.000669776 -11.3299 9.58858
3943 21 205 2.19636 -8.12761 20.0922
3821 21 123 -2.06689 -9.14278 17.6395
3810 21 116 2.21395 -4.72432 11.1582
3889 21 167 1.62709 2.75289 4.98382
4082 21 308 0.395733 -1.80499 -5.99072
3939 21 201 0.828574 -1.84906 19.4991
4028 21 268 0.600717 7.53879 17.9912
4135 21 341 -3.79287 9.32702 17.2245
3928 21 194 -0.0233784 10.3208 10.713
4029 21 269 0.370259 9.35155 7.00636
4142 21 348 4.41407 -23.8204 7.87576
4046 21 282 7.88844 -10.5848 0.967878
4130 21 338 4.79101 -12.2946 4.32362
3834 21 130 5.41544 -9.19226 2.61403
3868 21 152 8.84594 -2.42365 -0.127621
3825 21 125 8.88292 -2.32825 13.4043
3997 21 245 17.0319 -21.6361 9.79482
3978 21 232 14.9657 -19.0122 12.1246
3996 21 244 13.1781 -13.8236 -6.23476
4139 21 345 13.7847 -17.7093 14.8018
4143 21 349 13.6833 -3.43943 19.4775
4081 21 307 10.2839 0.731632 -1.69205
3974 21 230 12.3914 -1.85694 6.84757
3867 21 151 12.9699 -2.27045 16.8703
4114 21 326 11.2522 7.49782 -5.95017
4131 21 339 10.5125 5.89645 0.459245
3957 21 213 14.9019 5.58689 15.4546
ITEM: TIMESTEP
1520000
ITEM: NUMBER OF ATOMS
45
ITEM: BOX BOUNDS pp pp pp
-1.9277580485960737e+01 1.7458560707035300e+01
-2.4562652236232022e+01 1.4335243994144616e+01
-9.1574260934270697e+00 2.0530084914839943e+01
ITEM: ATOMS id type mol x y z
4140 21 346 -14.2691 -7.93977 3.10022
3958 21 214 -12.8868 6.75331 20.5191
3990 21 240 -12.5175 5.99604 14.5081
3897 21 173 -16.5761 12.4047 15.9287
4136 21 342 -9.20985 -22.8649 7.41561
4123 21 333 -9.05688 -23.3294 16.2654
4080 21 306 -8.93448 -23.3691 11.5443
3800 21 108 -7.77993 -15.1654 1.68542
4144 21 350 -5.2118 -17.6244 17.5373
3938 21 200 -11.2787 -3.26765 -4.85289
4049 21 285 -11.9084 -6.73918 -4.21229
4066 21 296 -9.03367 0.77052 19.192
3965 21 221 -10.7142 5.74969 1.39594
4141 21 347 -11.444 11.425 6.58102
4129 21 337 -10.1957 14.1824 19.1458
3988 21 238 -1.37788 -16.0358 -1.21601
4043 21 279 0.484799 -8.83144 -4.99935
4137 21 343 0.00378835 -11.3646 9.55332
3943 21 205 2.21159 -8.14444 19.962
3821 21 123 -2.07256 -9.16527 17.5315
3810 21 116 2.22927 -4.72215 11.1088
3889 21 167 1.63954 2.79682 4.99016
4082 21 308 0.402136 -1.78652 -5.8852
3939 21 201 0.8371 -1.83084 19.3743
4028 21 268 0.608126 7.60943 17.88
4135 21 341 -3.80702 9.40765 17.1202
3928 21 194 -0.0190317 10.407 10.6676
4029 21 269 0.376537 9.43232 6.99443
4142 21 348 4.44018 -23.9249 7.85597
4046 21 282 7.9316 -10.6154 1.01052
4130 21 338 4.81897 -12.3347 4.33593
3834 21 130 5.44646 -9.21503 2.64179
3868 21 152 8.8938 -2.40864 -0.0750834
3825 21 125 8.93096 -2.3127 13.3345
3997 21 245 17.1199 -21.7284 9.75769
3978 21 232 15.0436 -19.0898 12.0664
3996 21 244 13.2472 -13.8723 -6.12704
4139 21 345 13.8568 -17.7796 14.7195
4143 21 349 13.7549 -3.43008 19.3528
4081 21 307 10.3388 0.764268 -1.62537
3974 21 230 12.4566 -1.83876 6.83707
3867 21 151 13.038 -2.25457 16.7692
4114 21 326 11.3118 7.56824 -5.84502
4131 21 339 10.5686 5.95792 0.506479
3957 21 213 14.9794 5.64663 15.3663
ITEM: TIMESTEP
1525000
ITEM: NUMBER OF ATOMS
45
ITEM: BOX BOUNDS pp pp pp
-1.9093043707420918e+01 1.7274023928495481e+01
-2.4504679411477561e+01 1.4277271169390154e+01
-9.1833539535611877e+00 2.0556012774946911e+01
ITEM: ATOMS id type mol x y z
4148 21 352 -12.3806 -18.7664 14.5185
4140 21 346 -14.1348 -7.93135 3.0957
3958 21 214 -12.7665 6.71794 20.545
3990 21 240 -12.4009 5.96292 14.5236
3897 21 173 -16.4187 12.3525 15.9465
4136 21 342 -9.12646 -22.812 7.41863
4123 21 333 -8.97502 -23.2751 16.2839
4080 21 306 -8.85385 -23.3147 11.5546
3800 21 108 -7.71091 -15.1354 1.67843
4144 21 350 -5.16857 -17.5871 17.558
3938 21 200 -11.1745 -3.27315 -4.8713
4049 21 285 -11.7979 -6.73433 -4.22958
4066 21 296 -8.95205 0.75298 19.2156
3965 21 221 -10.6157 5.71731 1.38845
4141 21 347 -11.3381 11.3757 6.58258
4129 21 337 -10.1024 14.1249 19.1693
3988 21 238 -1.37317 -16.0033 -1.22806
4043 21 279 0.470791 -8.82036 -5.01802
4137 21 343 -0.0053872 -11.3459 9.56007
3943 21 205 2.18023 -8.1354 19.9869
3821 21 123 -2.06088 -9.15319 17.5522
3810 21 116 2.19774 -4.72332 11.1183
3889 21 167 1.61393 2.77324 4.98895
4082 21 308 0.388958 -1.79644 -5.90542
3939 21 201 0.819553 -1.84062 19.3982
4028 21 268 0.592878 7.57151 17.9013
4135 21 341 -3.77791 9.36436 17.1402
3928 21 194 -0.0279779 10.3607 10.6763
4029 21 269 0.363617 9.38896 6.99671
4142 21 348 4.38644 -23.8688 7.85976
4046 21 282 7.84277 -10.599 1.00235
4130 21 338 4.76142 -12.3132 4.33357
3834 21 130 5.38261 -9.20281 2.63647
3868 21 152 8.79531 -2.4167 -0.085147
3825 21 125 8.8321 -2.32105 13.3479
3997 21 245 16.9388 -21.6788 9.7648
3978 21 232 14.8833 -19.0481 12.0776
3996 21 244 13.105 -13.8462 -6.14767
4139 21 345 13.7085 -17.7419 14.7352
4081 21 307 10.2258 0.746747 -1.63814
3974 21 230 12.3223 -1.84852 6.83908
3867 21 151 12.8979 -2.2631 16.7886
4114 21 326 11.189 7.53043 -5.86516
4131 21 339 10.4532 5.92492 0.497431
3957 21 213 14.8198 5.61456 15.3832
ITEM: TIMESTEP
1530000
ITEM: NUMBER OF ATOMS
45
ITEM: BOX BOUNDS pp pp pp
-1.9149030677865735e+01 1.7330010898940298e+01
-2.4551529147676984e+01 1.4324120905589577e+01
-9.2363078534426926e+00 2.0608966674791553e+01
ITEM: ATOMS id type mol x y z
4148 21 352 -12.4159 -18.7994 14.55
4140 21 346 -14.1756 -7.93816 3.08647
3958 21 214 -12.803 6.74653 20.5979
3990 21 240 -12.4362 5.98969 14.555
3897 21 173 -16.4664 12.3947 15.9831
4136 21 342 -9.15176 -22.8548 7.4248
4123 21 333 -8.99986 -23.319 16.3216
4080 21 306 -8.87831 -23.3587 11.5755
3800 21 108 -7.73185 -15.1596 1.66416
4144 21 350 -5.18169 -17.6172 17.6002
3938 21 200 -11.2061 -3.2687 -4.9089
4049 21 285 -11.8314 -6.73825 -4.2649
4066 21 296 -8.97681 0.767154 19.2638
3965 21 221 -10.6456 5.74348 1.37314
4141 21 347 -11.3702 11.4155 6.58577
4129 21 337 -10.1307 14.1714 19.2173
3988 21 238 -1.3746 -16.0296 -1.25269
4043 21 279 0.475041 -8.82932 -5.05614
4137 21 343 -0.00260341 -11.361 9.57387
3943 21 205 2.18975 -8.1427 20.0379
3821 21 123 -2.06442 -9.16295 17.5945
3810 21 116 2.2073 -4.72237 11.1376
3889 21 167 1.6217 2.79229 4.98646
4082 21 308 0.392956 -1.78842 -5.9467
3939 21 201 0.824877 -1.83271 19.4471
4028 21 268 0.597504 7.60215 17.9448
4135 21 341 -3.78674 9.39934 17.181
3928 21 194 -0.0252637 10.3981 10.694
4029 21 269 0.367536 9.424 7.00138
4142 21 348 4.40274 -23.9141 7.8675
4046 21 282 7.86972 -10.6122 0.985668
4130 21 338 4.77888 -12.3306 4.32875
3834 21 130 5.40198 -9.21269 2.62561
3868 21 152 8.82519 -2.41018 -0.1057
3825 21 125 8.86209 -2.3143 13.3752
3997 21 245 16.9937 -21.7189 9.77933
3978 21 232 14.932 -19.0818 12.1003
3996 21 244 13.1481 -13.8673 -6.18982
4139 21 345 13.7535 -17.7724 14.7675
4081 21 307 10.26 0.760906 -1.66423
3974 21 230 12.3631 -1.84063 6.84319
3867 21 151 12.9404 -2.25621 16.8281
4114 21 326 11.2263 7.56098 -5.9063
4131 21 339 10.4882 5.95159 0.478953
3957 21 213 14.8682 5.64048 15.4178
ITEM: TIMESTEP
1535000
ITEM: NUMBER OF ATOMS
46
ITEM: BOX BOUNDS pp pp pp
-1.9131659854256196e+01 1.7312640075330759e+01
-2.4438727982783821e+01 1.4211319740696414e+01
-9.2717085752788400e+00 2.0644367396596792e+01
ITEM: ATOMS id type mol x y z
4151 21 355 -12.1861 -22.0501 11.4262
4148 21 352 -12.405 -18.72 14.571
4140 21 346 -14.1629 -7.92176 3.08031
3958 21 214 -12.7917 6.6777 20.6333
3990 21 240 -12.4253 5.92525 14.5761
3897 21 173 -16.4516 12.2931 16.0075
4136 21 342 -9.14391 -22.7518 7.42893
4123 21 333 -8.99215 -23.2134 16.3468
4080 21 306 -8.87072 -23.2528 11.5894
3800 21 108 -7.72535 -15.1014 1.65462
4144 21 350 -5.17762 -17.5446 17.6285
3938 21 200 -11.1963 -3.27941 -4.93404
4049 21 285 -11.821 -6.72882 -4.2885
4066 21 296 -8.96912 0.733027 19.296
3965 21 221 -10.6363 5.68047 1.36291
4141 21 347 -11.3603 11.3196 6.58791
4129 21 337 -10.122 14.0594 19.2494
3988 21 238 -1.37416 -15.9662 -1.26915
4043 21 279 0.473722 -8.80775 -5.08162
4137 21 343 -0.00346712 -11.3247 9.58309
3943 21 205 2.1868 -8.12513 20.0719
3821 21 123 -2.06332 -9.13946 17.6227
3810 21 116 2.20433 -4.72464 11.1506
3889 21 167 1.61929 2.74641 4.9848
4082 21 308 0.391716 -1.80772 -5.97429
4149 21 353 0.0123792 0.573337 6.09869
3939 21 201 0.823225 -1.85175 19.4797
4028 21 268 0.596069 7.52836 17.9739
3928 21 194 -0.0261058 10.3081 10.7059
4029 21 269 0.36632 9.33963 7.0045
4142 21 348 4.39768 -23.805 7.87268
4046 21 282 7.86136 -10.5803 0.974516
4130 21 338 4.77346 -12.2887 4.32553
3834 21 130 5.39597 -9.1889 2.61835
3868 21 152 8.81592 -2.42587 -0.119441
3825 21 125 8.85278 -2.33055 13.3934
3997 21 245 16.9767 -21.6225 9.78904
3978 21 232 14.9169 -19.0007 12.1155
3996 21 244 13.1347 -13.8165 -6.21799
4139 21 345 13.7395 -17.6989 14.789
4081 21 307 10.2494 0.726815 -1.68166
3974 21 230 12.3504 -1.85962 6.84593
3867 21 151 12.9272 -2.27279 16.8546
4114 21 326 11.2147 7.48743 -5.9338
4131 21 339 10.4774 5.88737 0.466599
3957 21 213 14.8532 5.57807 15.4408
ITEM: TIMESTEP
1540000
ITEM: NUMBER OF ATOMS
46
ITEM: BOX BOUNDS pp pp pp
-1.9186313105788564e+01 1.7367293326863127e+01
-2.4643708221106120e+01 1.4416299979018714e+01
-9.1308996443625041e+00 2.0503558465713905e+01
ITEM: ATOMS id type mol x y z
4151 21 355 -12.22 -22.2298 11.3722
4148 21 352 -12.4394 -18.8643 14.4874
4140 21 346 -14.2027 -7.95155 3.10484
3958 21 214 -12.8273 6.80277 20.4926
3990 21 240 -12.4598 6.04234 14.4924
3897 21 173 -16.4982 12.4777 15.9103
4136 21 342 -9.16861 -22.9389 7.41252
4123 21 333 -9.01639 -23.4053 16.2465
4080 21 306 -8.8946 -23.4452 11.5339
3800 21 108 -7.74579 -15.2073 1.69257
4144 21 350 -5.19042 -17.6765 17.5161
3938 21 200 -11.2271 -3.25995 -4.83406
4049 21 285 -11.8537 -6.74595 -4.1946
4066 21 296 -8.9933 0.795043 19.1679
3965 21 221 -10.6655 5.79497 1.40361
4141 21 347 -11.3916 11.4939 6.57942
4129 21 337 -10.1496 14.2628 19.1217
3988 21 238 -1.37555 -16.0814 -1.20367
4043 21 279 0.477871 -8.84694 -4.98026
4137 21 343 -0.000749649 -11.3906 9.54641
3943 21 205 2.19608 -8.15707 19.9365
3821 21 123 -2.06679 -9.18216 17.5104
3810 21 116 2.21367 -4.72052 11.0991
3889 21 167 1.62687 2.82978 4.99141
4082 21 308 0.395618 -1.77265 -5.86453
4149 21 353 0.0151442 0.633659 6.09481
3939 21 201 0.828422 -1.81716 19.3499
4028 21 268 0.600585 7.66246 17.8582
3928 21 194 -0.0234563 10.4716 10.6587
4029 21 269 0.370147 9.49294 6.99209
4142 21 348 4.4136 -24.0033 7.8521
4046 21 282 7.88767 -10.6383 1.01887
4130 21 338 4.79051 -12.3648 4.33834
3834 21 130 5.41488 -9.23213 2.64723
3868 21 152 8.84508 -2.39736 -0.0647875
3825 21 125 8.88206 -2.30103 13.3209
3997 21 245 17.0303 -21.7976 9.75041
3978 21 232 14.9643 -19.148 12.055
3996 21 244 13.1769 -13.9088 -6.10593
4139 21 345 13.7834 -17.8324 14.7033
4081 21 307 10.2829 0.788765 -1.61231
3974 21 230 12.3902 -1.82511 6.83502
3867 21 151 12.9687 -2.24266 16.7494
4114 21 326 11.2511 7.62109 -5.82441
4131 21 339 10.5115 6.00406 0.515736
3957 21 213 14.9005 5.69148 15.349
ITEM: TIMESTEP
1545000
ITEM: NUMBER OF ATOMS
44
ITEM: BOX BOUNDS pp pp pp
-1.9357550605467726e+01 1.7538530826542289e+01
-2.4433696296608023e+01 1.4206288054520616e+01
-9.0695429254172062e+00 2.0442201746773343e+01
ITEM: ATOMS id type mol x y z
4151 21 355 -12.3259 -22.0457 11.3486
4148 21 352 -12.5475 -18.7164 14.4509
3958 21 214 -12.939 6.67463 20.4313
3990 21 240 -12.568 5.92238 14.4559
3897 21 173 -16.6443 12.2885 15.868
4136 21 342 -9.24599 -22.7472 7.40538
4123 21 333 -9.09235 -23.2086 16.2028
4080 21 306 -8.96942 -23.2481 11.5097
3800 21 108 -7.80984 -15.0987 1.70911
4144 21 350 -5.23053 -17.5414 17.4671
3938 21 200 -11.3238 -3.27989 -4.7905
4049 21 285 -11.9563 -6.7284 -4.15369
4066 21 296 -9.06904 0.731504 19.112
3965 21 221 -10.7569 5.67766 1.42134
4141 21 347 -11.4898 11.3153 6.57572
4129 21 337 -10.2362 14.0544 19.0661
3988 21 238 -1.37992 -15.9634 -1.17514
4043 21 279 0.490869 -8.80679 -4.93609
4137 21 343 0.00776463 -11.3231 9.53042
3943 21 205 2.22518 -8.12434 19.8775
3821 21 123 -2.07763 -9.13841 17.4614
3810 21 116 2.24294 -4.72475 11.0767
3889 21 167 1.65063 2.74436 4.99429
4082 21 308 0.407846 -1.80858 -5.81669
4149 21 353 0.0238074 0.571856 6.09312
3939 21 201 0.844705 -1.8526 19.2933
4028 21 268 0.614733 7.52507 17.8078
3928 21 194 -0.0151547 10.3041 10.6381
4029 21 269 0.382136 9.33587 6.98668
4046 21 282 7.97009 -10.5789 1.0382
4130 21 338 4.84391 -12.2868 4.34393
3834 21 130 5.47413 -9.18784 2.65982
3868 21 152 8.93648 -2.42657 -0.0409727
3825 21 125 8.9738 -2.33127 13.2892
3997 21 245 17.1984 -21.6182 9.73359
3978 21 232 15.1131 -18.9971 12.0286
3996 21 244 13.3088 -13.8142 -6.0571
4139 21 345 13.9211 -17.6957 14.666
4081 21 307 10.3877 0.725294 -1.58208
3974 21 230 12.5148 -1.86047 6.83026
3867 21 151 13.0987 -2.27353 16.7036
4114 21 326 11.365 7.48415 -5.77675
4131 21 339 10.6185 5.88451 0.537147
3957 21 213 15.0486 5.57529 15.309
ITEM: TIMESTEP
1550000
ITEM: NUMBER OF ATOMS
44
ITEM: BOX BOUNDS pp pp pp
-1.9142891999614505e+01 1.7323872220689069e+01
-2.4419728215176640e+01 1.4192319973089234e+01
-9.2668142332161594e+00 2.0639473054482245e+01
ITEM: ATOMS id type mol x y z
4151 21 355 -12.1931 -22.0335 11.4243
4148 21 352 -12.412 -18.7066 14.5681
3958 21 214 -12.799 6.66611 20.6284
3990 21 240 -12.4324 5.9144 14.5732
3897 21 173 -16.4612 12.2759 16.0041
4136 21 342 -9.14899 -22.7345 7.42836
4123 21 333 -8.99713 -23.1956 16.3434
4080 21 306 -8.87563 -23.235 11.5875
3800 21 108 -7.72955 -15.0915 1.65593
4144 21 350 -5.18025 -17.5324 17.6246
3938 21 200 -11.2026 -3.28121 -4.93056
4049 21 285 -11.8277 -6.72723 -4.28524
4066 21 296 -8.97409 0.727278 19.2915
3965 21 221 -10.6423 5.66986 1.36432
4141 21 347 -11.3667 11.3034 6.58761
4129 21 337 -10.1276 14.0406 19.245
3988 21 238 -1.37444 -15.9556 -1.26687
4043 21 279 0.474575 -8.80412 -5.0781
4137 21 343 -0.00290864 -11.3186 9.58181
3943 21 205 2.18871 -8.12217 20.0672
3821 21 123 -2.06404 -9.1355 17.6188
3810 21 116 2.20625 -4.72503 11.1488
3889 21 167 1.62084 2.73868 4.98503
4082 21 308 0.392518 -1.81097 -5.97048
4149 21 353 0.0129475 0.567746 6.09855
3939 21 201 0.824293 -1.85496 19.4752
4028 21 268 0.596997 7.51593 17.9699
3928 21 194 -0.0255613 10.2929 10.7043
4029 21 269 0.367107 9.32542 7.00407
4046 21 282 7.86677 -10.5749 0.976058
4130 21 338 4.77697 -12.2816 4.32598
3834 21 130 5.39986 -9.1849 2.61936
3868 21 152 8.82191 -2.42851 -0.117541
3825 21 125 8.8588 -2.33328 13.3909
3997 21 245 16.9877 -21.6063 9.78769
3978 21 232 14.9266 -18.9871 12.1134
3996 21 244 13.1434 -13.8079 -6.2141
4139 21 345 13.7485 -17.6866 14.786
4081 21 307 10.2563 0.721073 -1.67925
3974 21 230 12.3586 -1.86282 6.84555
3867 21 151 12.9357 -2.27558 16.8509
4114 21 326 11.2222 7.47504 -5.93
4131 21 339 10.4844 5.87656 0.468307
3957 21 213 14.8629 5.56756 15.4376
ITEM: TIMESTEP
1555000
ITEM: NUMBER OF ATOMS
45
ITEM: BOX BOUNDS pp pp pp
-1.9023614860772987e+01 1.7204595081847550e+01
-2.4520685619166432e+01 1.4293277377079026e+01
-9.2342038843851952e+00 2.0606862705645437e+01
ITEM: ATOMS id type mol x y z
4151 21 355 -12.1193 -22.1219 11.4118
4148 21 352 -12.3368 -18.7777 14.5487
3958 21 214 -12.7212 6.72771 20.5958
3990 21 240 -12.357 5.97207 14.5538
3897 21 173 -16.3595 12.3669 15.9816
4136 21 342 -9.09509 -22.8266 7.42456
4123 21 333 -8.94423 -23.2901 16.3201
4080 21 306 -8.82352 -23.3297 11.5746
3800 21 108 -7.68494 -15.1437 1.66472
4144 21 350 -5.15231 -17.5974 17.5986
3938 21 200 -11.1353 -3.27163 -4.90741
4049 21 285 -11.7563 -6.73567 -4.26349
4066 21 296 -8.92134 0.757823 19.2619
3965 21 221 -10.5787 5.72625 1.37375
4141 21 347 -11.2983 11.3893 6.58565
4129 21 337 -10.0673 14.1407 19.2154
3988 21 238 -1.3714 -16.0123 -1.25171
4043 21 279 0.46552 -8.82342 -5.05462
4137 21 343 -0.00883934 -11.3511 9.57332
3943 21 205 2.16844 -8.1379 20.0358
3821 21 123 -2.05648 -9.15653 17.5928
3810 21 116 2.18587 -4.72299 11.1369
3889 21 167 1.60429 2.77975 4.98656
4082 21 308 0.384 -1.7937 -5.94506
4149 21 353 0.00691302 0.597456 6.09765
3939 21 201 0.812951 -1.83792 19.4451
4028 21 268 0.587142 7.58198 17.9431
3928 21 194 -0.0313438 10.3735 10.6933
4029 21 269 0.358755 9.40093 7.00119
4046 21 282 7.80936 -10.6035 0.98633
4130 21 338 4.73977 -12.3191 4.32895
3834 21 130 5.35858 -9.20618 2.62604
3868 21 152 8.75825 -2.41447 -0.104884
3825 21 125 8.7949 -2.31874 13.3741
4152 21 356 3.27282 5.26898 1.18794
3997 21 245 16.8706 -21.6925 9.77875
3978 21 232 14.823 -19.0596 12.0994
3996 21 244 13.0515 -13.8534 -6.18814
4139 21 345 13.6526 -17.7523 14.7662
4081 21 307 10.1832 0.751585 -1.66319
3974 21 230 12.2718 -1.84582 6.84303
3867 21 151 12.8452 -2.26074 16.8266
4114 21 326 11.1428 7.54087 -5.90466
4131 21 339 10.4099 5.93403 0.479687
3957 21 213 14.7597 5.62342 15.4164
ITEM: TIMESTEP
1560000
ITEM: NUMBER OF ATOMS
45
ITEM: BOX BOUNDS pp pp pp
-1.9053520024054606e+01 1.7234500245129169e+01
-2.4658924182479979e+01 1.4431515940392572e+01
-9.1244502173529369e+00 2.0497109038635951e+01
ITEM: ATOMS id type mol x y z
4151 21 355 -12.1378 -22.2431 11.3697
4148 21 352 -12.3557 -18.875 14.4835
3958 21 214 -12.7407 6.81205 20.4862
3990 21 240 -12.3759 6.05103 14.4886
3897 21 173 -16.385 12.4914 15.9059
4136 21 342 -9.1086 -22.9528 7.41177
4123 21 333 -8.95749 -23.4196 16.2419
4080 21 306 -8.83659 -23.4595 11.5313
3800 21 108 -7.69612 -15.2152 1.69431
4144 21 350 -5.15932 -17.6863 17.5109
3938 21 200 -11.1522 -3.25851 -4.82948
4049 21 285 -11.7742 -6.74722 -4.1903
4066 21 296 -8.93456 0.799646 19.162
3965 21 221 -10.5946 5.80347 1.40547
4141 21 347 -11.3155 11.5068 6.57903
4129 21 337 -10.0825 14.2779 19.1159
3988 21 238 -1.37216 -16.0899 -1.20067
4043 21 279 0.467791 -8.84984 -4.97562
4137 21 343 -0.00735239 -11.3955 9.54473
3943 21 205 2.17352 -8.15944 19.9303
3821 21 123 -2.05838 -9.18533 17.5052
3810 21 116 2.19098 -4.72021 11.0968
3889 21 167 1.60844 2.83597 4.99171
4082 21 308 0.386136 -1.77005 -5.8595
4149 21 353 0.00842598 0.638137 6.09463
3939 21 201 0.815794 -1.81459 19.3439
4028 21 268 0.589613 7.67241 17.8529
3928 21 194 -0.029894 10.4838 10.6565
4029 21 269 0.360849 9.50432 6.99152
4046 21 282 7.82375 -10.6426 1.0209
4130 21 338 4.74909 -12.3704 4.33893
3834 21 130 5.36893 -9.23534 2.64856
3868 21 152 8.77421 -2.39525 -0.0622842
3825 21 125 8.81092 -2.29884 13.3175
4152 21 356 3.27972 5.34293 1.22103
3997 21 245 16.9 -21.8106 9.74865
3978 21 232 14.849 -19.159 12.0522
3996 21 244 13.0745 -13.9156 -6.1008
4139 21 345 13.6767 -17.8423 14.6994
4081 21 307 10.2016 0.793364 -1.60913
3974 21 230 12.2936 -1.82255 6.83452
3867 21 151 12.8679 -2.24042 16.7446
4114 21 326 11.1627 7.63101 -5.8194
4131 21 339 10.4285 6.01272 0.517986
3957 21 213 14.7856 5.6999 15.3448
ITEM: TIMESTEP
1565000
ITEM: NUMBER OF ATOMS
47
ITEM: BOX BOUNDS pp pp pp
-1.9095933720805707e+01 1.7276913941880270e+01
-2.4566087593724998e+01 1.4338679351637591e+01
-9.1568937347695218e+00 2.0529552556023027e+01
ITEM: ATOMS id type mol x y z
4151 21 355 -12.164 -22.1617 11.3821
4148 21 352 -12.3824 -18.8097 14.5028
3958 21 214 -12.7684 6.75541 20.5186
3990 21 240 -12.4027 5.998 14.5078
3897 21 173 -16.4212 12.4078 15.9283
4136 21 342 -9.12777 -22.8681 7.41555
4123 21 333 -8.97631 -23.3326 16.265
4080 21 306 -8.85512 -23.3724 11.5441
4155 21 359 -7.38762 -19.7778 8.03606
3800 21 108 -7.71199 -15.1672 1.68556
4144 21 350 -5.16925 -17.6266 17.5368
4153 21 357 -8.95614 -10.8986 2.62208
3938 21 200 -11.1761 -3.26732 -4.85252
4049 21 285 -11.7996 -6.73946 -4.21194
4066 21 296 -8.95332 0.771559 19.1915
3965 21 221 -10.6173 5.75161 1.39609
4141 21 347 -11.3398 11.4279 6.58099
4129 21 337 -10.1039 14.1858 19.1453
3988 21 238 -1.37325 -16.0378 -1.21576
4043 21 279 0.47101 -8.8321 -4.99897
4137 21 343 -0.0052435 -11.3657 9.55318
3943 21 205 2.18073 -8.14497 19.9615
3821 21 123 -2.06106 -9.16599 17.5311
3810 21 116 2.19823 -4.72208 11.1086
3889 21 167 1.61433 2.79821 4.99019
4082 21 308 0.389164 -1.78593 -5.88479
4149 21 353 0.0105718 0.610817 6.09552
3939 21 201 0.819828 -1.83026 19.3738
4028 21 268 0.593117 7.61168 17.8796
3928 21 194 -0.0278378 10.4097 10.6674
4029 21 269 0.363819 9.43489 6.99438
4046 21 282 7.84417 -10.6163 1.01068
4130 21 338 4.76232 -12.336 4.33598
3834 21 130 5.38361 -9.21576 2.6419
3868 21 152 8.79685 -2.40816 -0.0748768
3825 21 125 8.83364 -2.31221 13.3342
4152 21 356 3.28952 5.29327 1.21125
3997 21 245 16.9416 -21.7313 9.75754
3978 21 232 14.8858 -19.0923 12.0662
3996 21 244 13.1072 -13.8738 -6.12662
4139 21 345 13.7108 -17.7819 14.7191
4081 21 307 10.2275 0.765306 -1.62511
3974 21 230 12.3244 -1.83818 6.83703
3867 21 151 12.9001 -2.25407 16.7688
4114 21 326 11.191 7.57048 -5.8446
4131 21 339 10.4551 5.95987 0.506665
3957 21 213 14.8223 5.64853 15.366
ITEM: TIMESTEP
1570000
ITEM: NUMBER OF ATOMS
47
ITEM: BOX BOUNDS pp pp pp
-1.9258879208240927e+01 1.7439859429315490e+01
-2.4525594462535846e+01 1.4298186220448439e+01
-9.0450027935409238e+00 2.0417661614818339e+01
ITEM: ATOMS id type mol x y z
4151 21 355 -12.2649 -22.1262 11.3392
4148 21 352 -12.4852 -18.7812 14.4363
3958 21 214 -12.8746 6.7307 20.4068
3990 21 240 -12.5057 5.97487 14.4413
3897 21 173 -16.5601 12.3713 15.8511
4136 21 342 -9.2014 -22.8311 7.40252
4123 21 333 -9.04858 -23.2947 16.1853
4080 21 306 -8.92631 -23.3343 11.5
4155 21 359 -7.44566 -19.7472 8.01835
3800 21 108 -7.77294 -15.1462 1.71572
4144 21 350 -5.20742 -17.6005 17.4475
4153 21 357 -9.02823 -10.8866 2.64518
3938 21 200 -11.2681 -3.27116 -4.77307
4049 21 285 -11.8972 -6.73608 -4.13732
4066 21 296 -9.02539 0.759308 19.0897
3965 21 221 -10.7043 5.72899 1.42844
4141 21 347 -11.4332 11.3935 6.57424
4129 21 337 -10.1863 14.1456 19.0439
3988 21 238 -1.3774 -16.015 -1.16373
4043 21 279 0.483379 -8.82436 -4.91842
4137 21 343 0.00285849 -11.3527 9.52403
3943 21 205 2.20841 -8.13866 19.8539
3821 21 123 -2.07138 -9.15755 17.4418
3810 21 116 2.22607 -4.7229 11.0677
3889 21 167 1.63694 2.78174 4.99544
4082 21 308 0.4008 -1.79286 -5.79756
4149 21 353 0.0188154 0.5989 6.09244
3939 21 201 0.835322 -1.83709 19.2706
4028 21 268 0.60658 7.58519 17.7877
3928 21 194 -0.0199383 10.3774 10.6298
4029 21 269 0.375228 9.4046 6.98452
4046 21 282 7.9226 -10.6049 1.04593
4130 21 338 4.81314 -12.3209 4.34616
3834 21 130 5.43999 -9.20722 2.66485
3868 21 152 8.88381 -2.41379 -0.0314477
3825 21 125 8.92094 -2.31804 13.2766
4152 21 356 3.32714 5.2716 1.24498
3997 21 245 17.1016 -21.6967 9.72685
3978 21 232 15.0274 -19.0632 12.0181
3996 21 244 13.2328 -13.8556 -6.03757
4139 21 345 13.8418 -17.7555 14.651
4081 21 307 10.3273 0.753068 -1.56999
3974 21 230 12.443 -1.845 6.82836
3867 21 151 13.0238 -2.26002 16.6853
4114 21 326 11.2994 7.54407 -5.75768
4131 21 339 10.5569 5.93682 0.54571
3957 21 213 14.9632 5.62613 15.293
ITEM: TIMESTEP
1575000
ITEM: NUMBER OF ATOMS
48
ITEM: BOX BOUNDS pp pp pp
-1.9292604858336627e+01 1.7473585079411190e+01
-2.4504844780693386e+01 1.4277436538605979e+01
-9.0877604199568935e+00 2.0460419241200739e+01
ITEM: ATOMS id type mol x y z
4151 21 355 -12.2857 -22.1081 11.3556
4148 21 352 -12.5065 -18.7665 14.4617
3958 21 214 -12.8966 6.71804 20.4495
3990 21 240 -12.527 5.96302 14.4667
3897 21 173 -16.5889 12.3526 15.8806
4136 21 342 -9.21664 -22.8122 7.4075
4123 21 333 -9.06354 -23.2753 16.2157
4080 21 306 -8.94104 -23.3149 11.5168
4155 21 359 -7.45768 -19.7316 8.02512
3800 21 108 -7.78555 -15.1355 1.7042
4144 21 350 -5.21532 -17.5872 17.4817
4153 21 357 -9.04315 -10.8804 2.63635
3938 21 200 -11.2872 -3.27313 -4.80343
4049 21 285 -11.9174 -6.73434 -4.16584
4066 21 296 -9.04031 0.75303 19.1286
3965 21 221 -10.7223 5.7174 1.41608
4141 21 347 -11.4526 11.3758 6.57682
4129 21 337 -10.2033 14.125 19.0826
3988 21 238 -1.37826 -16.0034 -1.18361
4043 21 279 0.485939 -8.82039 -4.9492
4137 21 343 0.0045354 -11.346 9.53517
3943 21 205 2.21414 -8.13543 19.895
3821 21 123 -2.07352 -9.15323 17.4759
3810 21 116 2.23184 -4.72331 11.0834
3889 21 167 1.64162 2.7733 4.99343
4082 21 308 0.403209 -1.79641 -5.8309
4149 21 353 0.0205217 0.592794 6.09362
3939 21 201 0.838529 -1.84059 19.3101
4028 21 268 0.609367 7.57161 17.8228
3928 21 194 -0.0183033 10.3608 10.6442
4029 21 269 0.377589 9.38908 6.98829
4046 21 282 7.93883 -10.599 1.03246
4130 21 338 4.82366 -12.3132 4.34227
3834 21 130 5.45166 -9.20284 2.65608
3868 21 152 8.90181 -2.41668 -0.0480436
4159 21 361 3.67355 -2.74166 4.70165
3825 21 125 8.93901 -2.32103 13.2986
4152 21 356 3.33493 5.2605 1.23209
3997 21 245 17.1347 -21.679 9.73858
3978 21 232 15.0566 -19.0482 12.0365
3996 21 244 13.2588 -13.8462 -6.0716
4139 21 345 13.8689 -17.742 14.6771
4081 21 307 10.348 0.746797 -1.59106
3974 21 230 12.4676 -1.84849 6.83167
3867 21 151 13.0494 -2.26307 16.7172
4114 21 326 11.3218 7.53054 -5.7909
4131 21 339 10.5779 5.92501 0.530789
3957 21 213 14.9924 5.61465 15.3209
ITEM: TIMESTEP
1580000
ITEM: NUMBER OF ATOMS
47
ITEM: BOX BOUNDS pp pp pp
-1.9063975969054795e+01 1.7244956190129358e+01
-2.4313581420431618e+01 1.4086173178344211e+01
-9.2611313631171441e+00 2.0633790184278681e+01
ITEM: ATOMS id type mol x y z
4151 21 355 -12.1443 -21.9404 11.4221
4148 21 352 -12.3623 -18.6319 14.5647
3958 21 214 -12.7475 6.60134 20.6227
3990 21 240 -12.3825 5.85376 14.5698
3897 21 173 -16.3939 12.1803 16.0002
4136 21 342 -9.11333 -22.6376 7.4277
4123 21 333 -8.96213 -23.0961 16.3393
4080 21 306 -8.84115 -23.1353 11.5853
4155 21 359 -7.37624 -19.5874 8.05256
3800 21 108 -7.70004 -15.0367 1.65747
4144 21 350 -5.16177 -17.4641 17.6201
4153 21 357 -8.942 -10.8235 2.60056
3938 21 200 -11.1581 -3.29129 -4.92653
4049 21 285 -11.7805 -6.71836 -4.28145
4066 21 296 -8.93919 0.695164 19.2864
3965 21 221 -10.6002 5.61057 1.36597
4141 21 347 -11.3215 11.2132 6.58727
4129 21 337 -10.0877 13.9353 19.2398
3988 21 238 -1.37243 -15.896 -1.26423
4043 21 279 0.468584 -8.78383 -5.07401
4137 21 343 -0.0068325 -11.2845 9.58033
3943 21 205 2.1753 -8.10562 20.0617
3821 21 123 -2.05904 -9.11339 17.6143
3810 21 116 2.19277 -4.72716 11.1467
3889 21 167 1.60989 2.69551 4.9853
4082 21 308 0.386882 -1.82913 -5.96605
3939 21 201 0.816789 -1.87288 19.4699
4028 21 268 0.590477 7.44649 17.9652
3928 21 194 -0.0293871 10.2082 10.7024
4029 21 269 0.361581 9.24604 7.00357
4046 21 282 7.82878 -10.5449 0.977848
4130 21 338 4.75236 -12.2422 4.3265
3834 21 130 5.37255 -9.16251 2.62052
3868 21 152 8.77979 -2.44328 -0.115335
4159 21 361 3.61655 -2.76506 4.6901
3825 21 125 8.81652 -2.34857 13.388
4152 21 356 3.28214 5.15818 1.17982
3997 21 245 16.9103 -21.5156 9.78613
3978 21 232 14.8581 -18.9108 12.111
3996 21 244 13.0826 -13.7601 -6.20957
4139 21 345 13.6851 -17.6174 14.7826
4081 21 307 10.208 0.688992 -1.67645
3974 21 230 12.3012 -1.8807 6.84511
3867 21 151 12.8758 -2.29119 16.8467
4114 21 326 11.1697 7.40583 -5.92558
4131 21 339 10.4351 5.81613 0.47029
3957 21 213 14.7946 5.50883 15.4339
ITEM: TIMESTEP
1585000
ITEM: NUMBER OF ATOMS
47
ITEM: BOX BOUNDS pp pp pp
-1.9193013111297503e+01 1.7373993332372066e+01
-2.4476468360801132e+01 1.4249060118713725e+01
-9.1798588530376222e+00 2.0552517674211931e+01
ITEM: ATOMS id type mol x y z
4151 21 355 -12.2241 -22.0832 11.3909
4148 21 352 -12.4437 -18.7466 14.5164
3958 21 214 -12.8317 6.70073 20.5415
3990 21 240 -12.464 5.94681 14.5215
3897 21 173 -16.504 12.3271 15.9441
4136 21 342 -9.17164 -22.7863 7.41823
4123 21 333 -9.01937 -23.2487 16.2814
4080 21 306 -8.89753 -23.2882 11.5532
4155 21 359 -7.4222 -19.7102 8.0397
3800 21 108 -7.7483 -15.1209 1.67937
4144 21 350 -5.19199 -17.5689 17.5552
4153 21 357 -8.99909 -10.872 2.61734
3938 21 200 -11.2309 -3.27583 -4.86882
4049 21 285 -11.8577 -6.73197 -4.22725
4066 21 296 -8.99626 0.744445 19.2124
3965 21 221 -10.6691 5.70155 1.38946
4141 21 347 -11.3955 11.3517 6.58237
4129 21 337 -10.153 14.0969 19.1661
3988 21 238 -1.37572 -15.9874 -1.22644
4043 21 279 0.478379 -8.81497 -5.0155
4137 21 343 -0.000416511 -11.3369 9.55916
3943 21 205 2.19722 -8.13101 19.9836
3821 21 123 -2.06721 -9.14732 17.5494
3810 21 116 2.21482 -4.72389 11.117
3889 21 167 1.6278 2.76176 4.98911
4082 21 308 0.396097 -1.80126 -5.90269
3939 21 201 0.829059 -1.84538 19.395
4028 21 268 0.601138 7.55305 17.8985
3928 21 194 -0.0231315 10.3382 10.6751
4029 21 269 0.370616 9.36786 6.9964
4046 21 282 7.89089 -10.591 1.00345
4130 21 338 4.7926 -12.3027 4.33389
3834 21 130 5.4172 -9.19686 2.63719
3868 21 152 8.84866 -2.42062 -0.0837904
4159 21 361 3.64872 -2.74513 4.69552
3825 21 125 8.88565 -2.32511 13.3461
4152 21 356 3.31193 5.24532 1.20433
3997 21 245 17.0369 -21.6547 9.76384
3978 21 232 14.9701 -19.0279 12.0761
3996 21 244 13.182 -13.8335 -6.14489
4139 21 345 13.7888 -17.7235 14.7331
4081 21 307 10.287 0.738221 -1.63642
3974 21 230 12.3951 -1.85327 6.83881
3867 21 151 12.9738 -2.26724 16.786
4114 21 326 11.2555 7.51204 -5.86245
4131 21 339 10.5157 5.90886 0.498651
3957 21 213 14.9063 5.59895 15.3809
ITEM: TIMESTEP
1590000
ITEM: NUMBER OF ATOMS
47
ITEM: BOX BOUNDS pp pp pp
-1.9401266598543678e+01 1.7582246819618241e+01
-2.4525550982073426e+01 1.4298142739986019e+01
-9.2642137512410230e+00 2.0636872572366286e+01
ITEM: ATOMS id type mol x y z
4151 21 355 -12.353 -22.1262 11.4233
4148 21 352 -12.575 -18.7811 14.5666
3958 21 214 -12.9675 6.73067 20.6258
3990 21 240 -12.5956 5.97485 14.5716
3897 21 173 -16.6816 12.3713 16.0023
4136 21 342 -9.26575 -22.8311 7.42805
4123 21 333 -9.11174 -23.2947 16.3415
4080 21 306 -8.98851 -23.3343 11.5865
4155 21 359 -7.49638 -19.7472 8.05305
3800 21 108 -7.8262 -15.1462 1.65664
4144 21 350 -5.24077 -17.6005 17.6225
4153 21 357 -9.09123 -10.8866 2.59992
3938 21 200 -11.3485 -3.27117 -4.92872
4049 21 285 -11.9824 -6.73607 -4.2835
4066 21 296 -9.08837 0.759295 19.2892
3965 21 221 -10.7803 5.72897 1.36508
4141 21 347 -11.5149 11.3934 6.58746
4129 21 337 -10.2583 14.1456 19.2426
3988 21 238 -1.38103 -16.015 -1.26566
4043 21 279 0.494188 -8.82435 -5.07623
4137 21 343 0.00993828 -11.3526 9.58114
3943 21 205 2.23261 -8.13866 20.0647
3821 21 123 -2.0804 -9.15754 17.6167
3810 21 116 2.25041 -4.7229 11.1478
3889 21 167 1.6567 2.78172 4.98516
4082 21 308 0.410968 -1.79287 -5.96845
3939 21 201 0.848862 -1.8371 19.4728
4028 21 268 0.618345 7.58516 17.9678
3928 21 194 -0.0130354 10.3774 10.7034
4029 21 269 0.385197 9.40457 7.00384
4046 21 282 7.99113 -10.6049 0.976877
4130 21 338 4.85755 -12.3209 4.32622
3834 21 130 5.48926 -9.20721 2.61989
3868 21 152 8.95981 -2.4138 -0.116532
4159 21 361 3.70064 -2.73913 4.68989
3825 21 125 8.99722 -2.31804 13.3895
4152 21 356 3.36002 5.27158 1.17889
3997 21 245 17.2413 -21.6967 9.78698
3978 21 232 15.151 -19.0631 12.1123
3996 21 244 13.3425 -13.8556 -6.21203
4139 21 345 13.9562 -17.7555 14.7844
4081 21 307 10.4145 0.753055 -1.67797
3974 21 230 12.5466 -1.845 6.84535
3867 21 151 13.1319 -2.26003 16.849
4114 21 326 11.3941 7.54404 -5.92798
4131 21 339 10.6459 5.9368 0.469215
3957 21 213 15.0864 5.62611 15.436
ITEM: TIMESTEP
1595000
ITEM: NUMBER OF ATOMS
46
ITEM: BOX BOUNDS pp pp pp
-1.9058745416210694e+01 1.7239725637285257e+01
-2.4410757477719145e+01 1.4183349235631738e+01
-9.3586925414995470e+00 2.0731351362571544e+01
ITEM: ATOMS id type mol x y z
4151 21 355 -12.141 -22.0256 11.4596
4148 21 352 -12.359 -18.7003 14.6227
3958 21 214 -12.7441 6.66063 20.7202
3990 21 240 -12.3792 5.90927 14.6278
3897 21 173 -16.3894 12.2679 16.0675
4136 21 342 -9.11097 -22.7263 7.43906
4123 21 333 -8.95981 -23.1872 16.4088
4080 21 306 -8.83887 -23.2266 11.6238
4155 21 359 -7.37438 -19.6607 8.06801
3800 21 108 -7.69808 -15.0869 1.63117
4160 21 362 -8.41529 -18.3962 -2.13578
4144 21 350 -5.16054 -17.5266 17.698
4153 21 357 -8.93968 -10.8524 2.58042
3938 21 200 -11.1551 -3.28206 -4.9958
4049 21 285 -11.7773 -6.72648 -4.34651
4066 21 296 -8.93688 0.724564 19.3751
3965 21 221 -10.5974 5.66485 1.33777
4141 21 347 -11.3185 11.2958 6.59315
4129 21 337 -10.0851 14.0317 19.3283
3988 21 238 -1.3723 -15.9505 -1.3096
4043 21 279 0.468187 -8.80241 -5.14424
4137 21 343 -0.00709258 -11.3157 9.60575
3943 21 205 2.17441 -8.12077 20.1556
3821 21 123 -2.05871 -9.13363 17.6921
3810 21 116 2.19187 -4.72521 11.1823
3889 21 167 1.60917 2.73503 4.98072
3939 21 201 0.816291 -1.85648 19.5599
4028 21 268 0.590045 7.51006 18.0454
3928 21 194 -0.0296407 10.2857 10.7351
4029 21 269 0.361215 9.31871 7.01216
4046 21 282 7.82627 -10.5724 0.947116
4130 21 338 4.75072 -12.2783 4.31762
3834 21 130 5.37074 -9.183 2.60051
3868 21 152 8.777 -2.42976 -0.153202
4159 21 361 3.61524 -2.75317 4.6836
3825 21 125 8.81372 -2.33458 13.4382
4152 21 356 3.28093 5.21017 1.15041
3997 21 245 16.9051 -21.5986 9.81289
3978 21 232 14.8535 -18.9806 12.1529
3996 21 244 13.0785 -13.8039 -6.28722
4081 21 307 10.2048 0.718361 -1.72451
3974 21 230 12.2974 -1.86433 6.85268
3867 21 151 12.8718 -2.2769 16.9195
4114 21 326 11.1662 7.46919 -6.00137
4131 21 339 10.4318 5.87145 0.436245
3957 21 213 14.7901 5.5626 15.4976
ITEM: TIMESTEP
1600000
ITEM: NUMBER OF ATOMS
46
ITEM: BOX BOUNDS pp pp pp
-1.9410354089168532e+01 1.7591334310243095e+01
-2.4405998082928136e+01 1.4178589840840729e+01
-9.0977798966106818e+00 2.0470438717763589e+01
ITEM: ATOMS id type mol x y z
4151 21 355 -12.3586 -22.0214 11.3595
4148 21 352 -12.5808 -18.6969 14.4677
3958 21 214 -12.9734 6.65773 20.4595
3990 21 240 -12.6014 5.90655 14.4727
3897 21 173 -16.6893 12.2636 15.8875
4136 21 342 -9.26985 -22.7219 7.40866
4123 21 333 -9.11577 -23.1827 16.2229
4080 21 306 -8.99249 -23.2221 11.5208
4155 21 359 -7.49962 -19.6571 8.0267
3800 21 108 -7.82959 -15.0844 1.7015
4160 21 362 -8.5607 -18.3929 -2.00013
4144 21 350 -5.2429 -17.5236 17.4897
4153 21 357 -9.09525 -10.851 2.63428
3938 21 200 -11.3536 -3.28251 -4.81055
4049 21 285 -11.9879 -6.72608 -4.17252
4066 21 296 -9.09239 0.723124 19.1377
3965 21 221 -10.7851 5.66219 1.41318
4141 21 347 -11.5201 11.2918 6.57742
4129 21 337 -10.2629 14.027 19.0917
3988 21 238 -1.38126 -15.9479 -1.18827
4043 21 279 0.494878 -8.8015 -4.95642
4137 21 343 0.0103901 -11.3142 9.53778
3943 21 205 2.23415 -8.12003 19.9046
3821 21 123 -2.08097 -9.13264 17.4839
3810 21 116 2.25196 -4.7253 11.087
3889 21 167 1.65796 2.7331 4.99296
3939 21 201 0.849726 -1.85728 19.3193
4028 21 268 0.619096 7.50695 17.831
3928 21 194 -0.0125948 10.2819 10.6476
4029 21 269 0.385833 9.31515 6.98917
4046 21 282 7.99551 -10.5711 1.0293
4130 21 338 4.86038 -12.2765 4.34136
3834 21 130 5.49241 -9.182 2.65403
3868 21 152 8.96466 -2.43042 -0.0519325
4159 21 361 3.7029 -2.75375 4.70099
3825 21 125 9.00209 -2.33526 13.3038
4152 21 356 3.36211 5.20762 1.22907
3997 21 245 17.2503 -21.5945 9.74133
3978 21 232 15.1589 -18.9772 12.0408
3996 21 244 13.3495 -13.8017 -6.07957
4081 21 307 10.4201 0.716923 -1.59599
3974 21 230 12.5532 -1.86514 6.83245
3867 21 151 13.1388 -2.2776 16.7247
4114 21 326 11.4002 7.46609 -5.79868
4131 21 339 10.6515 5.86874 0.527293
3957 21 213 15.0943 5.55996 15.3274
ITEM: TIMESTEP
1605000
ITEM: NUMBER OF ATOMS
45
ITEM: BOX BOUNDS pp pp pp
-1.9198507346871477e+01 1.7379487567946040e+01
-2.4500760937293293e+01 1.4273352695205887e+01
-9.2077321781092181e+00 2.0580390999202535e+01
ITEM: ATOMS id type mol x y z
4151 21 355 -12.2275 -22.1045 11.4016
4148 21 352 -12.4471 -18.7637 14.533
3958 21 214 -12.8353 6.71555 20.5694
3990 21 240 -12.4675 5.96069 14.538
3897 21 173 -16.5086 12.3489 15.9634
4136 21 342 -9.17412 -22.8084 7.42147
4123 21 333 -9.0218 -23.2714 16.3013
4080 21 306 -8.89993 -23.311 11.5642
4155 21 359 -7.42416 -19.7285 8.04411
3800 21 108 -7.75036 -15.1334 1.67186
4160 21 362 -8.47309 -18.4581 -2.0573
4144 21 350 -5.19328 -17.5845 17.5774
4153 21 357 -9.00152 -10.8792 2.61158
3938 21 200 -11.234 -3.27352 -4.88861
4049 21 285 -11.861 -6.734 -4.24584
4066 21 296 -8.99869 0.751795 19.2378
3965 21 221 -10.672 5.71512 1.3814
4141 21 347 -11.3986 11.3723 6.58405
4129 21 337 -10.1558 14.121 19.1914
3988 21 238 -1.37586 -16.0011 -1.2394
4043 21 279 0.478796 -8.81961 -5.03557
4137 21 343 -0.000143327 -11.3447 9.56642
3943 21 205 2.19816 -8.13479 20.0104
3821 21 123 -2.06756 -9.15238 17.5717
3810 21 116 2.21576 -4.7234 11.1272
3889 21 167 1.62856 2.77164 4.9878
3939 21 201 0.829581 -1.84128 19.4207
4028 21 268 0.601592 7.56894 17.9214
3928 21 194 -0.0228651 10.3576 10.6844
4029 21 269 0.371001 9.38603 6.99886
4130 21 338 4.79431 -12.3117 4.33135
3834 21 130 5.4191 -9.20198 2.63147
3868 21 152 8.85159 -2.41724 -0.0946091
4159 21 361 3.65009 -2.74216 4.69366
3825 21 125 8.8886 -2.32161 13.3604
4152 21 356 3.3132 5.25832 1.19592
3997 21 245 17.0423 -21.6755 9.77149
3978 21 232 14.9749 -19.0453 12.088
3996 21 244 13.1863 -13.8444 -6.16708
4081 21 307 10.2903 0.745563 -1.65015
3974 21 230 12.3991 -1.84918 6.84097
3867 21 151 12.978 -2.26367 16.8068
4114 21 326 11.2592 7.52788 -5.8841
4131 21 339 10.5191 5.92269 0.488924
3957 21 213 14.911 5.61239 15.3991
ITEM: TIMESTEP
1610000
ITEM: NUMBER OF ATOMS
45
ITEM: BOX BOUNDS pp pp pp
-1.9277898641649035e+01 1.7458878862723598e+01
-2.4435129194338533e+01 1.4207720952251126e+01
-9.1380361036748177e+00 2.0510694924777059e+01
ITEM: ATOMS id type mol x y z
4151 21 355 -12.2766 -22.047 11.3749
4148 21 352 -12.4972 -18.7175 14.4916
3958 21 214 -12.887 6.6755 20.4997
3990 21 240 -12.5177 5.9232 14.4966
3897 21 173 -16.5764 12.2898 15.9153
4136 21 342 -9.21 -22.7485 7.41335
4123 21 333 -9.05702 -23.21 16.2516
4080 21 306 -8.93462 -23.2494 11.5367
4155 21 359 -7.45244 -19.679 8.03308
3800 21 108 -7.78005 -15.0995 1.69065
4160 21 362 -8.50592 -18.4129 -2.02106
4144 21 350 -5.21187 -17.5423 17.5218
4153 21 357 -9.03665 -10.8597 2.62597
3938 21 200 -11.2789 -3.27975 -4.83913
4049 21 285 -11.9086 -6.72852 -4.19936
4066 21 296 -9.03381 0.731938 19.1744
4141 21 347 -11.4441 11.3165 6.57985
4129 21 337 -10.1959 14.0559 19.1282
3988 21 238 -1.37789 -15.9642 -1.20699
4043 21 279 0.484823 -8.80707 -4.9854
4137 21 343 0.00380417 -11.3236 9.54826
3943 21 205 2.21165 -8.12457 19.9433
3821 21 123 -2.07258 -9.13871 17.516
3810 21 116 2.22932 -4.72472 11.1017
3889 21 167 1.63958 2.74495 4.99107
3939 21 201 0.837131 -1.85236 19.3564
4028 21 268 0.608152 7.52601 17.8641
3928 21 194 -0.0190162 10.3052 10.6611
4029 21 269 0.376559 9.33694 6.99272
4130 21 338 4.81907 -12.2873 4.33769
4161 21 363 8.17437 -10.6851 0.93605
3834 21 130 5.44657 -9.18814 2.64577
3868 21 152 8.89396 -2.42637 -0.0675574
4159 21 361 3.66988 -2.75019 4.6983
3825 21 125 8.93113 -2.33107 13.3245
4152 21 356 3.33153 5.2232 1.21693
3997 21 245 17.1202 -21.6194 9.75237
3978 21 232 15.0439 -18.9981 12.0581
3996 21 244 13.2474 -13.8148 -6.11161
4081 21 307 10.339 0.725727 -1.61582
3974 21 230 12.4569 -1.86023 6.83557
3867 21 151 13.0383 -2.27332 16.7548
4114 21 326 11.312 7.48508 -5.82996
4131 21 339 10.5688 5.88532 0.513245
3957 21 213 14.9797 5.57608 15.3537
ITEM: TIMESTEP
1615000
ITEM: NUMBER OF ATOMS
45
ITEM: BOX BOUNDS pp pp pp
-1.9077329890731569e+01 1.7258310111806132e+01
-2.4587434467196061e+01 1.4360026225108655e+01
-9.3911656835003932e+00 2.0763824504488401e+01
ITEM: ATOMS id type mol x y z
4151 21 355 -12.1525 -22.1804 11.472
4148 21 352 -12.3707 -18.8247 14.642
4165 21 365 -12.8212 5.25808 -2.2122
3958 21 214 -12.7563 6.76843 20.7527
3990 21 240 -12.3909 6.0102 14.6471
3897 21 173 -16.4053 12.427 16.0899
4136 21 342 -9.11936 -22.8875 7.44284
4123 21 333 -8.96805 -23.3526 16.432
4080 21 306 -8.84699 -23.3924 11.6366
4155 21 359 -7.381 -19.7938 8.07315
3800 21 108 -7.70503 -15.1782 1.62242
4160 21 362 -8.42298 -18.5178 -2.15267
4144 21 350 -5.16489 -17.6403 17.7239
4153 21 357 -8.94791 -10.905 2.57371
3938 21 200 -11.1656 -3.26529 -5.01885
4049 21 285 -11.7885 -6.74125 -4.36816
4066 21 296 -8.94509 0.778017 19.4047
4141 21 347 -11.3291 11.446 6.59511
4129 21 337 -10.0945 14.207 19.3577
3988 21 238 -1.37277 -16.0497 -1.3247
4043 21 279 0.469598 -8.83618 -5.16762
4137 21 343 -0.00616852 -11.3725 9.61421
3943 21 205 2.17756 -8.1483 20.1868
3821 21 123 -2.05988 -9.17043 17.718
3810 21 116 2.19505 -4.72165 11.1942
3889 21 167 1.61175 2.80689 4.9792
3939 21 201 0.818059 -1.82665 19.5899
4028 21 268 0.59158 7.62564 18.072
3928 21 194 -0.0287397 10.4267 10.746
4029 21 269 0.362516 9.45085 7.01503
4130 21 338 4.75652 -12.3439 4.31467
4161 21 363 8.07518 -10.729 0.854938
3868 21 152 8.78692 -2.40519 -0.165806
4159 21 361 3.61988 -2.73156 4.68143
3825 21 125 8.82368 -2.30913 13.455
4152 21 356 3.28522 5.30469 1.14062
3997 21 245 16.9234 -21.7495 9.8218
3978 21 232 14.8697 -19.1076 12.1669
3996 21 244 13.0929 -13.8834 -6.31306
4081 21 307 10.2161 0.771758 -1.74051
3974 21 230 12.3109 -1.83458 6.85519
3867 21 151 12.886 -2.25093 16.9437
4114 21 326 11.1786 7.5844 -6.0266
4131 21 339 10.4434 5.97203 0.424914
3957 21 213 14.8062 5.66035 15.5187
ITEM: TIMESTEP
1620000
ITEM: NUMBER OF ATOMS
45
ITEM: BOX BOUNDS pp pp pp
-1.9122739379706477e+01 1.7303719600781040e+01
-2.4500727866708424e+01 1.4273319624621017e+01
-9.2549154192157026e+00 2.0627574240237880e+01
ITEM: ATOMS id type mol x y z
4151 21 355 -12.1806 -22.1044 11.4197
4148 21 352 -12.3993 -18.7636 14.561
4165 21 365 -12.851 5.2119 -2.14083
3958 21 214 -12.7859 6.71553 20.6165
3990 21 240 -12.4196 5.96067 14.5661
3897 21 173 -16.444 12.3489 15.9959
4136 21 342 -9.13988 -22.8084 7.42697
4123 21 333 -8.9882 -23.2714 16.3349
4080 21 306 -8.86683 -23.311 11.5828
4155 21 359 -7.39717 -19.7285 8.05158
3800 21 108 -7.72202 -15.1334 1.65914
4160 21 362 -8.44176 -18.4581 -2.08183
4144 21 350 -5.17553 -17.5845 17.6151
4153 21 357 -8.968 -10.8792 2.60184
3938 21 200 -11.1913 -3.27352 -4.92211
4049 21 285 -11.8156 -6.734 -4.2773
4066 21 296 -8.96518 0.751785 19.2807
4141 21 347 -11.3552 11.3723 6.5869
4129 21 337 -10.1175 14.1209 19.2342
3988 21 238 -1.37393 -16.0011 -1.26134
4043 21 279 0.473045 -8.81961 -5.06953
4137 21 343 -0.00391067 -11.3447 9.57871
3943 21 205 2.18528 -8.13479 20.0558
3821 21 123 -2.06276 -9.15237 17.6093
3810 21 116 2.20281 -4.7234 11.1444
3889 21 167 1.61805 2.77163 4.98559
3939 21 201 0.822377 -1.84129 19.4642
4028 21 268 0.595332 7.56892 17.9601
3928 21 194 -0.0265383 10.3575 10.7003
4029 21 269 0.365696 9.386 7.00302
4130 21 338 4.77068 -12.3117 4.32706
4161 21 363 8.09764 -10.704 0.898597
3868 21 152 8.81115 -2.41725 -0.112923
4159 21 361 3.6312 -2.74217 4.69051
3825 21 125 8.848 -2.32162 13.3848
4152 21 356 3.29571 5.2583 1.1817
3997 21 245 16.9679 -21.6755 9.78443
3978 21 232 14.9091 -19.0453 12.1083
3996 21 244 13.1279 -13.8444 -6.20463
4169 21 367 12.5191 -9.15428 -7.06528
4081 21 307 10.2439 0.745553 -1.67339
3974 21 230 12.3439 -1.84918 6.84463
3867 21 151 12.9204 -2.26368 16.842
4131 21 339 10.4718 5.92267 0.472459
3957 21 213 14.8455 5.61237 15.4299
ITEM: TIMESTEP
1625000
ITEM: NUMBER OF ATOMS
47
ITEM: BOX BOUNDS pp pp pp
-1.9325473793527401e+01 1.7506454014601964e+01
-2.4558309455743711e+01 1.4330901213656304e+01
-9.0745009931388196e+00 2.0447159814212764e+01
ITEM: ATOMS id type mol x y z
4151 21 355 -12.3061 -22.1549 11.3505
4148 21 352 -12.5272 -18.8042 14.4539
4171 21 369 -16.7259 -14.9539 14.2487
4165 21 365 -12.9839 5.24257 -2.04631
3958 21 214 -12.9181 6.75066 20.4363
3990 21 240 -12.5477 5.99356 14.4589
3897 21 173 -16.6169 12.4008 15.8714
4136 21 342 -9.2315 -22.861 7.40595
4123 21 333 -9.07812 -23.3253 16.2063
4080 21 306 -8.9554 -23.3651 11.5116
4155 21 359 -7.46939 -19.7719 8.02302
3800 21 108 -7.79785 -15.1632 1.70777
4160 21 362 -8.5256 -18.4977 -1.98803
4144 21 350 -5.22301 -17.6216 17.4711
4153 21 357 -9.0577 -10.8963 2.63909
3938 21 200 -11.3057 -3.26806 -4.79402
4049 21 285 -11.937 -6.73881 -4.15699
4066 21 296 -9.05485 0.769206 19.1166
4141 21 347 -11.4714 11.4213 6.57602
4129 21 337 -10.22 14.1781 19.0706
3988 21 238 -1.3791 -16.0334 -1.17745
4043 21 279 0.488434 -8.83061 -4.93966
4137 21 343 0.00616971 -11.3632 9.53171
3943 21 205 2.21973 -8.14376 19.8822
3821 21 123 -2.0756 -9.16437 17.4653
3810 21 116 2.23745 -4.72224 11.0785
3889 21 167 1.64618 2.79505 4.99405
3939 21 201 0.841654 -1.83157 19.2978
4028 21 268 0.612083 7.60659 17.8119
4170 21 368 -3.00581 11.3431 12.9494
3928 21 194 -0.0167098 10.4035 10.6397
4029 21 269 0.37989 9.42907 6.98712
4130 21 338 4.83391 -12.3331 4.34347
4161 21 363 8.1979 -10.7206 0.956409
3868 21 152 8.91936 -2.40924 -0.0428971
4159 21 361 3.68174 -2.73512 4.70254
3825 21 125 8.95662 -2.31333 13.2918
4152 21 356 3.34252 5.28911 1.23609
3997 21 245 17.1669 -21.7247 9.73495
3978 21 232 15.0852 -19.0867 12.0308
3996 21 244 13.2841 -13.8703 -6.06104
4169 21 367 12.6686 -9.16628 -6.91131
4081 21 307 10.3681 0.762955 -1.58452
3974 21 230 12.4915 -1.83949 6.83065
3867 21 151 13.0744 -2.25521 16.7073
4131 21 339 10.5985 5.95545 0.535416
3957 21 213 15.0208 5.64423 15.3122
ITEM: TIMESTEP
1630000
ITEM: NUMBER OF ATOMS
47
ITEM: BOX BOUNDS pp pp pp
-1.9255171490289186e+01 1.7436151711363749e+01
-2.4515313693389018e+01 1.4287905451301611e+01
-9.1720985194328648e+00 2.0544757340451365e+01
ITEM: ATOMS id type mol x y z
4151 21 355 -12.2626 -22.1172 11.388
4148 21 352 -12.4829 -18.7739 14.5118
4171 21 369 -16.6655 -14.9322 14.3054
4165 21 365 -12.9378 5.21967 -2.09744
3958 21 214 -12.8722 6.72443 20.5338
3990 21 240 -12.5033 5.969 14.5169
3897 21 173 -16.557 12.362 15.9388
4136 21 342 -9.19973 -22.8217 7.41732
4123 21 333 -9.04694 -23.2851 16.2759
4080 21 306 -8.92469 -23.3247 11.5501
4155 21 359 -7.44434 -19.7395 8.03847
3800 21 108 -7.77155 -15.1409 1.68146
4160 21 362 -8.49653 -18.4681 -2.03877
4144 21 350 -5.20655 -17.5939 17.549
4153 21 357 -9.02659 -10.8835 2.61894
3938 21 200 -11.266 -3.27214 -4.86331
4049 21 285 -11.8949 -6.73522 -4.22208
4066 21 296 -9.02375 0.756197 19.2054
4141 21 347 -11.4311 11.3847 6.5819
4129 21 337 -10.1844 14.1354 19.1591
3988 21 238 -1.37731 -16.0092 -1.22283
4043 21 279 0.483098 -8.82239 -5.00992
4137 21 343 0.00267413 -11.3493 9.55714
3943 21 205 2.20778 -8.13706 19.9761
3821 21 123 -2.07115 -9.15541 17.5432
3810 21 116 2.22544 -4.7231 11.1142
3889 21 167 1.63643 2.77756 4.98948
3939 21 201 0.834969 -1.83883 19.3878
4028 21 268 0.606274 7.57846 17.8921
4170 21 368 -2.99781 11.3067 12.9974
3928 21 194 -0.020118 10.3692 10.6725
4029 21 269 0.374968 9.39691 6.99572
4130 21 338 4.81198 -12.3171 4.3346
4161 21 363 8.16313 -10.7082 0.925135
3868 21 152 8.88184 -2.41522 -0.0807783
4159 21 361 3.66421 -2.74038 4.69603
3825 21 125 8.91895 -2.31952 13.3421
4152 21 356 3.32628 5.2661 1.20667
3997 21 245 17.0979 -21.6879 9.76171
3978 21 232 15.0241 -19.0558 12.0727
3996 21 244 13.2299 -13.8509 -6.13872
4169 21 367 12.6167 -9.15732 -6.9946
4081 21 307 10.325 0.749961 -1.6326
3974 21 230 12.4403 -1.84673 6.83821
3867 21 151 13.021 -2.26153 16.7802
4131 21 339 10.5546 5.93097 0.501359
3957 21 213 14.96 5.62044 15.3759
ITEM: TIMESTEP
1635000
ITEM: NUMBER OF ATOMS
47
ITEM: BOX BOUNDS pp pp pp
-1.9011747739753712e+01 1.7192727960828275e+01
-2.4642077071237154e+01 1.4414668829149747e+01
-9.1973768768087396e+00 2.0570035697799771e+01
ITEM: ATOMS id type mol x y z
4151 21 355 -12.1119 -22.2283 11.3977
4148 21 352 -12.3293 -18.8632 14.5269
4171 21 369 -16.4564 -14.9963 14.32
4165 21 365 -12.7782 5.28719 -2.11068
3958 21 214 -12.7135 6.80177 20.559
3990 21 240 -12.3495 6.04141 14.5319
3897 21 173 -16.3493 12.4762 15.9562
4136 21 342 -9.08973 -22.9374 7.42027
4123 21 333 -8.93896 -23.4038 16.2939
4080 21 306 -8.81833 -23.4437 11.5601
4155 21 359 -7.35764 -19.835 8.04247
3800 21 108 -7.6805 -15.2064 1.67465
4160 21 362 -8.39586 -18.5554 -2.05191
4144 21 350 -5.14953 -17.6754 17.5692
4153 21 357 -8.91889 -10.9212 2.61372
3938 21 200 -11.1286 -3.26011 -4.88126
4049 21 285 -11.7492 -6.74581 -4.23893
4066 21 296 -8.91609 0.794549 19.2284
4141 21 347 -11.2915 11.4925 6.58343
4129 21 337 -10.0613 14.2612 19.182
3988 21 238 -1.3711 -16.0804 -1.23458
4043 21 279 0.46462 -8.84662 -5.02811
4137 21 343 -0.0094294 -11.3901 9.56372
3943 21 205 2.16642 -8.15681 20.0004
3821 21 123 -2.05573 -9.18182 17.5634
3810 21 116 2.18384 -4.72055 11.1234
3889 21 167 1.60264 2.82912 4.98829
3939 21 201 0.811822 -1.81743 19.4112
4028 21 268 0.586161 7.66139 17.9129
4170 21 368 -2.9701 11.414 13.0099
3928 21 194 -0.0319191 10.4703 10.681
4029 21 269 0.357925 9.49172 6.99795
4130 21 338 4.73607 -12.3642 4.3323
4161 21 363 8.04275 -10.7447 0.917035
3868 21 152 8.75192 -2.39759 -0.0905898
4159 21 361 3.60353 -2.72488 4.69435
3825 21 125 8.78854 -2.30126 13.3551
4152 21 356 3.27008 5.33392 1.19904
3997 21 245 16.859 -21.7962 9.76865
3978 21 232 14.8127 -19.1469 12.0836
3996 21 244 13.0423 -13.908 -6.15883
4169 21 367 12.4373 -9.18374 -7.01618
4081 21 307 10.176 0.788272 -1.64505
3974 21 230 12.2632 -1.82538 6.84017
3867 21 151 12.8362 -2.2429 16.7991
4131 21 339 10.4024 6.00313 0.492538
3957 21 213 14.7495 5.69058 15.3924
ITEM: TIMESTEP
1640000
ITEM: NUMBER OF ATOMS
47
ITEM: BOX BOUNDS pp pp pp
-1.9212919644205975e+01 1.7393899865280538e+01
-2.4651944238708154e+01 1.4424535996620747e+01
-9.1476902947388332e+00 2.0520349115731246e+01
ITEM: ATOMS id type mol x y z
4151 21 355 -12.2364 -22.237 11.3786
4148 21 352 -12.4562 -18.8701 14.4973
4171 21 369 -16.6292 -15.0013 14.2912
4165 21 365 -12.9101 5.29244 -2.08466
3958 21 214 -12.8447 6.8078 20.5094
3990 21 240 -12.4766 6.04705 14.5024
3897 21 173 -16.5209 12.4851 15.9219
4136 21 342 -9.18063 -22.9464 7.41448
4123 21 333 -9.0282 -23.413 16.2585
4080 21 306 -8.90623 -23.4529 11.5405
4155 21 359 -7.42929 -19.8425 8.03461
3800 21 108 -7.75575 -15.2115 1.68804
4160 21 362 -8.47905 -18.5622 -2.02608
4144 21 350 -5.19665 -17.6818 17.5295
4153 21 357 -9.0079 -10.9241 2.62398
3938 21 200 -11.2422 -3.25917 -4.84598
4049 21 285 -11.8696 -6.74664 -4.2058
4066 21 296 -9.00507 0.797535 19.1831
4141 21 347 -11.4069 11.5009 6.58043
4129 21 337 -10.163 14.271 19.137
3988 21 238 -1.37623 -16.086 -1.21148
4043 21 279 0.47989 -8.84851 -4.99235
4137 21 343 0.000573283 -11.3933 9.55078
3943 21 205 2.2006 -8.15835 19.9526
3821 21 123 -2.06847 -9.18387 17.5238
3810 21 116 2.21822 -4.72035 11.1052
3889 21 167 1.63056 2.83313 4.99062
3939 21 201 0.830952 -1.81576 19.3653
4028 21 268 0.602783 7.66784 17.872
4170 21 368 -2.993 11.4224 12.9854
3928 21 194 -0.0221664 10.4782 10.6643
4029 21 269 0.37201 9.4991 6.99357
4130 21 338 4.79881 -12.3678 4.33682
4161 21 363 8.14223 -10.7476 0.932956
3868 21 152 8.85928 -2.39622 -0.0713046
4159 21 361 3.65368 -2.72367 4.69766
3825 21 125 8.89632 -2.29984 13.3295
4152 21 356 3.31653 5.3392 1.21402
3997 21 245 17.0565 -21.8046 9.75502
3978 21 232 14.9874 -19.154 12.0622
3996 21 244 13.1974 -13.9125 -6.11929
4169 21 367 12.5856 -9.18579 -6.97377
4081 21 307 10.2992 0.791254 -1.62058
3974 21 230 12.4096 -1.82372 6.83632
3867 21 151 12.9889 -2.24145 16.762
4131 21 339 10.5282 6.00875 0.509876
3957 21 213 14.9235 5.69604 15.36
ITEM: TIMESTEP
1645000
ITEM: NUMBER OF ATOMS
47
ITEM: BOX BOUNDS pp pp pp
-1.9289177037813030e+01 1.7470157258887593e+01
-2.4450615143000874e+01 1.4223206900913468e+01
-9.2772393559353645e+00 2.0649898176859605e+01
ITEM: ATOMS id type mol x y z
4151 21 355 -12.2836 -22.0605 11.4283
4148 21 352 -12.5043 -18.7284 14.5743
4171 21 369 -16.6947 -14.8994 14.3664
4165 21 365 -12.9601 5.18521 -2.15252
3958 21 214 -12.8944 6.68495 20.6388
3990 21 240 -12.5248 5.93204 14.5794
3897 21 173 -16.586 12.3038 16.0113
4136 21 342 -9.21509 -22.7627 7.42957
4123 21 333 -9.06202 -23.2245 16.3508
4080 21 306 -8.93954 -23.264 11.5916
4155 21 359 -7.45646 -19.6907 8.05511
3800 21 108 -7.78427 -15.1075 1.65313
4160 21 362 -8.51059 -18.4236 -2.09344
4144 21 350 -5.21451 -17.5523 17.6329
4153 21 357 -9.04164 -10.8643 2.59723
3938 21 200 -11.2852 -3.27828 -4.93796
4049 21 285 -11.9153 -6.72981 -4.29219
4066 21 296 -9.03879 0.736623 19.301
4141 21 347 -11.4506 11.3297 6.58824
4129 21 337 -10.2016 14.0712 19.2544
3988 21 238 -1.37817 -15.9729 -1.27172
4043 21 279 0.485679 -8.81003 -5.0856
4137 21 343 0.00436496 -11.3286 9.58453
3943 21 205 2.21356 -8.12698 20.0772
3821 21 123 -2.0733 -9.14193 17.6271
3810 21 116 2.23125 -4.72441 11.1526
3889 21 167 1.64115 2.75125 4.98455
3939 21 201 0.838203 -1.84975 19.4848
4028 21 268 0.609084 7.53614 17.9785
4170 21 368 -3.00168 11.252 13.0492
3928 21 194 -0.0184695 10.3176 10.7078
4029 21 269 0.377349 9.34852 7.00499
4130 21 338 4.82259 -12.2931 4.32503
4161 21 363 8.17995 -10.6895 0.891444
3868 21 152 8.89998 -2.42422 -0.121587
4159 21 361 3.67269 -2.7483 4.68903
3825 21 125 8.93717 -2.32884 13.3963
4152 21 356 3.33414 5.23149 1.17497
3997 21 245 17.1313 -21.6327 9.79055
3978 21 232 15.0537 -19.0093 12.1179
3996 21 244 13.2561 -13.8218 -6.22239
4169 21 367 12.6418 -9.14383 -7.08434
4081 21 307 10.3459 0.730407 -1.68439
3974 21 230 12.4651 -1.85762 6.84636
3867 21 151 13.0468 -2.27104 16.8587
4131 21 339 10.5758 5.89414 0.464669
3957 21 213 14.9894 5.58465 15.4444
ITEM: TIMESTEP
1650000
ITEM: NUMBER OF ATOMS
47
ITEM: BOX BOUNDS pp pp pp
-1.9478882612778147e+01 1.7659862833852710e+01
-2.4378485712578492e+01 1.4151077470491085e+01
-9.1124588897357555e+00 2.0485117710706518e+01
ITEM: ATOMS id type mol x y z
4151 21 355 -12.401 -21.9973 11.3651
4148 21 352 -12.624 -18.6776 14.4764
4171 21 369 -16.8576 -14.8629 14.2708
4165 21 365 -13.0845 5.1468 -2.0662
3958 21 214 -13.0181 6.64094 20.4742
3990 21 240 -12.6447 5.89084 14.4814
3897 21 173 -16.7478 12.2388 15.8976
4136 21 342 -9.30082 -22.6968 7.41037
4123 21 333 -9.14617 -23.1569 16.2334
4080 21 306 -9.02243 -23.1963 11.5266
4155 21 359 -7.52403 -19.6363 8.02903
3800 21 108 -7.85523 -15.0702 1.69754
4160 21 362 -8.58904 -18.374 -2.00776
4144 21 350 -5.25895 -17.5059 17.5014
4153 21 357 -9.12557 -10.8428 2.63125
3938 21 200 -11.3923 -3.28513 -4.82097
4049 21 285 -12.0289 -6.72378 -4.18231
4066 21 296 -9.1227 0.714801 19.1511
4141 21 347 -11.5594 11.2684 6.57831
4129 21 337 -10.2975 13.9997 19.105
3988 21 238 -1.38301 -15.9324 -1.1951
4043 21 279 0.50008 -8.79624 -4.96698
4137 21 343 0.0137975 -11.3054 9.5416
3943 21 205 2.2458 -8.11574 19.9187
3821 21 123 -2.08531 -9.12691 17.4956
3810 21 116 2.26367 -4.72586 11.0924
3889 21 167 1.66747 2.72191 4.99227
3939 21 201 0.856242 -1.86192 19.3328
4028 21 268 0.624758 7.48895 17.8431
4170 21 368 -3.02328 11.1909 12.9681
3928 21 194 -0.0092726 10.26 10.6525
4029 21 269 0.390631 9.29458 6.99047
4130 21 338 4.88175 -12.2663 4.34002
4161 21 363 8.27376 -10.6687 0.944246
3868 21 152 9.00123 -2.43425 -0.05763
4159 21 361 3.71999 -2.75712 4.70001
3825 21 125 9.0388 -2.33922 13.3114
4152 21 356 3.37794 5.1929 1.22465
3997 21 245 17.3175 -21.571 9.74536
3978 21 232 15.2184 -18.9574 12.0471
3996 21 244 13.4023 -13.7893 -6.09125
4169 21 367 12.7817 -9.1288 -6.9437
4081 21 307 10.462 0.708608 -1.60322
3974 21 230 12.6031 -1.86977 6.83359
3867 21 151 13.1909 -2.28165 16.7357
4131 21 339 10.6944 5.85308 0.522171
3957 21 213 15.1535 5.54474 15.337
ITEM: TIMESTEP
1655000
ITEM: NUMBER OF ATOMS
47
ITEM: BOX BOUNDS pp pp pp
-1.9074617137681145e+01 1.7255597358755708e+01
-2.4596992734301239e+01 1.4369584492213832e+01
-9.1993178735190355e+00 2.0571976694438302e+01
ITEM: ATOMS id type mol x y z
4151 21 355 -12.1508 -22.1888 11.3984
4148 21 352 -12.369 -18.8314 14.528
4171 21 369 -16.5104 -14.9735 14.3212
4165 21 365 -12.8194 5.26317 -2.1117
3958 21 214 -12.7545 6.77427 20.561
3990 21 240 -12.3892 6.01566 14.533
3897 21 173 -16.403 12.4356 15.9576
4136 21 342 -9.11814 -22.8963 7.42049
4123 21 333 -8.96685 -23.3616 16.2953
4080 21 306 -8.8458 -23.4014 11.5609
4155 21 359 -7.38003 -19.801 8.04278
3800 21 108 -7.70402 -15.1831 1.67413
4160 21 362 -8.42186 -18.5244 -2.05292
4144 21 350 -5.16426 -17.6464 17.5707
4153 21 357 -8.94671 -10.9078 2.61332
3938 21 200 -11.1641 -3.26439 -4.88264
4049 21 285 -11.7868 -6.74205 -4.24023
4066 21 296 -8.9439 0.780909 19.2301
4141 21 347 -11.3276 11.4542 6.58354
4129 21 337 -10.0931 14.2165 19.1838
3988 21 238 -1.3727 -16.0551 -1.23549
4043 21 279 0.469392 -8.83801 -5.02951
4137 21 343 -0.0063034 -11.3756 9.56423
3943 21 205 2.1771 -8.14979 20.0023
3821 21 123 -2.05971 -9.17243 17.565
3810 21 116 2.19459 -4.72146 11.1241
3889 21 167 1.61137 2.81078 4.9882
3939 21 201 0.817801 -1.82504 19.4129
4028 21 268 0.591356 7.63189 17.9144
4170 21 368 -2.97726 11.3758 13.0108
3928 21 194 -0.0288713 10.4344 10.6816
4029 21 269 0.362326 9.458 6.99812
4130 21 338 4.75567 -12.3474 4.33212
4161 21 363 8.07384 -10.7317 0.916413
3868 21 152 8.78547 -2.40386 -0.0913432
4159 21 361 3.6192 -2.73039 4.69422
3825 21 125 8.82222 -2.30775 13.3561
4152 21 356 3.2846 5.3098 1.19846
3997 21 245 16.9207 -21.7577 9.76918
3978 21 232 14.8673 -19.1145 12.0844
3996 21 244 13.0908 -13.8877 -6.16038
4169 21 367 12.4836 -9.17434 -7.01783
4081 21 307 10.2145 0.774647 -1.64601
3974 21 230 12.3089 -1.83297 6.84032
3867 21 151 12.8839 -2.24952 16.8005
4131 21 339 10.4417 5.97747 0.491861
3957 21 213 14.8038 5.66563 15.3936
ITEM: TIMESTEP
1660000
ITEM: NUMBER OF ATOMS
47
ITEM: BOX BOUNDS pp pp pp
-1.9164851842158185e+01 1.7345832063232749e+01
-2.4660324068879426e+01 1.4432915826792019e+01
-9.1524749277896582e+00 2.0525133748709496e+01
ITEM: ATOMS id type mol x y z
4151 21 355 -12.2067 -22.2443 11.3804
4148 21 352 -12.4259 -18.876 14.5002
4171 21 369 -16.5879 -15.0055 14.294
4165 21 365 -12.8786 5.2969 -2.08716
3958 21 214 -12.8133 6.81291 20.5142
3990 21 240 -12.4462 6.05183 14.5052
3897 21 173 -16.4799 12.4927 15.9252
4136 21 342 -9.15891 -22.9541 7.41504
4123 21 333 -9.00688 -23.4209 16.2619
4080 21 306 -8.88523 -23.4608 11.5424
4155 21 359 -7.41217 -19.8488 8.03536
3800 21 108 -7.73777 -15.2159 1.68675
4160 21 362 -8.45917 -18.5679 -2.02857
4144 21 350 -5.18539 -17.6872 17.5333
4153 21 357 -8.98663 -10.9266 2.62299
3938 21 200 -11.215 -3.25837 -4.84938
4049 21 285 -11.8409 -6.74734 -4.20899
4066 21 296 -8.98381 0.80007 19.1875
4141 21 347 -11.3793 11.508 6.58072
4129 21 337 -10.1387 14.2793 19.1413
3988 21 238 -1.375 -16.0907 -1.2137
4043 21 279 0.476242 -8.85011 -4.99579
4137 21 343 -0.00181675 -11.396 9.55203
3943 21 205 2.19244 -8.15966 19.9572
3821 21 123 -2.06543 -9.18562 17.5276
3810 21 116 2.21001 -4.72018 11.107
3889 21 167 1.62389 2.83654 4.9904
3939 21 201 0.826381 -1.81435 19.3698
4028 21 268 0.598811 7.67332 17.876
4170 21 368 -2.98753 11.4294 12.9878
3928 21 194 -0.0244967 10.4849 10.6659
4029 21 269 0.368644 9.50537 6.99399
4130 21 338 4.78382 -12.371 4.33638
4161 21 363 8.11846 -10.75 0.931423
3868 21 152 8.83363 -2.39505 -0.0731617
4159 21 361 3.6417 -2.72264 4.69734
3825 21 125 8.87057 -2.29863 13.332
4152 21 356 3.30543 5.34368 1.21258
3997 21 245 17.0093 -21.8118 9.75633
3978 21 232 14.9457 -19.16 12.0643
3996 21 244 13.1603 -13.9162 -6.1231
4169 21 367 12.5501 -9.18754 -6.97786
4081 21 307 10.2697 0.793787 -1.62293
3974 21 230 12.3746 -1.82231 6.83669
3867 21 151 12.9524 -2.24021 16.7655
4131 21 339 10.4981 6.01352 0.508207
3957 21 213 14.8819 5.70067 15.3631
ITEM: TIMESTEP
1665000
ITEM: NUMBER OF ATOMS
48
ITEM: BOX BOUNDS pp pp pp
-1.9198670954255789e+01 1.7379651175330352e+01
-2.4717216328348616e+01 1.4489808086261210e+01
-9.0713005880667801e+00 2.0443959409001025e+01
ITEM: ATOMS id type mol x y z
4181 21 373 -13.551 -24.6138 1.08925
4151 21 355 -12.2276 -22.2942 11.3493
4148 21 352 -12.4472 -18.9161 14.452
4171 21 369 -16.617 -15.0343 14.2469
4165 21 365 -12.9008 5.32721 -2.04464
3958 21 214 -12.8354 6.84762 20.4331
3990 21 240 -12.4676 6.08433 14.457
3897 21 173 -16.5088 12.5439 15.8692
4136 21 342 -9.1742 -23.006 7.40558
4123 21 333 -9.02188 -23.4742 16.204
4080 21 306 -8.9 -23.5142 11.5104
4155 21 359 -7.42422 -19.8917 8.02251
3800 21 108 -7.75042 -15.2453 1.70863
4160 21 362 -8.47316 -18.6071 -1.98637
4144 21 350 -5.19331 -17.7238 17.4685
4153 21 357 -9.00159 -10.9436 2.63975
3938 21 200 -11.2341 -3.25297 -4.79174
4049 21 285 -11.8611 -6.75209 -4.15486
4066 21 296 -8.99876 0.817283 19.1136
4141 21 347 -11.3987 11.5564 6.57583
4129 21 337 -10.1558 14.3357 19.0677
3988 21 238 -1.37587 -16.1226 -1.17596
4043 21 279 0.478809 -8.86099 -4.93735
4137 21 343 -0.000135192 -11.4142 9.53088
3943 21 205 2.19818 -8.16852 19.8792
3821 21 123 -2.06757 -9.19747 17.4628
3810 21 116 2.21579 -4.71904 11.0773
3889 21 167 1.62859 2.85968 4.9942
3939 21 201 0.829597 -1.80475 19.2949
4028 21 268 0.601606 7.71054 17.8093
4170 21 368 -2.99138 11.4776 12.9478
3928 21 194 -0.0228572 10.5303 10.6387
4029 21 269 0.371012 9.54792 6.98684
4130 21 338 4.79436 -12.3921 4.34377
4161 21 363 8.13519 -10.7664 0.957434
3868 21 152 8.85168 -2.38714 -0.0416549
4159 21 361 3.65013 -2.71568 4.70275
3825 21 125 8.88868 -2.29044 13.2901
4152 21 356 3.31324 5.37412 1.23705
3997 21 245 17.0425 -21.8604 9.73407
3978 21 232 14.9751 -19.2009 12.0294
3996 21 244 13.1864 -13.9419 -6.0585
4169 21 367 12.5751 -9.1994 -6.90858
4081 21 307 10.2904 0.810981 -1.58295
3974 21 230 12.3992 -1.81273 6.8304
3867 21 151 12.9781 -2.23185 16.7049
4131 21 339 10.5193 6.04591 0.536533
3957 21 213 14.9112 5.73215 15.3101
ITEM: TIMESTEP
1670000
ITEM: NUMBER OF ATOMS
48
ITEM: BOX BOUNDS pp pp pp
-1.9096013195961319e+01 1.7276993417035882e+01
-2.4698230296734213e+01 1.4470822054646806e+01
-9.0696323437780535e+00 2.0442291164695376e+01
ITEM: ATOMS id type mol x y z
4181 21 373 -13.48 -24.5949 1.08977
4151 21 355 -12.1641 -22.2775 11.3486
4148 21 352 -12.3825 -18.9027 14.451
4171 21 369 -16.5288 -15.0247 14.2459
4165 21 365 -12.8334 5.31709 -2.04376
3958 21 214 -12.7684 6.83604 20.4314
3990 21 240 -12.4027 6.07349 14.456
3897 21 173 -16.4212 12.5268 15.8681
4136 21 342 -9.12781 -22.9887 7.40539
4123 21 333 -8.97634 -23.4564 16.2028
4080 21 306 -8.85515 -23.4964 11.5097
4155 21 359 -7.38765 -19.8774 8.02225
3800 21 108 -7.71202 -15.2355 1.70908
4160 21 362 -8.4307 -18.594 -1.9855
4144 21 350 -5.16927 -17.7116 17.4672
4153 21 357 -8.95617 -10.9379 2.64009
3938 21 200 -11.1762 -3.25478 -4.79056
4049 21 285 -11.7996 -6.75051 -4.15375
4066 21 296 -8.95336 0.811538 19.1121
4141 21 347 -11.3398 11.5403 6.57573
4129 21 337 -10.1039 14.3169 19.0662
3988 21 238 -1.37325 -16.112 -1.17518
4043 21 279 0.471016 -8.85736 -4.93615
4137 21 343 -0.00523955 -11.4081 9.53044
3943 21 205 2.18074 -8.16556 19.8776
3821 21 123 -2.06107 -9.19352 17.4615
3810 21 116 2.19824 -4.71942 11.0767
3889 21 167 1.61434 2.85196 4.99428
3939 21 201 0.819835 -1.80795 19.2934
4028 21 268 0.593124 7.69812 17.8079
4170 21 368 -2.97969 11.4615 12.947
3928 21 194 -0.027834 10.5152 10.6381
4029 21 269 0.363824 9.53372 6.98669
4130 21 338 4.76235 -12.385 4.34392
4161 21 363 8.08442 -10.7609 0.957969
3868 21 152 8.79689 -2.38978 -0.0410074
4159 21 361 3.62453 -2.71801 4.70286
3825 21 125 8.83369 -2.29317 13.2893
4152 21 356 3.28954 5.36396 1.23756
3997 21 245 16.9417 -21.8442 9.73361
3978 21 232 14.8859 -19.1872 12.0287
3996 21 244 13.1073 -13.9333 -6.05717
4169 21 367 12.4994 -9.19544 -6.90715
4081 21 307 10.2276 0.805243 -1.58213
3974 21 230 12.3245 -1.81593 6.83027
3867 21 151 12.9001 -2.23464 16.7037
4131 21 339 10.4551 6.0351 0.537115
3957 21 213 14.8224 5.72164 15.3091
ITEM: TIMESTEP
1675000
ITEM: NUMBER OF ATOMS
48
ITEM: BOX BOUNDS pp pp pp
-1.9180314112977335e+01 1.7361294334051898e+01
-2.4629739231801064e+01 1.4402330989713658e+01
-9.0616899027770295e+00 2.0434348723679733e+01
ITEM: ATOMS id type mol x y z
4181 21 373 -13.5383 -24.5268 1.09224
4151 21 355 -12.2162 -22.2175 11.3456
4148 21 352 -12.4357 -18.8545 14.4463
4171 21 369 -16.6012 -14.9901 14.2413
4165 21 365 -12.8887 5.28062 -2.0396
3958 21 214 -12.8234 6.79425 20.4235
3990 21 240 -12.456 6.03436 14.4513
3897 21 173 -16.4931 12.4651 15.8626
4136 21 342 -9.1659 -22.9261 7.40446
4123 21 333 -9.01373 -23.3922 16.1972
4080 21 306 -8.89198 -23.4321 11.5066
4155 21 359 -7.41768 -19.8257 8.02099
3800 21 108 -7.74355 -15.2001 1.71122
4160 21 362 -8.46557 -18.5469 -1.98137
4144 21 350 -5.18901 -17.6675 17.4608
4153 21 357 -8.99347 -10.9175 2.64173
3938 21 200 -11.2238 -3.26128 -4.78492
4049 21 285 -11.8501 -6.74478 -4.14845
4066 21 296 -8.99064 0.790817 19.1049
4141 21 347 -11.3882 11.482 6.57525
4129 21 337 -10.1466 14.2489 19.059
3988 21 238 -1.3754 -16.0735 -1.17149
4043 21 279 0.477415 -8.84427 -4.93044
4137 21 343 -0.00104793 -11.3861 9.52838
3943 21 205 2.19506 -8.15489 19.8699
3821 21 123 -2.06641 -9.17925 17.4551
3810 21 116 2.21265 -4.7208 11.0738
3889 21 167 1.62604 2.8241 4.99465
3939 21 201 0.827851 -1.81951 19.286
4028 21 268 0.600089 7.65332 17.8014
4170 21 368 -2.98929 11.4036 12.9431
3928 21 194 -0.0237471 10.4605 10.6354
4029 21 269 0.369727 9.48249 6.98599
4130 21 338 4.78864 -12.3596 4.34464
4161 21 363 8.12611 -10.7412 0.960514
3868 21 152 8.84188 -2.3993 -0.0379246
4159 21 361 3.64555 -2.72639 4.70339
3825 21 125 8.87885 -2.30304 13.2852
4152 21 356 3.309 5.32732 1.23995
3997 21 245 17.0245 -21.7857 9.73143
3978 21 232 14.9591 -19.138 12.0253
3996 21 244 13.1722 -13.9025 -6.05085
4169 21 367 12.5615 -9.18116 -6.90038
4081 21 307 10.2792 0.784543 -1.57821
3974 21 230 12.3858 -1.82746 6.82965
3867 21 151 12.9642 -2.24471 16.6978
4131 21 339 10.5078 5.99611 0.539887
3957 21 213 14.8953 5.68375 15.3039
ITEM: TIMESTEP
1680000
ITEM: NUMBER OF ATOMS
49
ITEM: BOX BOUNDS pp pp pp
-1.9275363181076550e+01 1.7456343402151113e+01
-2.4469701853637474e+01 1.4242293611550068e+01
-9.1420572885761082e+00 2.0514716109429244e+01
ITEM: ATOMS id type mol x y z
4181 21 373 -13.604 -24.3676 1.06721
4151 21 355 -12.2751 -22.0773 11.3764
4148 21 352 -12.4956 -18.7418 14.494
4171 21 369 -16.6828 -14.9091 14.2879
4165 21 365 -12.951 5.19538 -2.0817
3958 21 214 -12.8854 6.6966 20.5038
3990 21 240 -12.5161 5.94294 14.499
3897 21 173 -16.5742 12.321 15.918
4136 21 342 -9.20885 -22.7801 7.41382
4123 21 333 -9.05589 -23.2424 16.2544
4080 21 306 -8.93351 -23.2819 11.5383
4155 21 359 -7.45154 -19.7051 8.03371
3800 21 108 -7.7791 -15.1174 1.68956
4160 21 362 -8.50488 -18.4367 -2.02315
4144 21 350 -5.21128 -17.5646 17.525
4153 21 357 -9.03553 -10.87 2.62514
3938 21 200 -11.2774 -3.27647 -4.84198
4049 21 285 -11.907 -6.73141 -4.20204
4066 21 296 -9.03268 0.742398 19.178
4141 21 347 -11.4427 11.3459 6.58009
4129 21 337 -10.1946 14.0902 19.1319
4182 21 374 -9.21349 11.245 12.0049
3988 21 238 -1.37782 -15.9836 -1.20886
4043 21 279 0.484631 -8.81367 -4.98829
4137 21 343 0.0036781 -11.3347 9.54931
3943 21 205 2.21121 -8.12995 19.9472
3821 21 123 -2.07242 -9.14591 17.5193
3810 21 116 2.22889 -4.72402 11.1032
3889 21 167 1.63923 2.75901 4.99089
3939 21 201 0.836889 -1.84653 19.3601
4028 21 268 0.607942 7.54862 17.8674
4170 21 368 -3.00011 11.2681 12.9826
3928 21 194 -0.0191392 10.3328 10.6624
4029 21 269 0.376382 9.3628 6.99307
4130 21 338 4.81828 -12.3002 4.33733
4161 21 363 8.17312 -10.695 0.934761
3868 21 152 8.89261 -2.42156 -0.0691182
4159 21 361 3.66925 -2.74596 4.69804
3825 21 125 8.92977 -2.32609 13.3266
4152 21 356 3.33095 5.2417 1.21572
3997 21 245 17.1178 -21.649 9.75347
3978 21 232 15.0417 -19.023 12.0598
3996 21 244 13.2455 -13.8304 -6.11481
4169 21 367 12.6316 -9.14781 -6.96896
4081 21 307 10.3374 0.736176 -1.6178
3974 21 230 12.455 -1.85441 6.83588
3867 21 151 13.0363 -2.26824 16.7578
4131 21 339 10.5672 5.905 0.511842
3957 21 213 14.9775 5.59521 15.3563
ITEM: TIMESTEP
1685000
ITEM: NUMBER OF ATOMS
50
ITEM: BOX BOUNDS pp pp pp
-1.9099001555312608e+01 1.7279981776387171e+01
-2.4638795290198559e+01 1.4411387048111152e+01
-9.2392508617286282e+00 2.0611909682525127e+01
ITEM: ATOMS id type mol x y z
4181 21 373 -13.4821 -24.5358 1.03693
4151 21 355 -12.1659 -22.2254 11.4137
4148 21 352 -12.3844 -18.8609 14.5517
4171 21 369 -16.5314 -14.9947 14.3443
4165 21 365 -12.8354 5.28544 -2.13262
3958 21 214 -12.7704 6.79977 20.6009
3990 21 240 -12.4046 6.03953 14.5568
3897 21 173 -16.4238 12.4733 15.9851
4136 21 342 -9.12916 -22.9344 7.42515
4123 21 333 -8.97767 -23.4007 16.3237
4080 21 306 -8.85646 -23.4406 11.5766
4155 21 359 -7.38872 -19.8326 8.0491
3800 21 108 -7.71314 -15.2047 1.66336
4160 21 362 -8.43194 -18.5531 -2.07368
4144 21 350 -5.16997 -17.6733 17.6026
4153 21 357 -8.95749 -10.9202 2.60508
3938 21 200 -11.1779 -3.26042 -4.91099
4049 21 285 -11.8014 -6.74554 -4.26686
4066 21 296 -8.95468 0.793556 19.2665
4182 21 374 -9.13375 11.3879 12.0464
4141 21 347 -11.3415 11.4897 6.58595
4129 21 337 -10.1055 14.2579 19.22
3988 21 238 -1.37332 -16.0786 -1.25406
4043 21 279 0.471243 -8.846 -5.05826
4137 21 343 -0.00509096 -11.389 9.57463
3943 21 205 2.18125 -8.1563 20.0407
3821 21 123 -2.06126 -9.18113 17.5968
3810 21 116 2.19875 -4.72062 11.1387
3889 21 167 1.61475 2.82778 4.98633
3939 21 201 0.820119 -1.81798 19.4498
4028 21 268 0.593371 7.65924 17.9473
4170 21 368 -2.98003 11.4112 13.0305
3928 21 194 -0.0276891 10.4677 10.695
4029 21 269 0.364034 9.48927 7.00164
4130 21 338 4.76328 -12.363 4.32849
4161 21 363 8.0859 -10.7438 0.903617
4183 21 375 3.82387 -12.4809 12.0014
3868 21 152 8.79849 -2.39804 -0.106843
4159 21 361 3.62528 -2.72528 4.69156
3825 21 125 8.83529 -2.30173 13.3767
4152 21 356 3.29023 5.33217 1.18642
3997 21 245 16.9446 -21.7934 9.78013
3978 21 232 14.8885 -19.1445 12.1016
3996 21 244 13.1096 -13.9066 -6.19216
4169 21 367 12.5016 -9.18305 -7.05191
4081 21 307 10.2294 0.78728 -1.66568
3974 21 230 12.3267 -1.82594 6.84342
3867 21 151 12.9024 -2.24338 16.8303
4131 21 339 10.457 6.00126 0.477926
3957 21 213 14.8249 5.68876 15.4197
ITEM: TIMESTEP
1690000
ITEM: NUMBER OF ATOMS
47
ITEM: BOX BOUNDS pp pp pp
-1.9175150902256007e+01 1.7356131123330570e+01
-2.4661743608836865e+01 1.4434335366749458e+01
-9.2176016047890279e+00 2.0590260425576371e+01
ITEM: ATOMS id type mol x y z
4181 21 373 -13.5347 -24.5586 1.04368
4151 21 355 -12.2131 -22.2456 11.4054
4148 21 352 -12.4324 -18.877 14.5389
4171 21 369 -16.5968 -15.0063 14.3318
4165 21 365 -12.8853 5.29766 -2.12128
3990 21 240 -12.4527 6.05264 14.5439
3897 21 173 -16.4887 12.4939 15.9702
4136 21 342 -9.16357 -22.9554 7.42262
4123 21 333 -9.01144 -23.4222 16.3083
4080 21 306 -8.88973 -23.4621 11.5681
4155 21 359 -7.41584 -19.8499 8.04567
3800 21 108 -7.74162 -15.2166 1.6692
4160 21 362 -8.46343 -18.5689 -2.06243
4144 21 350 -5.18781 -17.6881 17.5853
4153 21 357 -8.99119 -10.9271 2.60954
3938 21 200 -11.2208 -3.25824 -4.89562
4049 21 285 -11.847 -6.74746 -4.25242
4066 21 296 -8.98836 0.800499 19.2468
4182 21 374 -9.16818 11.4073 12.0371
4141 21 347 -11.3852 11.5092 6.58465
4129 21 337 -10.144 14.2807 19.2004
3988 21 238 -1.37527 -16.0915 -1.24399
4043 21 279 0.477023 -8.85038 -5.04267
4137 21 343 -0.00130466 -11.3964 9.56899
3943 21 205 2.19419 -8.15988 20.0199
3821 21 123 -2.06608 -9.18591 17.5795
3810 21 116 2.21177 -4.72016 11.1308
3889 21 167 1.62532 2.83712 4.98734
3939 21 201 0.82736 -1.81411 19.4298
4028 21 268 0.599662 7.67425 17.9295
4170 21 368 -2.9887 11.4306 13.0198
3928 21 194 -0.0239974 10.486 10.6878
4029 21 269 0.369365 9.50643 6.99973
4130 21 338 4.78703 -12.3715 4.33046
4161 21 363 8.12356 -10.7504 0.910554
4183 21 375 3.84369 -12.4895 11.9922
3868 21 152 8.83913 -2.39485 -0.0984397
3825 21 125 8.87608 -2.29843 13.3655
3997 21 245 17.0194 -21.813 9.7742
3978 21 232 14.9546 -19.161 12.0923
3996 21 244 13.1682 -13.9169 -6.17493
4169 21 367 12.5577 -9.18783 -7.03344
4081 21 307 10.276 0.794216 -1.65501
3974 21 230 12.3821 -1.82207 6.84174
3867 21 151 12.9602 -2.24001 16.8142
4131 21 339 10.5046 6.01433 0.48548
3957 21 213 14.8908 5.70146 15.4056
ITEM: TIMESTEP
1695000
ITEM: NUMBER OF ATOMS
45
ITEM: BOX BOUNDS pp pp pp
-1.9313771772165204e+01 1.7494751993239767e+01
-2.4651308381438248e+01 1.4423900139350842e+01
-9.1316998387013903e+00 2.0504358659505325e+01
ITEM: ATOMS id type mol x y z
4151 21 355 -12.2988 -22.2364 11.3725
4148 21 352 -12.5198 -18.8697 14.4878
4171 21 369 -16.7158 -15.001 14.2819
4165 21 365 -12.9762 5.2921 -2.07628
3990 21 240 -12.5404 6.04668 14.4929
3897 21 173 -16.607 12.4845 15.9109
4136 21 342 -9.22621 -22.9458 7.41262
4123 21 333 -9.07293 -23.4125 16.2471
4080 21 306 -8.95029 -23.4523 11.5342
4155 21 359 -7.46522 -19.842 8.03207
3800 21 108 -7.79347 -15.2112 1.69235
4160 21 362 -8.52076 -18.5617 -2.01777
4144 21 350 -5.22027 -17.6814 17.5167
4153 21 357 -9.05252 -10.924 2.62728
3938 21 200 -11.2991 -3.25923 -4.83463
4049 21 285 -11.93 -6.74658 -4.19514
4066 21 296 -9.04967 0.797342 19.1686
4182 21 374 -9.23085 11.3985 12.0005
4141 21 347 -11.4647 11.5004 6.57947
4129 21 337 -10.214 14.2703 19.1225
3988 21 238 -1.3788 -16.0856 -1.20404
4043 21 279 0.487546 -8.84839 -4.98083
4137 21 343 0.00558786 -11.3931 9.54661
3943 21 205 2.21774 -8.15825 19.9373
3821 21 123 -2.07486 -9.18374 17.511
3810 21 116 2.23545 -4.72037 11.0994
3889 21 167 1.64456 2.83287 4.99137
3939 21 201 0.840542 -1.81587 19.3506
4028 21 268 0.611116 7.66743 17.8589
4170 21 368 -3.00448 11.4218 12.9775
3928 21 194 -0.0172771 10.4777 10.6589
4029 21 269 0.379071 9.49862 6.99216
4130 21 338 4.83026 -12.3676 4.33827
4161 21 363 8.19211 -10.7474 0.93808
3868 21 152 8.91311 -2.3963 -0.0650981
3825 21 125 8.95035 -2.29993 13.3213
3997 21 245 17.1555 -21.8041 9.75063
3978 21 232 15.075 -19.1535 12.0554
3996 21 244 13.2751 -13.9122 -6.10656
4169 21 367 12.6599 -9.18566 -6.96013
4081 21 307 10.3609 0.791062 -1.6127
3974 21 230 12.483 -1.82383 6.83508
3867 21 151 13.0655 -2.24154 16.75
4131 21 339 10.5912 6.00839 0.515456
3957 21 213 15.0107 5.69568 15.3495
ITEM: TIMESTEP
1700000
ITEM: NUMBER OF ATOMS
46
ITEM: BOX BOUNDS pp pp pp
-1.9149451503910068e+01 1.7330431724984631e+01
-2.4595663628141075e+01 1.4368255386053669e+01
-9.2618646652977716e+00 2.0634523486031544e+01
ITEM: ATOMS id type mol x y z
4151 21 355 -12.1972 -22.1876 11.4224
4148 21 352 -12.4162 -18.8305 14.5652
4171 21 369 -16.5747 -14.9728 14.3574
4165 21 365 -12.8685 5.26247 -2.14447
3990 21 240 -12.4365 6.0149 14.5702
3897 21 173 -16.4668 12.4344 16.0007
4136 21 342 -9.15195 -22.895 7.42778
4123 21 333 -9.00004 -23.3603 16.3398
4080 21 306 -8.8785 -23.4001 11.5856
4155 21 359 -7.40669 -19.8 8.05268
3800 21 108 -7.73201 -15.1825 1.65727
4160 21 362 -8.4528 -18.5234 -2.08544
4144 21 350 -5.18179 -17.6456 17.6207
4153 21 357 -8.97982 -10.9074 2.60041
3938 21 200 -11.2063 -3.26451 -4.92705
4049 21 285 -11.8316 -6.74193 -4.28194
4066 21 296 -8.97699 0.780507 19.287
4182 21 374 -9.15656 11.3515 12.056
4141 21 347 -11.3705 11.453 6.58731
4129 21 337 -10.131 14.2151 19.2405
3988 21 238 -1.37461 -16.0544 -1.26457
4043 21 279 0.475073 -8.83775 -5.07454
4137 21 343 -0.00258248 -11.3752 9.58052
3943 21 205 2.18982 -8.14958 20.0624
3821 21 123 -2.06445 -9.17215 17.6149
3810 21 116 2.20737 -4.72149 11.147
3889 21 167 1.62175 2.81024 4.98527
3939 21 201 0.824917 -1.82526 19.4706
4028 21 268 0.597539 7.63103 17.9658
4170 21 368 -2.98578 11.3747 13.0416
3928 21 194 -0.0252433 10.4333 10.7026
4029 21 269 0.367566 9.45701 7.00363
4190 21 378 3.44427 -10.1054 1.47534
4130 21 338 4.77901 -12.347 4.32643
4161 21 363 8.11085 -10.7314 0.89637
3868 21 152 8.82541 -2.40404 -0.11562
3825 21 125 8.86232 -2.30795 13.3883
3997 21 245 16.9942 -21.7566 9.78634
3978 21 232 14.9323 -19.1135 12.1113
3996 21 244 13.1484 -13.8871 -6.21016
4169 21 367 12.5388 -9.17406 -7.07121
4081 21 307 10.2603 0.774245 -1.67682
3974 21 230 12.3634 -1.8332 6.84517
3867 21 151 12.9407 -2.24972 16.8472
4131 21 339 10.4885 5.97671 0.470034
3957 21 213 14.8686 5.6649 15.4344
ITEM: TIMESTEP
1705000
ITEM: NUMBER OF ATOMS
44
ITEM: BOX BOUNDS pp pp pp
-1.9167500112943312e+01 1.7348480334017875e+01
-2.4639364209345967e+01 1.4411955967258560e+01
-9.1226512806981113e+00 2.0495310101470579e+01
ITEM: ATOMS id type mol x y z
4151 21 355 -12.2083 -22.2259 11.369
4148 21 352 -12.4276 -18.8613 14.4825
4171 21 369 -16.5902 -14.9949 14.2767
4165 21 365 -12.8803 5.28574 -2.07154
3990 21 240 -12.4479 6.03986 14.4875
3897 21 173 -16.4822 12.4738 15.9047
4136 21 342 -9.16011 -22.9349 7.41156
4123 21 333 -9.00805 -23.4013 16.2406
4080 21 306 -8.88638 -23.4411 11.5306
4155 21 359 -7.41312 -19.833 8.03064
3800 21 108 -7.73876 -15.205 1.69479
4160 21 362 -8.46027 -18.5535 -2.01306
4144 21 350 -5.18601 -17.6737 17.5095
3938 21 200 -11.2165 -3.26036 -4.8282
4049 21 285 -11.8425 -6.74559 -4.1891
4066 21 296 -8.98498 0.793729 19.1604
4182 21 374 -9.16472 11.3884 11.9967
4141 21 347 -11.3808 11.4902 6.57892
4129 21 337 -10.1401 14.2585 19.1143
3988 21 238 -1.37507 -16.0789 -1.19984
4043 21 279 0.476443 -8.84611 -4.97432
4137 21 343 -0.00168507 -11.3892 9.54426
3943 21 205 2.19289 -8.15639 19.9285
3821 21 123 -2.06559 -9.18125 17.5038
3889 21 167 1.62426 2.82802 4.9918
3939 21 201 0.826633 -1.81789 19.3422
4028 21 268 0.59903 7.65961 17.8515
4170 21 368 -2.98783 11.4117 12.9731
3928 21 194 -0.0243683 10.4682 10.6559
4029 21 269 0.36883 9.48969 6.99136
4190 21 378 3.44858 -10.1166 1.51456
4130 21 338 4.78464 -12.3632 4.33909
4161 21 363 8.11977 -10.744 0.94098
3868 21 152 8.83504 -2.39797 -0.061586
3825 21 125 8.87198 -2.30165 13.3166
3997 21 245 17.0119 -21.7939 9.74815
3978 21 232 14.948 -19.1449 12.0515
3996 21 244 13.1624 -13.9068 -6.09936
4169 21 367 12.5521 -9.18317 -6.9524
4081 21 307 10.2714 0.787452 -1.60824
3974 21 230 12.3765 -1.82584 6.83438
3867 21 151 12.9544 -2.2433 16.7433
4131 21 339 10.4998 6.00159 0.518614
3957 21 213 14.8842 5.68908 15.3436
ITEM: TIMESTEP
1710000
ITEM: NUMBER OF ATOMS
44
ITEM: BOX BOUNDS pp pp pp
-1.9096707617597257e+01 1.7277687838671820e+01
-2.4609307787381063e+01 1.4381899545293656e+01
-9.3273030068721461e+00 2.0699961827543778e+01
ITEM: ATOMS id type mol x y z
4151 21 355 -12.1645 -22.1996 11.4475
4148 21 352 -12.3829 -18.8401 14.604
4171 21 369 -16.5294 -14.9797 14.3954
4165 21 365 -12.8339 5.26973 -2.17875
3990 21 240 -12.4032 6.02269 14.6091
3897 21 173 -16.4218 12.4467 16.0459
4136 21 342 -9.12812 -22.9075 7.4354
4123 21 333 -8.97665 -23.3731 16.3865
4080 21 306 -8.85545 -23.4129 11.6114
4155 21 359 -7.3879 -19.8103 8.06304
3800 21 108 -7.71228 -15.1895 1.63963
4160 21 362 -8.43099 -18.5328 -2.11946
4144 21 350 -5.16943 -17.6544 17.6729
3938 21 200 -11.1766 -3.26322 -4.97351
4049 21 285 -11.8001 -6.74307 -4.32558
4066 21 296 -8.95367 0.784635 19.3466
4182 21 374 -9.13271 11.363 12.0839
4141 21 347 -11.3402 11.4646 6.59126
4129 21 337 -10.1043 14.2287 19.2998
3988 21 238 -1.37327 -16.062 -1.295
4043 21 279 0.471069 -8.84036 -5.12164
4137 21 343 -0.00520502 -11.3796 9.59757
3943 21 205 2.18086 -8.15171 20.1254
3821 21 123 -2.06111 -9.17499 17.6671
3889 21 167 1.61444 2.81579 4.9822
3939 21 201 0.819901 -1.82296 19.531
4028 21 268 0.593181 7.63995 18.0196
4170 21 368 -2.97977 11.3863 13.0738
3928 21 194 -0.0278003 10.4442 10.7246
4029 21 269 0.363873 9.46721 7.0094
4190 21 378 3.43168 -10.1089 1.45691
4130 21 338 4.76256 -12.352 4.32048
4161 21 363 8.08476 -10.7353 0.875402
3868 21 152 8.79726 -2.40215 -0.141019
3825 21 125 8.83406 -2.30598 13.422
3997 21 245 16.9424 -21.7682 9.80428
3978 21 232 14.8865 -19.1233 12.1394
3996 21 244 13.1078 -13.8933 -6.26224
4169 21 367 12.4999 -9.17691 -7.12706
4081 21 307 10.228 0.778368 -1.70905
3974 21 230 12.325 -1.8309 6.85024
3867 21 151 12.9007 -2.24771 16.8961
4131 21 339 10.4555 5.98448 0.447199
3957 21 213 14.823 5.67245 15.4771
