LAMMPS (22 Jul 2025 - Update 1)
# Step 9: NPT pressure reduction from 100 bar to 0 bar at 313.15K for 2 ns

units real
atom_style full
boundary p p p

pair_style lj/class2/coul/long 12.0
bond_style class2
angle_style class2
dihedral_style class2
improper_style class2
kspace_style pppm 1e-4
pair_modify mix sixthpower

read_data step08_final.data
Reading data file ...
  orthogonal box = (-18.377113 -24.507249 -9.0637094) to (16.558093 14.27984 20.436368)
  5 by 5 by 1 MPI processor grid
  reading atoms ...
  3640 atoms
  reading velocities ...
  3640 velocities
  scanning bonds ...
  4 = max bonds/atom
  scanning angles ...
  6 = max angles/atom
  scanning dihedrals ...
  21 = max dihedrals/atom
  scanning impropers ...
  4 = max impropers/atom
  orthogonal box = (-18.377113 -24.507249 -9.0637094) to (16.558093 14.27984 20.436368)
  5 by 5 by 1 MPI processor grid
  reading bonds ...
  4020 bonds
  reading angles ...
  7100 angles
  reading dihedrals ...
  11170 dihedrals
  reading impropers ...
  3110 impropers
Finding 1-2 1-3 1-4 neighbors ...
  special bond factors lj:    0        0        0       
  special bond factors coul:  0        0        0       
     4 = max # of 1-2 neighbors
     9 = max # of 1-3 neighbors
    24 = max # of 1-4 neighbors
    27 = max # of special neighbors
  special bonds CPU = 0.002 seconds
  read_data CPU = 0.231 seconds

neighbor 2.0 bin
neigh_modify delay 0 every 1 check yes

timestep 0.5

variable density equal density
variable vol equal vol

fix data_output all ave/time 1000 1 1000 c_thermo_temp c_thermo_press v_density v_vol     file step09_TPD_data.dat

thermo_style custom step temp press vol density etotal ke pe
thermo 2000
thermo_modify flush yes

# ---------- Trajectory output ----------
dump traj all atom 10000 step09_trajectory.dump
dump_modify traj sort id

# Write restart files every 200,000 steps (~100 ps)
restart 50000 step09_restart_*.bin

fix npt9 all npt temp 313.15 313.15 100.0 aniso 98.6923 0.0 1000.0 pchain 3

run 1000000  # 0.5 ns
PPPM initialization ...
  using 12-bit tables for long-range coulomb
  G vector (1/distance) = 0.16956875
  grid = 8 8 8
  stencil order = 5
  estimated absolute RMS force accuracy = 0.014375906
  estimated relative force accuracy = 4.3292613e-05
  using double precision KISS FFT
  3d grid and FFT values/proc = 637 32
Generated 190 of 190 mixed pair_coeff terms from sixthpower/sixthpower mixing rule
Neighbor list info ...
  update: every = 1 steps, delay = 0 steps, check = yes
  max neighbors/atom: 2000, page size: 100000
  master list distance cutoff = 14
  ghost atom cutoff = 14
  binsize = 7, bins = 5 6 5
  1 neighbor lists, perpetual/occasional/extra = 1 0 0
  (1) pair lj/class2/coul/long, perpetual
      attributes: half, newton on
      pair build: half/bin/newton
      stencil: half/bin/3d
      bin: standard
Per MPI rank memory allocation (min/avg/max) = 18.29 | 18.29 | 18.29 Mbytes
   Step          Temp          Press          Volume        Density         TotEng         KinEng         PotEng    
         0   315.15983     -975.48188      39973.636      1.1882666      22412.339      3418.5915      18993.748    
      2000   324.32452      1064.4944      39550.775      1.2009711      22518.666      3518.0025      19000.663    
      4000   311.49157      1107.3309      39284.822      1.2091015      22414.02       3378.8013      19035.219    
      6000   307.53536      1043.2771      39357.017      1.2068836      22340.374      3335.8876      19004.486    
      8000   319.74149      242.54768      39618.105      1.1989301      22378.691      3468.2895      18910.402    
     10000   309.77867     -1282.7061      39375.144      1.206328       22329.193      3360.2212      18968.972    
     12000   309.66541      196.06523      39200.33       1.2117076      22368.97       3358.9926      19009.977    
     14000   311.06123      324.04695      39367.246      1.20657        22418.029      3374.1334      19043.896    
     16000   307.56173      719.11645      39196.465      1.2118271      22304.442      3336.1736      18968.268    
     18000   314.64181      668.05764      39299.77       1.2086416      22365.076      3412.9725      18952.104    
     20000   319.84224      1000.472       39250.923      1.2101457      22484.264      3469.3825      19014.882    
     22000   313.31591     -714.54111      39509.635      1.2022216      22310.055      3398.5903      18911.464    
     24000   313.52442      1203.2316      39518.703      1.2019458      22466.52       3400.8519      19065.668    
     26000   314.41025      1914.4877      39265.829      1.2096863      22251.084      3410.4607      18840.623    
     28000   318.617       -603.37307      39612.474      1.1991005      22419.693      3456.0921      18963.601    
     30000   310.07039      1318.4772      39346.314      1.2072119      22222.512      3363.3855      18859.126    
     32000   311.74096     -737.49936      39659.38       1.1976823      22440.263      3381.5065      19058.756    
     34000   314.43313     -2152.9658      39752.782      1.1948683      22433.828      3410.7089      19023.119    
     36000   313.8487       31.767987      39226.378      1.210903       22361.546      3404.3695      18957.177    
     38000   312.72946      1317.1151      39636.625      1.1983699      22366.362      3392.229       18974.133    
     40000   314.26776     -1030.299       39469.424      1.2034464      22422.404      3408.9151      19013.489    
     42000   311.15446      1197.8379      39365.584      1.2066209      22338.537      3375.1446      18963.393    
     44000   311.05081      790.45427      39671.458      1.1973177      22284.006      3374.0203      18909.986    
     46000   319.06634     -604.97775      39462.741      1.2036503      22395.604      3460.9661      18934.638    
     48000   302.69378      562.10103      39784.544      1.1939143      22336.191      3283.3702      19052.82     
     50000   308.28783      795.20598      39403.458      1.2054611      22386.85       3344.0498      19042.8      
     52000   321.88469     -310.31341      39506.549      1.2023155      22407.978      3491.5372      18916.441    
     54000   308.38946     -676.56614      39431.739      1.2045966      22331.739      3345.1523      18986.587    
     56000   315.92542      1266.8912      39318.639      1.2080616      22392.952      3426.896       18966.056    
     58000   307.49727     -385.03553      39511.683      1.2021593      22311.184      3335.4745      18975.71     
     60000   311.97932     -835.57503      39403.845      1.2054493      22418.05       3384.0921      19033.958    
     62000   312.45071      466.77016      39399.843      1.2055718      22264.199      3389.2053      18874.994    
     64000   310.96089      740.18676      39480.475      1.2031096      22352.645      3373.0449      18979.6      
     66000   307.4534      -1056.4263      39257.973      1.2099284      22410.917      3334.9987      19075.918    
     68000   316.65515      960.12514      39427.596      1.2047232      22524.343      3434.8116      19089.532    
     70000   309.17855      430.08227      39359.527      1.2068066      22314.003      3353.7116      18960.291    
     72000   312.1697       455.80099      39478.641      1.2031655      22356.642      3386.1571      18970.485    
     74000   316.21349      2003.4256      39515.4        1.2020462      22371.023      3430.0207      18941.003    
     76000   316.80838     -33.786826      39789.265      1.1937727      22468.782      3436.4736      19032.309    
     78000   306.99709      467.32579      39340.063      1.2074037      22387.731      3330.049       19057.682    
     80000   313.98784     -1387.0221      39389.088      1.2059009      22370.807      3405.8787      18964.929    
     82000   314.80515     -999.85588      39425.266      1.2047944      22463.281      3414.7442      19048.537    
     84000   310.8222       156.40215      39627.008      1.1986607      22353.727      3371.5406      18982.187    
     86000   310.03512     -1094.8041      39486.845      1.2029155      22330.627      3363.0029      18967.624    
     88000   316.17474      308.57524      38791.083      1.2244911      22436.015      3429.6004      19006.415    
     90000   306.43045      3051.1633      39521.648      1.2018562      22295.103      3323.9025      18971.201    
     92000   315.2829      -1600.2204      39554.511      1.2008577      22368.723      3419.9265      18948.796    
     94000   318.81796     -106.49656      39444.365      1.204211       22519.921      3458.2719      19061.649    
     96000   310.82562     -849.81725      39702.02       1.196396       22352.562      3371.5777      18980.984    
     98000   315.67717      1409.2893      39452.921      1.2039498      22427.997      3424.2033      19003.794    
    100000   314.65414     -321.33337      40057.135      1.1857897      22500.401      3413.1062      19087.295    
    102000   308.13515     -1087.8166      39573.62       1.2002778      22337.513      3342.3936      18995.12     
    104000   317.93183     -381.91212      39340.879      1.2073786      22456.116      3448.6599      19007.456    
    106000   308.82565      206.87046      39590.204      1.199775       22354.834      3349.8837      19004.95     
    108000   318.29818      920.78477      39765.248      1.1944937      22412.669      3452.6337      18960.036    
    110000   314.51414     -2556.1847      39767.273      1.1944329      22382.332      3411.5877      18970.744    
    112000   309.48364      1070.1066      39695.255      1.1965999      22234.502      3357.021       18877.481    
    114000   318.04471      634.97876      39555.834      1.2008175      22411.676      3449.8843      18961.791    
    116000   305.83103      961.31114      39510.392      1.2021986      22336.67       3317.4005      19019.269    
    118000   320.69768      2684.6905      39475.437      1.2032631      22483.543      3478.6615      19004.882    
    120000   308.34672      1294.2895      39637.781      1.1983349      22353.467      3344.6886      19008.778    
    122000   315.84291     -1470.1419      39646.292      1.1980777      22562.516      3426.0011      19136.515    
    124000   316.22132      1352.1359      39572.233      1.2003199      22364.688      3430.1057      18934.582    
    126000   309.06859      1283.7372      39693.753      1.1966452      22431.64       3352.5188      19079.121    
    128000   314.18082      2495.1007      39559.572      1.200704       22381.589      3407.9721      18973.617    
    130000   309.57016     -1273.2606      39792.97       1.1936615      22347.743      3357.9595      18989.784    
    132000   313.62409      2112.5793      39497.17       1.202601       22458.028      3401.9331      19056.094    
    134000   311.86228     -569.78774      39496.641      1.2026171      22350.939      3382.8225      18968.117    
    136000   307.28104     -2338.9699      39773.539      1.1942447      22301.764      3333.129       18968.635    
    138000   318.60596     -2211.6777      39878.194      1.1911106      22476.988      3455.9723      19021.016    
    140000   316.46927     -61.182994      39408.589      1.2053042      22459.291      3432.7953      19026.496    
    142000   309.4824       1341.3798      39589.966      1.1997822      22336.939      3357.0075      18979.931    
    144000   318.27341     -600.17416      39764.925      1.1945034      22478.998      3452.365       19026.633    
    146000   320.26124      560.57218      39641.6        1.1982195      22536.966      3473.9274      19063.038    
    148000   307.3739      -464.52358      39486.491      1.2029263      22368.558      3334.1362      19034.422    
    150000   325.67322      995.26705      39320.56       1.2080026      22554.774      3532.6321      19022.142    
    152000   303.30398     -1000.1342      39532.238      1.2015342      22344.113      3289.9892      19054.124    
    154000   310.8841      -692.13723      39564.9        1.2005424      22416.371      3372.2119      19044.159    
    156000   307.06249      2280.7987      39650.654      1.1979459      22446.855      3330.7583      19116.097    
    158000   310.76461      852.95438      39385.402      1.2060138      22346.69       3370.9158      18975.774    
    160000   309.34307     -140.3452       39502.237      1.2024468      22329.698      3355.4961      18974.202    
    162000   304.30847     -979.07099      39344.677      1.2072621      22247.101      3300.8851      18946.216    
    164000   318.09531     -2422.7169      39290.818      1.208917       22402.136      3450.4332      18951.702    
    166000   317.1714      -547.41634      39704.48       1.1963219      22543.033      3440.4114      19102.622    
    168000   312.21088     -1678.6969      39876.52       1.1911606      22365.541      3386.6038      18978.938    
    170000   311.24507     -720.52339      39598.776      1.1995153      22425.296      3376.1275      19049.169    
    172000   314.27065     -713.12696      39200.695      1.2116963      22416.833      3408.9464      19007.887    
    174000   307.39293     -577.71032      39335.266      1.207551       22294.959      3334.3427      18960.616    
    176000   315.02916      778.35599      39943.837      1.1891531      22402.003      3417.1742      18984.829    
    178000   312.46287      682.96169      39542.258      1.2012298      22463.472      3389.3371      19074.135    
    180000   320.34301      1084.7858      39481.983      1.2030636      22476.314      3474.8144      19001.499    
    182000   311.474       -983.99056      39330.563      1.2076953      22366.622      3378.6107      18988.011    
    184000   313.97145     -252.58169      39720.84       1.1958291      22384.531      3405.701       18978.83     
    186000   310.75478      1325.7873      39836.616      1.1923537      22368.909      3370.8092      18998.099    
    188000   318.12331      923.10141      39126.969      1.2139795      22475.024      3450.7369      19024.287    
    190000   310.15801      2100.6032      39148.646      1.2133073      22314.616      3364.3359      18950.28     
    192000   316.99498     -1238.2549      39432.099      1.2045856      22502.95       3438.4977      19064.452    
    194000   309.45562      1926.7512      39380.068      1.2061772      22368.877      3356.717       19012.16     
    196000   314.77925     -332.26588      39240.986      1.2104522      22462.872      3414.4633      19048.408    
    198000   319.24489      2428.4805      39492.911      1.2027307      22447.064      3462.9029      18984.161    
    200000   309.57725      1643.7197      39289.225      1.208966       22397.923      3358.0364      19039.887    
    202000   308.52204      920.37925      39292.453      1.2088667      22344.594      3346.5904      18998.004    
    204000   317.06282     -560.12473      39722.516      1.1957787      22408.971      3439.2336      18969.737    
    206000   313.83504      574.08209      39502.264      1.202446       22383.916      3404.2214      18979.694    
    208000   311.78005     -1063.4655      39476.019      1.2032454      22328.378      3381.9305      18946.447    
    210000   306.18291     -103.51973      39441.265      1.2043056      22385.403      3321.2174      19064.186    
    212000   312.50746      626.71823      39441.453      1.2042999      22334.093      3389.8208      18944.272    
    214000   314.25217      917.73066      39460.288      1.2037251      22411.961      3408.746       19003.215    
    216000   314.88216      985.8144       39295.952      1.208759       22433.938      3415.5797      19018.358    
    218000   313.13422     -433.18772      39827.386      1.1926301      22400.146      3396.6194      19003.526    
    220000   312.86384      1100.7819      39427.022      1.2047407      22483.34       3393.6865      19089.654    
    222000   308.49413     -966.04151      39688.06       1.1968168      22373.471      3346.2876      19027.184    
    224000   311.45891     -895.33122      39866.833      1.19145        22391.978      3378.447       19013.531    
    226000   310.92262     -940.60732      39477.94       1.2031868      22376.462      3372.6298      19003.833    
    228000   308.71252      900.25044      39646.495      1.1980716      22402.837      3348.6565      19054.18     
    230000   313.48611      1285.7032      39677.863      1.1971244      22406.34       3400.4364      19005.904    
    232000   311.71878      100.1588       39845.275      1.1920946      22385.743      3381.2659      19004.477    
    234000   320.67828      227.36768      39240.57       1.210465       22418.357      3478.4511      18939.906    
    236000   320.39577     -1284.4182      39593.546      1.1996737      22455.301      3475.3867      18979.914    
    238000   316.36128      749.59522      39645.496      1.1981017      22394.728      3431.6239      18963.104    
    240000   307.0026      -152.305        39257.854      1.2099321      22283.96       3330.1087      18953.851    
    242000   314.32406     -300.49822      39079.149      1.215465       22380.555      3409.5259      18971.03     
    244000   318.04289      198.68492      39827.779      1.1926183      22491.717      3449.8646      19041.852    
    246000   311.7992       1342.2781      39448.337      1.2040897      22436.54       3382.1382      19054.402    
    248000   314.52712      207.26916      39768.577      1.1943937      22371.88       3411.7284      18960.151    
    250000   315.42058     -997.91929      39551.833      1.200939       22480.089      3421.42        19058.669    
    252000   316.40555     -1374.0232      39460.032      1.2037329      22374.948      3432.1041      18942.844    
    254000   309.80229      653.24805      39415.496      1.205093       22397.11       3360.4774      19036.632    
    256000   310.65887     -623.46356      39519.196      1.2019308      22410.895      3369.7689      19041.126    
    258000   308.29811      1418.1029      39502.325      1.2024441      22270.976      3344.1613      18926.814    
    260000   309.17256      730.93158      38955.436      1.219325       22332.224      3353.6466      18978.577    
    262000   314.75536      1975.5338      39233.092      1.2106957      22430.941      3414.2042      19016.736    
    264000   309.30217      461.04304      39483.408      1.2030202      22363.416      3355.0526      19008.363    
    266000   318.83028      534.99929      39473.71       1.2033158      22391.763      3458.4055      18933.357    
    268000   307.49206     -2436.1718      39802.59       1.193373       22330.817      3335.418       18995.399    
    270000   314.34411      680.56736      39338.041      1.2074658      22343.132      3409.7433      18933.389    
    272000   312.40688     -361.54666      39410.441      1.2052476      22400.464      3388.7299      19011.734    
    274000   311.0999       1213.8554      39480.697      1.2031028      22379.779      3374.5528      19005.226    
    276000   310.71027      409.5497       39488.136      1.2028762      22360.458      3370.3265      18990.131    
    278000   316.33807     -1587.198       39626.337      1.198681       22474.054      3431.3722      19042.682    
    280000   319.3374       1112.3676      39715.085      1.1960024      22472.34       3463.9064      19008.434    
    282000   312.15582      833.87158      39678.986      1.1970905      22367.851      3386.0066      18981.844    
    284000   321.79214      535.60321      39647.98       1.1980267      22509.346      3490.5333      19018.813    
    286000   305.24359     -678.56525      39793.141      1.1936564      22324.757      3311.0285      19013.728    
    288000   321.35746     -41.249096      39389.883      1.2058766      22529.928      3485.8183      19044.11     
    290000   309.38133      592.71578      39624.555      1.1987349      22340.819      3355.9112      18984.908    
    292000   313.3183       643.38391      39575.709      1.2002144      22428.358      3398.6162      19029.742    
    294000   319.50042     -1174.001       39621.212      1.1988361      22462.768      3465.6747      18997.093    
    296000   313.13862     -598.29719      39825.539      1.1926854      22383.38       3396.6671      18986.713    
    298000   307.5543       163.69037      39197.926      1.2117819      22244.948      3336.0931      18908.855    
    300000   319.2783       893.97813      39514.972      1.2020593      22480.832      3463.2653      19017.566    
    302000   311.39959     -8.1832305      39703.443      1.1963531      22395.802      3377.8036      19017.998    
    304000   317.10595     -3000.2707      39851.764      1.1919005      22518.749      3439.7014      19079.047    
    306000   315.16636      2014.6678      39745.708      1.1950809      22465.227      3418.6624      19046.565    
    308000   308.94344      21.850677      39529.451      1.201619       22288.678      3351.1613      18937.516    
    310000   312.06025     -445.1271       39274.856      1.2094083      22387.326      3384.9699      19002.356    
    312000   318.92108      1259.8574      39442.764      1.2042599      22511.482      3459.3904      19052.091    
    314000   312.22119      1389.5499      39468.983      1.2034599      22362.817      3386.7156      18976.102    
    316000   320.24806     -602.22998      39342.542      1.2073276      22427.25       3473.7845      18953.465    
    318000   312.18285     -907.12415      39533.661      1.201491       22448.297      3386.2997      19061.997    
    320000   311.33552      459.5532       39886.728      1.1908557      22352.638      3377.1086      18975.53     
    322000   318.16991     -2910.9234      39564.489      1.2005548      22485.345      3451.2424      19034.102    
    324000   317.8172      -2066.9473      39658.904      1.1976967      22371.419      3447.4165      18924.003    
    326000   312.68366      732.93979      39140.58       1.2135573      22404.425      3391.7321      19012.693    
    328000   311.26666     -907.12037      39540.123      1.2012947      22312.04       3376.3617      18935.678    
    330000   309.96988     -1184.6961      39325.112      1.2078627      22353.681      3362.2953      18991.386    
    332000   311.05498     -168.9585       39118.446      1.214244       22309.297      3374.0655      18935.232    
    334000   318.78288     -1317.8203      39431.431      1.204606       22478.006      3457.8913      19020.115    
    336000   313.40247      910.11838      39480.41       1.2031116      22413.758      3399.5292      19014.228    
    338000   317.40814     -1899.5185      39306.488      1.2084351      22473.384      3442.9793      19030.404    
    340000   313.74831     -1963.4565      39097.534      1.2148934      22320.396      3403.2805      18917.115    
    342000   310.72238     -1027.9856      39327.907      1.2077769      22485.177      3370.4577      19114.719    
    344000   307.41992      697.79891      39202          1.211656       22321.531      3334.6355      18986.895    
    346000   306.88516      2631.6726      39415.13       1.2051042      22290.905      3328.8348      18962.07     
    348000   318.26197     -635.23623      39718.276      1.1959063      22446.65       3452.241       18994.409    
    350000   310.93149      47.584206      39546.757      1.2010931      22333.97       3372.726       18961.244    
    352000   307.36652      188.52993      39217.173      1.2111872      22338.604      3334.0562      19004.548    
    354000   311.54107     -156.92228      39361.266      1.2067533      22477.022      3379.3382      19097.684    
    356000   314.05136     -2956.9546      39775.881      1.1941744      22459.518      3406.5678      19052.95     
    358000   313.15365     -1147.055       39244.978      1.2103291      22414.453      3396.8301      19017.623    
    360000   307.01224     -549.03086      39746.694      1.1950513      22424.822      3330.2133      19094.609    
    362000   304.6874      -1680.979       39554.491      1.2008583      22305.672      3304.9954      19000.677    
    364000   310.38256      1180.6949      39555.466      1.2008287      22500.841      3366.7717      19134.069    
    366000   309.58197      1915.134       39660.017      1.1976631      22396.633      3358.0876      19038.546    
    368000   312.69761      1757.2555      39383.523      1.2060713      22406.963      3391.8835      19015.08     
    370000   314.75601     -1053.9496      39259.517      1.2098809      22426.17       3414.2113      19011.959    
    372000   305.36912      85.452367      39445.022      1.2041909      22309.014      3312.3901      18996.624    
    374000   311.14359     -728.24653      39428.056      1.2047091      22402.948      3375.0268      19027.921    
    376000   317.42827      1352.0616      39374.189      1.2063572      22326.027      3443.1977      18882.83     
    378000   315.40087      953.59376      39299.118      1.2086617      22441.971      3421.2062      19020.765    
    380000   311.67808      2185.9286      39345.618      1.2072332      22368.519      3380.8245      18987.695    
    382000   314.20015      917.95914      39390.955      1.2058438      22433.348      3408.1818      19025.166    
    384000   312.03443     -2769.0446      39440.068      1.2043422      22342.406      3384.6898      18957.716    
    386000   316.26556      900.49934      39299.775      1.2086415      22436.809      3430.5856      19006.224    
    388000   307.51772      1314.477       39599.407      1.1994962      22279.662      3335.6963      18943.966    
    390000   314.83688     -742.65562      39636.006      1.1983886      22391.61       3415.0884      18976.521    
    392000   311.95798      1108.9424      39225.903      1.2109176      22327.758      3383.8605      18943.898    
    394000   312.81083     -418.01809      39401.692      1.2055152      22369.153      3393.1116      18976.041    
    396000   313.40063      157.23308      39422.796      1.2048698      22430.098      3399.5092      19030.589    
    398000   315.16539      638.13531      39550.721      1.2009727      22381.843      3418.6518      18963.191    
    400000   320.02303      1192.0352      39722.614      1.1957757      22517.913      3471.3435      19046.569    
    402000   313.20231     -2438.1886      39392.883      1.2057848      22357.267      3397.358       18959.909    
    404000   315.79377      690.99455      39451.223      1.2040017      22360.439      3425.468       18934.971    
    406000   322.46804      492.84804      39498.761      1.2025526      22460.393      3497.8649      18962.528    
    408000   318.15963      584.54863      39383.193      1.2060814      22342.647      3451.1309      18891.516    
    410000   313.36687     -458.1008       39604.099      1.1993541      22331.973      3399.1431      18932.83     
    412000   311.3539      -487.63015      39334.717      1.2075678      22360.35       3377.308       18983.042    
    414000   312.92027      2016.2569      39671.02       1.1973309      22412.862      3394.2986      19018.564    
    416000   317.07868     -68.728561      39607.812      1.1992417      22344.199      3439.4057      18904.794    
    418000   310.23398      1632.0491      39494.595      1.2026794      22470.174      3365.1601      19105.014    
    420000   313.45494     -870.85391      39439.588      1.2043568      22374.685      3400.0983      18974.587    
    422000   315.97354      2720.3074      38989.564      1.2182577      22394.582      3427.418       18967.164    
    424000   319.79457      1350.6159      39476.027      1.2032452      22449.754      3468.8654      18980.889    
    426000   311.80683      1014.8311      39636.438      1.1983755      22345.167      3382.221       18962.946    
    428000   311.89768      209.5922       39706.098      1.1962731      22353.207      3383.2065      18970        
    430000   315.87409      760.21317      39269.191      1.2095828      22392.589      3426.3392      18966.25     
    432000   311.95141      1238.4999      39340.439      1.2073922      22338.258      3383.7893      18954.469    
    434000   314.32941     -8.8039689      39191.391      1.211984       22449.466      3409.5838      19039.882    
    436000   317.13703      992.60803      39341.875      1.2073481      22318.618      3440.0386      18878.58     
    438000   313.2053      -879.86441      39093.631      1.2150147      22374.017      3397.3904      18976.626    
    440000   309.14378     -861.45409      39667.693      1.1974313      22380.797      3353.3344      19027.462    
    442000   311.96382     -116.64236      39751.451      1.1949083      22344.212      3383.9239      18960.288    
    444000   306.19466     -1597.7413      39843.557      1.192146       22438.271      3321.3449      19116.926    
    446000   309.86055      686.54577      39705.851      1.1962806      22400.224      3361.1094      19039.115    
    448000   314.68459     -1335.9093      39427.581      1.2047236      22421.992      3413.4366      19008.556    
    450000   319.83643      596.93645      39263.823      1.2097482      22393.944      3469.3194      18924.625    
    452000   313.47888      306.05501      39106.453      1.2146164      22379.766      3400.358       18979.408    
    454000   306.41354     -903.6457       39696.743      1.196555       22272.901      3323.7191      18949.182    
    456000   305.63525     -424.08917      39635.541      1.1984027      22345.869      3315.2768      19030.592    
    458000   305.90895      821.20933      39546.128      1.2011122      22250.422      3318.2457      18932.176    
    460000   312.4935      -258.76463      39152.235      1.2131961      22391.109      3389.6694      19001.439    
    462000   318.74425      262.47352      39316.456      1.2081287      22444.915      3457.4724      18987.443    
    464000   307.28907      1033.2963      39317.496      1.2080967      22339.785      3333.2161      19006.569    
    466000   310.79363      10.848963      39226.402      1.2109022      22329.67       3371.2306      18958.439    
    468000   313.61723     -1397.9948      39597.74       1.1995467      22422.995      3401.8587      19021.137    
    470000   317.75902     -2209.382       39604.94       1.1993286      22473.721      3446.7854      19026.936    
    472000   313.33999     -2441.2965      39477.377      1.203204       22359.832      3398.8514      18960.98     
    474000   312.86661     -893.06972      39396.109      1.205686       22421.549      3393.7166      19027.832    
    476000   314.53894      225.53906      39122.822      1.2141082      22431.011      3411.8566      19019.154    
    478000   306.31403     -972.75209      39475.413      1.2032639      22332.843      3322.6397      19010.204    
    480000   320.591       -402.89001      39354.013      1.2069757      22467.378      3477.5044      18989.874    
    482000   311.08356      612.93269      39623.877      1.1987554      22358.869      3374.3756      18984.493    
    484000   313.14755      1680.6013      39400.062      1.205565       22340.453      3396.764       18943.689    
    486000   314.98877      2763.6919      39330.248      1.207705       22363.652      3416.736       18946.916    
    488000   308.49537     -1954.3024      39690.175      1.196753       22474.457      3346.301       19128.156    
    490000   307.54255     -612.16988      39697.688      1.1965265      22378.901      3335.9656      19042.935    
    492000   316.25686     -583.45822      39441.392      1.2043018      22403.832      3430.4912      18973.341    
    494000   310.91313     -896.94277      39970.15       1.1883703      22354.973      3372.5269      18982.446    
    496000   304.76493     -433.8954       39359.924      1.2067945      22291.417      3305.8363      18985.581    
    498000   313.32698     -335.9909       39312.421      1.2082527      22342.252      3398.7103      18943.541    
    500000   317.7139       1074.8003      39270.954      1.2095285      22452.193      3446.296       19005.897    
    502000   316.23127      199.84713      39236.553      1.2105889      22354.512      3430.2136      18924.298    
    504000   310.00636     -540.31667      39262.661      1.209784       22301.874      3362.691       18939.183    
    506000   319.07297      2193.3748      39427.598      1.2047231      22532.911      3461.038       19071.873    
    508000   311.39554     -1260.199       39883.999      1.1909372      22416.892      3377.7597      19039.132    
    510000   316.73837     -401.86028      39323.971      1.2078978      22360.003      3435.7142      18924.289    
    512000   319.13935     -375.97951      39630.274      1.1985619      22478.264      3461.758       19016.506    
    514000   316.17156     -0.28568327     39651.219      1.1979288      22504.991      3429.5659      19075.425    
    516000   311.0993      -1071.4919      39575.38       1.2002244      22392.093      3374.5463      19017.547    
    518000   317.13416     -1217.8982      39895.858      1.1905832      22412.223      3440.0074      18972.216    
    520000   309.2974      -392.49943      39691.68       1.1967077      22397.35       3355.0008      19042.349    
    522000   308.95552     -364.02991      39551.187      1.2009586      22358.349      3351.2924      19007.057    
    524000   319.24136     -308.06274      39791.121      1.193717       22464.049      3462.8646      19001.184    
    526000   311.93997      254.52832      39613.183      1.1990791      22329.953      3383.6652      18946.288    
    528000   308.13193      1717.8908      39235.415      1.2106241      22240.959      3342.3587      18898.601    
    530000   324.02844     -391.46137      39642.908      1.19818        22459.927      3514.7908      18945.136    
    532000   310.74224      1874.3775      39342.29       1.2073354      22373.616      3370.6732      19002.943    
    534000   312.41779      1461.985       39789.933      1.1937526      22347.317      3388.8481      18958.468    
    536000   311.95867      68.377102      39593.001      1.1996903      22328.436      3383.868       18944.568    
    538000   311.49618     -1251.9014      39711.108      1.1961222      22391.88       3378.8514      19013.029    
    540000   310.43998      523.46837      39734.059      1.1954313      22377.775      3367.3946      19010.381    
    542000   315.58558      2330.0616      39869.306      1.1913761      22430.666      3423.2097      19007.456    
    544000   313.35192     -424.7847       39768.439      1.1943978      22424.129      3398.9808      19025.148    
    546000   311.97146     -608.1141       40089.37       1.1848362      22354.598      3384.0067      18970.591    
    548000   312.09048      75.833491      39546.692      1.2010951      22400.586      3385.2978      19015.288    
    550000   317.46406      467.00776      39715.432      1.195992       22434.81       3443.5859      18991.224    
    552000   318.44441      2494.0991      39763.736      1.1945391      22473.08       3454.22        19018.86     
    554000   303.4972       1155.4472      39644.852      1.1981212      22206.867      3292.0851      18914.782    
    556000   315.81512     -1044.6774      39909.328      1.1901814      22418.681      3425.6996      18992.981    
    558000   316.5754      -1239.8366      39895.722      1.1905872      22447.397      3433.9465      19013.45     
    560000   315.92182      235.77984      39616.799      1.1989696      22352.157      3426.857       18925.3      
    562000   319.01126     -3329.3176      39768.624      1.1943923      22472.982      3460.3687      19012.613    
    564000   311.69549     -1443.768       39789.703      1.1937596      22345.209      3381.0133      18964.195    
    566000   314.78066      1461.5519      39445.635      1.2041722      22402.579      3414.4786      18988.1      
    568000   310.28575      1827.1977      39219.366      1.2111195      22327.297      3365.7216      18961.575    
    570000   313.50848     -847.53234      39249.468      1.2101906      22413.511      3400.6791      19012.832    
    572000   318.48852      441.02246      39342.326      1.2073342      22475.879      3454.6984      19021.181    
    574000   312.19356      692.51074      39505.924      1.2023346      22348.362      3386.4159      18961.946    
    576000   316.05806     -744.77065      39915.153      1.1900077      22487.243      3428.3348      19058.908    
    578000   310.01818     -401.22207      39772.132      1.1942869      22436.056      3362.8193      19073.237    
    580000   306.35524     -648.41369      39453.237      1.2039402      22333.026      3323.0867      19009.94     
    582000   318.30424     -1751.351       39524.515      1.201769       22447.235      3452.6995      18994.536    
    584000   315.65749     -2229.4774      39391.71       1.2058207      22459.395      3423.9897      19035.405    
    586000   312.98702     -386.80657      39252.693      1.2100912      22382.346      3395.0227      18987.323    
    588000   305.40134     -2.7550998      39275.401      1.2093915      22249.601      3312.7396      18936.861    
    590000   316.79717     -1191.4775      39428.207      1.2047045      22394.385      3436.3521      18958.033    
    592000   312.11466     -277.44902      39220.496      1.2110846      22361.668      3385.5601      18976.108    
    594000   324.91147      676.80057      39663.292      1.1975642      22531.277      3524.3693      19006.908    
    596000   314.40237      102.02041      39650.899      1.1979385      22434.556      3410.3753      19024.181    
    598000   309.72215      2051.5026      39520.753      1.2018834      22334.398      3359.6081      18974.79     
    600000   315.88623      125.15133      39295.13       1.2087843      22416.081      3426.4709      18989.61     
    602000   310.34736     -134.20344      39481.115      1.2030901      22396.342      3366.3899      19029.952    
    604000   315.6924       2226.1381      39646.23       1.1980796      22512.915      3424.3684      19088.546    
    606000   317.93161     -179.39993      39719.67       1.1958643      22391.006      3448.6575      18942.348    
    608000   314.88574      954.33309      39984.529      1.1879429      22408.15       3415.6185      18992.532    
    610000   320.53567      1814.9526      39429.011      1.2046799      22518.679      3476.9042      19041.775    
    612000   304.82056      2566.329       39718.07       1.1959125      22439.234      3306.4398      19132.795    
    614000   312.96311     -15.261499      39619.638      1.1988837      22331.557      3394.7634      18936.793    
    616000   308.10025     -203.26803      39501.908      1.2024568      22306.353      3342.0151      18964.338    
    618000   313.66485     -258.77316      39617.052      1.1989619      22335.608      3402.3752      18933.233    
    620000   327.41054     -1661.5564      39567.539      1.2004623      22579.675      3551.477       19028.198    
    622000   312.12569      949.57407      39245.35       1.2103176      22338.73       3385.6797      18953.05     
    624000   309.80202      839.24021      39373.565      1.2063764      22379.43       3360.4745      19018.955    
    626000   316.56055      469.91053      39256.636      1.2099696      22391.453      3433.7854      18957.668    
    628000   315.02186      229.41154      39542.097      1.2012347      22450.11       3417.095       19033.015    
    630000   315.2206      -1427.5072      39795.256      1.193593       22413.334      3419.2508      18994.083    
    632000   313.45354      745.03773      39466.042      1.2035496      22386.487      3400.0831      18986.403    
    634000   312.55439     -257.74702      39629.934      1.1985722      22331.737      3390.3299      18941.407    
    636000   305.68312      691.89509      39733.165      1.1954582      22390.06       3315.7961      19074.264    
    638000   319.69885      1258.1617      39556.674      1.200792       22556.213      3467.827       19088.386    
    640000   311.18731      1101.1606      39529.488      1.2016178      22303.952      3375.501       18928.452    
    642000   311.57105      1525.6019      39306.719      1.208428       22377.029      3379.6635      18997.366    
    644000   315.09639      176.55852      39703.996      1.1963365      22468.041      3417.9034      19050.138    
    646000   314.95068      335.88688      39681.294      1.1970209      22355.274      3416.3229      18938.951    
    648000   319.52407      558.8621       39365.574      1.2066212      22516.852      3465.9312      19050.921    
    650000   312.0016       432.14726      39565.791      1.2005153      22438.25       3384.3337      19053.916    
    652000   316.42468     -227.40107      39433          1.2045581      22389.351      3432.3115      18957.039    
    654000   314.35798     -1594.353       39333.154      1.2076158      22414.525      3409.8937      19004.632    
    656000   307.3767       2271.5635      39632.238      1.1985025      22284.779      3334.1666      18950.613    
    658000   312.1257       1110.4194      39193.243      1.2119267      22378.43       3385.6798      18992.75     
    660000   311.97412     -397.10697      39445.988      1.2041615      22380.139      3384.0356      18996.104    
    662000   317.37373      54.973284      39701.471      1.1964126      22412.332      3442.6061      18969.726    
    664000   314.86941      982.37213      39865.627      1.191486       22440.801      3415.4413      19025.36     
    666000   307.55363      337.94089      39483.704      1.2030112      22309.881      3336.0858      18973.795    
    668000   309.3199      -164.85354      39626.188      1.1986855      22265.809      3355.2449      18910.564    
    670000   310.20468     -941.40547      40009.267      1.1872084      22444.823      3364.8423      19079.98     
    672000   315.21479      661.37428      40062.002      1.1856456      22344.186      3419.1877      18924.999    
    674000   311.8473      -638.98279      39758.491      1.1946967      22396.295      3382.6599      19013.635    
    676000   315.48892     -1238.2552      39851.388      1.1919117      22399.766      3422.1613      18977.605    
    678000   307.8247      -1096.1199      39524.711      1.2017631      22290.598      3339.0261      18951.572    
    680000   312.07604     -246.96554      39288.863      1.2089771      22411.513      3385.1411      19026.372    
    682000   311.17505      54.357479      39765.922      1.1944734      22283.976      3375.368       18908.608    
    684000   315.94999      761.35551      39364.112      1.206666       22384.32       3427.1626      18957.158    
    686000   313.00839      335.43877      39318.92       1.208053       22389.011      3395.2546      18993.757    
    688000   306.9635      -1578.5307      39784.095      1.1939278      22357.685      3329.6845      19028.001    
    690000   310.1751      -1220.0661      39719.19       1.1958788      22280.758      3364.5213      18916.237    
    692000   311.8414      -158.49302      39687.63       1.1968298      22421.409      3382.596       19038.813    
    694000   302.9291      -1381.5266      39709.247      1.1961782      22266.302      3285.9228      18980.379    
    696000   314.04534      986.8417       39607.161      1.1992614      22340.212      3406.5024      18933.709    
    698000   319.68976     -488.54446      39700.041      1.1964556      22494.755      3467.7285      19027.026    
    700000   314.83692      346.10861      39744.736      1.1951101      22402.244      3415.0889      18987.155    
    702000   310.88778      933.11726      39599.236      1.1995014      22315.618      3372.2519      18943.366    
    704000   319.42101     -1688.6067      39521.66       1.2018558      22472.437      3464.8133      19007.624    
    706000   316.64765     -1389.049       39773.676      1.1942406      22393.231      3434.7301      18958.5      
    708000   304.15591     -620.57141      39675.328      1.1972009      22302.119      3299.2302      19002.888    
    710000   313.44039     -428.07106      39660.586      1.1976459      22432.082      3399.9405      19032.142    
    712000   304.85091     -689.2492       39839.234      1.1922754      22328.862      3306.769       19022.093    
    714000   318.69624     -492.13019      39606.327      1.1992866      22360.997      3456.9516      18904.046    
    716000   311.39389      1164.5973      39743.509      1.195147       22347.854      3377.7418      18970.112    
    718000   312.32397      386.5191       39273.812      1.2094405      22359.489      3387.8305      18971.658    
    720000   318.84628      62.218701      39646.689      1.1980657      22445.68       3458.5791      18987.101    
    722000   306.74242      1853.1699      39674.684      1.1972203      22300.444      3327.2865      18973.158    
    724000   311.75985      474.03398      39400.792      1.2055427      22356.572      3381.7114      18974.861    
    726000   313.34132     -3352.2964      39519.057      1.201935       22388.634      3398.8658      18989.768    
    728000   316.77369     -968.7658       39638.967      1.1982991      22479.818      3436.0973      19043.721    
    730000   305.22928     -442.8899       39573.427      1.2002837      22232.155      3310.8732      18921.282    
    732000   314.89848      452.08874      39866.749      1.1914525      22483.116      3415.7566      19067.36     
    734000   313.37628      640.04018      39258.812      1.2099026      22409.994      3399.2451      19010.749    
    736000   311.5287      -545.47516      39612.571      1.1990976      22330.732      3379.2041      18951.528    
    738000   317.03772     -1101.4829      39884.169      1.1909321      22349.304      3438.9613      18910.343    
    740000   318.82773     -245.88471      39659.052      1.1976922      22485.352      3458.3779      19026.974    
    742000   314.31707      3142.4042      39875.105      1.1912028      22397.48       3409.4499      18988.03     
    744000   310.19135      473.23912      39709.529      1.1961697      22358.241      3364.6976      18993.543    
    746000   317.21307      1129.8081      39189.498      1.2120425      22487.851      3440.8634      19046.987    
    748000   313.25062     -1199.5131      39674.983      1.1972113      22347.749      3397.882       18949.867    
    750000   313.28688     -43.200323      39487.123      1.202907       22439.027      3398.2753      19040.751    
    752000   320.85042     -1519.902       39981.4        1.1880359      22457.072      3480.3183      18976.754    
    754000   312.55283      612.98544      39767.316      1.1944316      22409.938      3390.313       19019.625    
    756000   311.27865     -729.80736      39471.846      1.2033726      22316.623      3376.4918      18940.131    
    758000   306.92163      877.068        39533.982      1.2014812      22319.999      3329.2305      18990.769    
    760000   313.12544     -611.44365      39748.703      1.1949909      22376.088      3396.5242      18979.564    
    762000   321.25727     -1316.3781      39788.941      1.1937824      22467.51       3484.7315      18982.779    
    764000   317.4864       1897.8226      39744.848      1.1951068      22407.262      3443.8282      18963.433    
    766000   309.92861     -416.21795      39796.601      1.1935526      22336.94       3361.8476      18975.092    
    768000   312.3954       736.3395       39852.554      1.1918769      22402.167      3388.6054      19013.561    
    770000   315.15561     -160.86928      39813.008      1.1930608      22428.364      3418.5458      19009.818    
    772000   319.5906      -1113.8426      39695.715      1.196586       22518.357      3466.6529      19051.704    
    774000   312.28042     -963.99551      39513.562      1.2021022      22323.635      3387.3581      18936.277    
    776000   314.08984     -220.01235      39579.923      1.2000867      22465.484      3406.9852      19058.499    
    778000   311.97827      18.302194      39355.071      1.2069433      22321.968      3384.0806      18937.887    
    780000   313.58827     -423.47014      39865.561      1.191488       22421.039      3401.5445      19019.494    
    782000   317.62511     -2236.5025      39783.198      1.1939547      22494.108      3445.3329      19048.775    
    784000   309.99103      154.28464      39548.462      1.2010413      22357.252      3362.5247      18994.727    
    786000   315.28457     -168.37021      39489.43       1.2028367      22397.865      3419.9447      18977.921    
    788000   307.24484      903.79512      39384.644      1.206037       22224.308      3332.7363      18891.571    
    790000   316.33611     -1049.1582      39664.844      1.1975173      22405.737      3431.3509      18974.387    
    792000   307.63574     -1039.1289      39670.726      1.1973398      22329.57       3336.9764      18992.593    
    794000   312.36192     -84.991212      39242.327      1.2104108      22355.117      3388.2422      18966.875    
    796000   313.14849      652.40549      39310.848      1.208301       22386.544      3396.7742      18989.77     
    798000   310.10174     -1809.7242      39521.219      1.2018693      22313.595      3363.7257      18949.869    
    800000   313.78388     -998.17127      39807.844      1.1932155      22478.02       3403.6664      19074.354    
    802000   315.99342      2215.2413      39541.571      1.2012506      22424.06       3427.6337      18996.427    
    804000   311.8259       83.899349      39651.556      1.1979186      22379.071      3382.4279      18996.644    
    806000   319.32452      1212.3159      39455.679      1.2038657      22436.472      3463.7667      18972.705    
    808000   316.21767      646.54943      39637.659      1.1983386      22399.912      3430.0662      18969.846    
    810000   302.76625     -988.32012      39739.625      1.1952639      22249.38       3284.1563      18965.224    
    812000   313.48531     -824.93784      39800.499      1.1934357      22388.61       3400.4277      18988.182    
    814000   315.4923       1240.8755      39242.781      1.2103968      22352.002      3422.1979      18929.804    
    816000   317.96802      667.74957      39744.085      1.1951297      22384.341      3449.0525      18935.289    
    818000   309.47259     -112.28703      39587.593      1.1998542      22256.756      3356.9011      18899.855    
    820000   314.32655      1910.0597      39520.221      1.2018996      22378.939      3409.5529      18969.387    
    822000   320.39832     -134.8154       39656.306      1.1977752      22379.572      3475.4143      18904.157    
    824000   317.03072      140.72949      39595.889      1.1996028      22363.844      3438.8854      18924.958    
    826000   309.52318      625.46572      39646.825      1.1980616      22303.718      3357.4499      18946.268    
    828000   311.13041      709.86126      39574.869      1.2002399      22371.319      3374.8838      18996.436    
    830000   307.07476     -1268.2417      39584.978      1.1999334      22344.062      3330.8914      19013.171    
    832000   317.63563      1015.6946      39637.059      1.1983568      22431.359      3445.4469      18985.912    
    834000   310.47111     -1959.5638      39708.286      1.1962072      22306.546      3367.7323      18938.814    
    836000   313.03879      805.72638      39711.124      1.1961217      22426.636      3395.5843      19031.052    
    838000   312.62084      157.99492      39603.551      1.1993707      22320.133      3391.0507      18929.082    
    840000   312.97478      183.97662      39520.014      1.2019059      22418.816      3394.89        19023.926    
    842000   306.84628      864.82827      39664.436      1.1975296      22391.71       3328.4131      19063.297    
    844000   313.77715      2091.3085      39674.852      1.1972153      22326.622      3403.5934      18923.029    
    846000   323.52645     -1407.0441      39604.274      1.1993488      22470.385      3509.3457      18961.039    
    848000   313.885       -1931.9552      39797.525      1.1935249      22396          3404.7633      18991.237    
    850000   311.71808      1143.6405      39284.709      1.209105       22332.187      3381.2583      18950.929    
    852000   311.87388     -263.55529      39711.215      1.196119       22435.907      3382.9483      19052.958    
    854000   313.38824     -1703.4805      39746.489      1.1950575      22426.984      3399.3748      19027.609    
    856000   308.93058     -1508.7556      39419.037      1.2049847      22284.012      3351.0218      18932.99     
    858000   309.16074     -707.68273      39865.883      1.1914784      22398.266      3353.5184      19044.748    
    860000   314.423       -1166.0017      39730.858      1.1955276      22448.823      3410.599       19038.224    
    862000   309.00698      2354.1189      39613.71       1.1990631      22390.406      3351.8505      19038.556    
    864000   316.66272     -762.21115      39424.968      1.2048035      22525.358      3434.8937      19090.464    
    866000   310.97119      918.52715      39313.93       1.2082063      22423.061      3373.1566      19049.904    
    868000   310.89091      713.05015      39857.278      1.1917356      22351.642      3372.2859      18979.356    
    870000   317.38825      1210.9977      39298.58       1.2086782      22415.771      3442.7636      18973.007    
    872000   312.42329      562.75999      39518.019      1.2019666      22444.847      3388.9079      19055.939    
    874000   308.04861      230.71128      39626.166      1.1986862      22382.043      3341.4549      19040.588    
    876000   309.20886      3014.0808      39326.57       1.207818       22309.278      3354.0404      18955.238    
    878000   315.52134     -1784.3583      39759.499      1.1946664      22456.755      3422.5129      19034.242    
    880000   311.06961      209.84422      39310.16       1.2083222      22367.062      3374.2243      18992.838    
    882000   314.50094      755.41471      39732.143      1.195489       22391.423      3411.4444      18979.978    
    884000   317.00564     -194.47364      39787.031      1.1938397      22484.9        3438.6134      19046.287    
    886000   309.63358      1020.1876      39704.62       1.1963177      22321.206      3358.6474      18962.558    
    888000   307.03003      914.39321      39686.28       1.1968705      22340.265      3330.4062      19009.859    
    890000   310.26023     -482.39465      39710.308      1.1961463      22334.952      3365.4448      18969.507    
    892000   306.996       -1166.7513      39838.629      1.1922935      22296.316      3330.0372      18966.278    
    894000   313.58596      240.05783      39469.22       1.2034527      22334.857      3401.5195      18933.337    
    896000   322.77013      16.483555      39501.476      1.20247        22566.506      3501.1417      19065.365    
    898000   313.65912     -102.11365      39800.277      1.1934424      22389.101      3402.3131      18986.788    
    900000   311.79757      768.767        39669.489      1.1973771      22380.332      3382.1205      18998.212    
    902000   319.70407     -799.47694      39937.291      1.189348       22503.371      3467.8837      19035.487    
    904000   307.67013     -2048.5771      39660.138      1.1976594      22387.678      3337.3495      19050.328    
    906000   315.66204     -1519.6707      39899.283      1.190481       22464.709      3424.0391      19040.67     
    908000   319.54087      1555.718       39538.864      1.2013329      22432.951      3466.1134      18966.837    
    910000   310.33782     -70.374208      39538.873      1.2013326      22434.961      3366.2864      19068.675    
    912000   312.76014     -825.13362      39629.65       1.1985808      22345.817      3392.5617      18953.256    
    914000   306.88007     -1344.3998      39556.641      1.200793       22290.655      3328.7796      18961.875    
    916000   312.23374      565.68639      39806.617      1.1932523      22367.399      3386.8518      18980.547    
    918000   318.96226     -490.04189      39934.086      1.1894435      22485.816      3459.8371      19025.979    
    920000   315.07045     -1022.5333      39689.286      1.1967798      22359.657      3417.622       18942.035    
    922000   312.49301      39.33725       39551.645      1.2009447      22385.859      3389.6641      18996.195    
    924000   317.30004      1081.5817      40130.158      1.183632       22453.035      3441.8067      19011.228    
    926000   308.52401     -1266.9645      39604.14       1.1993529      22292.895      3346.6117      18946.283    
    928000   312.82852      657.69623      39560.246      1.2006836      22386.296      3393.3034      18992.992    
    930000   312.45368      513.96251      39432.823      1.2045635      22341.226      3389.2375      18951.988    
    932000   309.44171      239.26583      39883.54       1.1909509      22287.237      3356.5662      18930.67     
    934000   308.34389     -264.27333      39483.196      1.2030267      22404.049      3344.658       19059.392    
    936000   311.2236      -960.16512      39611.619      1.1991264      22331.739      3375.8946      18955.844    
    938000   313.8023       693.73574      39494.63       1.2026784      22395.901      3403.8662      18992.035    
    940000   308.88772      886.49945      39329.646      1.2077235      22263.015      3350.5569      18912.458    
    942000   317.95291      1517.7443      39731.516      1.1955078      22450.897      3448.8886      19002.008    
    944000   314.52365     -970.97223      39547.432      1.2010726      22386.553      3411.6907      18974.863    
    946000   312.06246      2092.1685      39658.392      1.1977122      22379.119      3384.9939      18994.125    
    948000   308.30641      61.595018      39822.176      1.1927861      22329.984      3344.2514      18985.732    
    950000   311.04861      1176.7977      39551.287      1.2009555      22395.547      3373.9965      19021.551    
    952000   310.28213     -1834.7502      39847.349      1.1920326      22342.132      3365.6823      18976.45     
    954000   315.00276      1402.6931      39772.386      1.1942793      22424.659      3416.8877      19007.772    
    956000   315.43164      224.98037      39592.515      1.199705       22405.816      3421.54        18984.276    
    958000   305.99574     -611.99475      39911.972      1.1901025      22385.897      3319.1872      19066.709    
    960000   301.95868     -1225.8718      39892.155      1.1906937      22305.512      3275.3965      19030.115    
    962000   313.76196     -1008.7013      39776.89       1.1941441      22447.366      3403.4287      19043.937    
    964000   312.11842      1675.5903      39979.759      1.1880847      22380.125      3385.6008      18994.524    
    966000   314.52152     -693.59301      39562.341      1.20062        22401.619      3411.6677      18989.951    
    968000   317.54376      1138.6174      40095.948      1.1846418      22438.361      3444.4505      18993.911    
    970000   319.3795       972.89118      39330.064      1.2077107      22372.787      3464.363       18908.424    
    972000   307.67559     -1786.6129      40038.415      1.1863441      22396.711      3337.4087      19059.302    
    974000   315.64277      1909.1347      39663.097      1.1975701      22474.336      3423.8301      19050.506    
    976000   314.12187      2087.5576      39212.22       1.2113402      22419.786      3407.3327      19012.453    
    978000   307.78533      402.58627      39467.244      1.2035129      22362.213      3338.5992      19023.614    
    980000   322.74363      1648.7767      39805.643      1.1932815      22502.754      3500.8543      19001.899    
    982000   310.80178     -2033.2106      39710.853      1.1961299      22303.967      3371.3191      18932.648    
    984000   314.97771     -1209.9554      39422.816      1.2048692      22388.341      3416.6161      18971.725    
    986000   310.35799      234.40219      39598.221      1.1995321      22438.205      3366.5051      19071.7      
    988000   313.91326     -1132.0314      39340.445      1.207392       22379.438      3405.0698      18974.368    
    990000   307.28434      1991.6561      39340.98       1.2073756      22325.525      3333.1648      18992.36     
    992000   309.47962      1799.2955      39418.066      1.2050144      22315.652      3356.9773      18958.675    
    994000   308.68215      559.96658      39545.291      1.2011376      22356.706      3348.327       19008.379    
    996000   318.68581     -717.4205       40004.15       1.1873603      22524.654      3456.8385      19067.816    
    998000   313.06113      383.60225      39530.371      1.201591       22353.575      3395.8266      18957.749    
   1000000   309.87918     -1490.9756      39545.336      1.2011363      22388.271      3361.3115      19026.96     
Loop time of 2500.51 on 25 procs for 1000000 steps with 3640 atoms

Performance: 17.276 ns/day, 1.389 hours/ns, 399.919 timesteps/s, 1.456 Matom-step/s
98.3% CPU use with 25 MPI tasks x no OpenMP threads

MPI task timing breakdown:
Section |  min time  |  avg time  |  max time  |%varavg| %total
---------------------------------------------------------------
Pair    | 1296.9     | 1460.3     | 1592.1     | 202.9 | 58.40
Bond    | 334.4      | 382.13     | 438.41     | 154.4 | 15.28
Kspace  | 203.97     | 406.5      | 622.56     | 515.6 | 16.26
Neigh   | 62.129     | 62.921     | 63.215     |   4.6 |  2.52
Comm    | 118.64     | 125.41     | 141.86     |  65.6 |  5.02
Output  | 0.0965     | 0.10803    | 0.11967    |   2.1 |  0.00
Modify  | 38.688     | 43.692     | 51.64      |  54.0 |  1.75
Other   |            | 19.41      |            |       |  0.78

Nlocal:          145.6 ave         158 max         121 min
Histogram: 1 0 2 0 2 2 4 6 6 2
Nghost:        6462.76 ave        6504 max        6436 min
Histogram: 2 4 4 5 2 2 4 0 1 1
Neighs:        76962.3 ave       85307 max       63964 min
Histogram: 1 1 1 2 2 1 7 6 1 3

Total # of neighbors = 1924057
Ave neighs/atom = 528.58709
Ave special neighs/atom = 11.554945
Neighbor list builds = 21206
Dangerous builds = 0

unfix npt9
unfix data_output
undump traj

write_data step09_final.data
System init for write_data ...
PPPM initialization ...
  using 12-bit tables for long-range coulomb
  G vector (1/distance) = 0.16996285
  grid = 8 8 8
  stencil order = 5
  estimated absolute RMS force accuracy = 0.014177714
  estimated relative force accuracy = 4.2695765e-05
  using double precision KISS FFT
  3d grid and FFT values/proc = 637 32
Generated 190 of 190 mixed pair_coeff terms from sixthpower/sixthpower mixing rule
Total wall time: 0:41:40
