LAMMPS (22 Jul 2025 - Update 1)
# Step 2: NPT equilibration at 1000 K, 100 bar for 1 ns

units real
atom_style full
boundary p p p

# PCFF Force Field Settings
pair_style lj/class2/coul/long 12.0
bond_style class2
angle_style class2
dihedral_style class2
improper_style class2
kspace_style pppm 1e-4

pair_modify mix sixthpower

# Read from previous step
read_data step01_final.data
Reading data file ...
  orthogonal box = (-30.93451 -43.111204 -29.964171) to (29.11549 32.883796 41.336829)
  2 by 5 by 4 MPI processor grid
  reading atoms ...
  3640 atoms
  reading velocities ...
  3640 velocities
  scanning bonds ...
  4 = max bonds/atom
  scanning angles ...
  6 = max angles/atom
  scanning dihedrals ...
  21 = max dihedrals/atom
  scanning impropers ...
  4 = max impropers/atom
  orthogonal box = (-30.93451 -43.111204 -29.964171) to (29.11549 32.883796 41.336829)
  2 by 5 by 4 MPI processor grid
  reading bonds ...
  4020 bonds
  reading angles ...
  7100 angles
  reading dihedrals ...
  11170 dihedrals
  reading impropers ...
  3110 impropers
Finding 1-2 1-3 1-4 neighbors ...
  special bond factors lj:    0        0        0       
  special bond factors coul:  0        0        0       
     4 = max # of 1-2 neighbors
     9 = max # of 1-3 neighbors
    24 = max # of 1-4 neighbors
    27 = max # of special neighbors
  special bonds CPU = 0.003 seconds
  read_data CPU = 0.311 seconds

neighbor 2.0 bin
neigh_modify delay 0 every 1 check yes


timestep 0.5

# Thermodynamic output
thermo_style custom step time temp press vol density pxx pyy pzz
thermo 2000
thermo_modify flush yes

# ---------- Trajectory output ----------
dump traj all atom 10000 step01_trajectory.dump
dump_modify traj sort id

# Write restart files every 200,000 steps (~100 ps)
restart 50000 step01_restart_*.bin

# NPT fix (100 bar = 986.923 atm in LAMMPS real units)
# Damping: temperature 100 fs, pressure 1000 fs (as per paper)
fix npt_fix all npt temp 1000.0 1000.0 100.0 aniso 98.6923 98.6923 1000.0


# Run for 1 nsc
run 200000
PPPM initialization ...
  using 12-bit tables for long-range coulomb
  G vector (1/distance) = 0.12323105
  grid = 8 9 9
  stencil order = 5
  estimated absolute RMS force accuracy = 0.035548844
  estimated relative force accuracy = 0.00010705429
  using double precision KISS FFT
  3d grid and FFT values/proc = 576 32
Generated 190 of 190 mixed pair_coeff terms from sixthpower/sixthpower mixing rule
Neighbor list info ...
  update: every = 1 steps, delay = 0 steps, check = yes
  max neighbors/atom: 2000, page size: 100000
  master list distance cutoff = 14
  ghost atom cutoff = 14
  binsize = 7, bins = 9 11 11
  1 neighbor lists, perpetual/occasional/extra = 1 0 0
  (1) pair lj/class2/coul/long, perpetual
      attributes: half, newton on
      pair build: half/bin/newton
      stencil: half/bin/3d
      bin: standard
Per MPI rank memory allocation (min/avg/max) = 17.78 | 18.13 | 19.08 Mbytes
   Step          Time           Temp          Press          Volume        Density          Pxx            Pyy            Pzz      
         0   0              982.08855     -251.34823      325382.1       0.14598018    -501.8211      -170.75254     -81.471054    
      2000   1000           1008.7241     -468.90152      306049.8       0.15520134    -208.13329     -619.06237     -579.50888    
      4000   2000           994.23351      252.47519      284489.33      0.16696351     316.29982      292.25765      148.8681     
      6000   3000           988.30621      143.56103      263738.86      0.18009988    -139.57504      293.96785      276.29027    
      8000   4000           1009.3127     -729.91299      247318.32      0.1920575     -368.6306      -1113.0408     -708.06761    
     10000   5000           982.82821      22.38861       234934.4       0.20218128    -159.66594      649.81975     -422.98797    
     12000   6000           1021.5564      450.67393      219937.49      0.21596745    -58.700012      403.55042      1007.1714    
     14000   7000           997.26647      417.4431       207624.32      0.2287754      919.09183      516.97752     -183.74006    
     16000   8000           979.19957      321.65086      195147.86      0.24340178     1056.5805     -612.21719      520.58924    
     18000   9000           1013.8684      218.90949      183168.29      0.25932075    -593.18315      1524.7981     -274.88643    
     20000   10000          966.3915      -553.45694      174298.9       0.27251657    -300.91756     -779.08467     -580.36858    
     22000   11000          1004.1337     -494.92551      164503.62      0.28874342    -321.47489     -369.85646     -793.44518    
     24000   12000          984.43223     -292.38691      154636.45      0.3071678     -814.83883     -1016.6096      954.28773    
     26000   13000          965.3735      -699.34676      146577.99      0.32405505    -1101.6884      87.530675     -1083.8826    
     28000   14000          988.10027     -627.04831      138029.23      0.34412522    -183.71566     -929.53246     -767.89682    
     30000   15000          1002.9393     -853.30105      131589.43      0.36096621    -1234.9269     -1971.8824      646.90611    
     32000   16000          1007.5711      77.805705      125999.24      0.37698115    -80.064457      672.54501     -359.06344    
     34000   17000          1023.5006      71.80946       118122.06      0.40212081     732.66165     -708.04944      190.81617    
     36000   18000          990.8504       813.64281      111252.06      0.42695243     1543.1595      578.91546      318.85343    
     38000   19000          986.65674     -449.62228      107052.91      0.44369964    -1744.3102      819.28196     -423.83865    
     40000   20000          997.51386     -536.91885      101562.09      0.46768767     248.29917     -1077.5931     -781.4626     
     42000   21000          985.14637      711.06975      96302.539      0.49323038    -193.40175      1966.2461      360.36492    
     44000   22000          995.81409      323.14203      91027.887      0.52181084    -44.194504     -561.53745      1575.1581    
     46000   23000          1004.4799     -22.75148       86810.743      0.54715967     116.39832     -870.81151      686.15876    
     48000   24000          1002.9759     -12.645962      82528.845      0.57554831     1538.0145     -1780.8878      204.93538    
     50000   25000          1004.6343     -625.00745      79147.203      0.60013918    -106.74124     -1256.9414     -511.33969    
     52000   26000          990.94022      129.86035      75840.639      0.62630456     1180.2524      174.88842     -965.55974    
     54000   27000          1000.8123      1565.3574      73355.856      0.64751937     1831.5237      1934.34        930.20846    
     56000   28000          1011.11       -171.00094      71617.205      0.6632392      1176.0853     -1596.8094     -92.278774    
     58000   29000          1017.6608      740.84708      68118.676      0.69730271     1213.0959      1239.0683     -229.62292    
     60000   30000          1016.9421      823.56206      65536.935      0.72477203     227.60045      1438.5386      804.54714    
     62000   31000          986.40699      660.01252      64155.151      0.7403823      375.0091       1673.4541     -68.425618    
     64000   32000          986.2071      -187.89407      61713.061      0.76968047    -2252.4063      831.60567      857.11848    
     66000   33000          1008.5456     -788.74422      62366.09       0.76162122    -860.45863      235.40249     -1741.1765    
     68000   34000          988.50898      626.19641      63943.267      0.74283564    -223.0092       1146.9868      954.61165    
     70000   35000          966.2082      -1327.0432      61671.755      0.77019598    -1280.7342     -550.85408     -2149.5414    
     72000   36000          1024.7621      569.97565      59481.82       0.7985522     -292.41893     -1764.9164      3767.2623    
     74000   37000          986.42462     -600.09553      57348.334      0.82826011     632.51239     -1625.0207     -807.77826    
     76000   38000          1014.7005      1302.8964      58684.741      0.80939843     445.07825     -195.03654      3658.6475    
     78000   39000          999.71423      1951.7849      59863.878      0.79345575     2386.6274      2119.599       1349.1282    
     80000   40000          998.00085     -68.992751      58516.287      0.8117285     -2009.8172      1795.1351      7.7038177    
     82000   41000          1017.6561      1045.0146      58124.492      0.81720005    -311.78458      28.208495      3418.6198    
     84000   42000          1013.892       1234.726       58142.792      0.81694285    -1140.3494      572.83201      4271.6955    
     86000   43000          984.78331      101.97489      59321.153      0.80071501    -411.59231      1899.0926     -1181.5757    
     88000   44000          1004.0474      151.84519      59005.931      0.80499259    -2289.3839      1013.9658      1730.9536    
     90000   45000          987.13853     -865.73673      60487.689      0.78527281     1671.427      -1778.1641     -2490.4731    
     92000   46000          992.46629     -1101.6163      59424.311      0.79932501    -1461.2056     -299.71632     -1543.9271    
     94000   47000          1018.2903     -499.57704      59614.173      0.79677928    -1392.351      -855.46051      749.08045    
     96000   48000          1001.0368     -3206.3294      59475.987      0.79863051    -5629.038      -1654.3689     -2335.5814    
     98000   49000          1003.5038     -916.96702      58133.883      0.81706804    -3388.8711      98.434834      539.53523    
    100000   50000          1030.1973      2913.281       56072.742      0.84710211     1518.6459      5321.9777      1899.2196    
    102000   51000          996.40824     -172.05838      54670.775      0.86882503     1627.6131      897.87418     -3041.6625    
    104000   52000          1002.475       3177.0934      52502.104      0.90471303     2937.2835      4853.3043      1740.6923    
    106000   53000          983.2887      -397.74565      51165.456      0.92834778     429.98541     -1381.2121     -242.01024    
    108000   54000          1024.7138     -93.502155      52898.056      0.89794109    -1076.0475      1850.7771     -1055.236     
    110000   55000          1013.433      -276.14136      52542.606      0.90401564     1974.1868     -3320.8424      518.23151    
    112000   56000          1022.5227      1987.7299      52393.068      0.90659584    -0.91214075     4117.1016      1847.0002    
    114000   57000          1000.2694      815.25293      52246.37       0.9091414     -1162.8681      1195.6485      2412.9784    
    116000   58000          1019.6384     -1700.9749      52683.444      0.90159895     1194.7883     -2056.3948     -4241.3182    
    118000   59000          988.52738     -3036.7035      53112.171      0.89432115    -2445.3326     -4275.5218     -2389.256     
    120000   60000          980.64461     -3485.4063      52305.92       0.90810635     693.3766      -7468.6008     -3680.9946    
    122000   61000          1023.2143     -357.39519      50391.761      0.94260127    -4089.478       3609.0591     -591.76673    
    124000   62000          988.28211      786.67223      51056.449      0.93032984     2101.8811      83.36206       174.7735     
    126000   63000          1014.1816     -1264.6399      52622.027      0.90265124    -2165.2975     -863.79693     -764.82538    
    128000   64000          1000.6225      71.42307       53519.25       0.88751875    -883.60503      2787.5639     -1689.6897    
    130000   65000          988.51071     -1809.6639      53396.327      0.8895619      283.78463     -4615.2522     -1097.524     
    132000   66000          1022.1693      3939.464       52690.704      0.90147471     3170.8115      1330.6565      7316.924     
    134000   67000          996.64138      2765.2626      53132.46       0.89397964     3859.2915      1545.7012      2890.7951    
    136000   68000          1022.2044     -726.39579      54096.678      0.87804537    -100.66275     -893.89054     -1184.6341    
    138000   69000          995.43766      488.66338      52802.562      0.89956502     1237.0636     -207.40568      436.33223    
    140000   70000          1016.4709      2382.8215      51425.284      0.92365727     4670.0976      2403.4344      74.932492    
    142000   71000          994.16853     -3578.2257      51140.773      0.92879585    -4883.2965     -4364.7484     -1486.6322    
    144000   72000          1019.2865      1538.9006      53096.644      0.89458268     1857.1806      2406.4082      353.11286    
    146000   73000          1025.0433     -2093.7947      52291.839      0.90835088    -1846.9201     -1085.6749     -3348.7892    
    148000   74000          980.16176      1.3257423      51207.708      0.92758179     132.78255      1452.2405     -1581.0458    
    150000   75000          1006.2961      3424.2396      53451.717      0.88864007     5191.2427      3416.5171      1664.9589    
    152000   76000          1008.1638     -175.22244      55349.845      0.85816569    -502.73381     -63.967979      41.034483    
    154000   77000          998.85068      1918.4089      54987.116      0.86382668     2684.8984      3059.4666      10.861557    
    156000   78000          983.62655      1704.9106      52371.12       0.90697578     4560.8687     -884.35274      1438.2159    
    158000   79000          991.34902     -4189.5638      52363.628      0.90710556    -2834.116      -5152.9159     -4581.6595    
    160000   80000          1013.6784     -21.485369      51746.198      0.91792903     4048.6272     -2353.0326     -1760.0507    
    162000   81000          996.87608     -385.57012      52406.926      0.90635611    -229.72071     -1024.6551      97.665401    
    164000   82000          988.74542      538.97981      52839.958      0.89892838     1762.0268      328.39218     -473.47953    
    166000   83000          993.85459      845.80991      53733.541      0.88397929     2780.9969     -1280.7032      1037.136     
    168000   84000          1006.2667      1980.9721      53062.837      0.89515262     4013.2308      203.80085      1725.8847    
    170000   85000          992.32184     -657.26054      53401.352      0.88947818    -1281.9034     -505.83201     -184.04618    
    172000   86000          999.72732     -19.195808      52331.3        0.90766592    -946.66446      560.09861      328.97843    
    174000   87000          966.81437     -1726.708       51655.634      0.91953837     447.58474     -2912.3226     -2715.3863    
    176000   88000          988.52574     -2406.6314      52534.316      0.90415829    -2143.2785     -340.82462     -4735.791     
    178000   89000          1022.1223      2689.5521      52535.088      0.90414501     3196.3723      152.7274       4719.5567    
    180000   90000          1000.0428     -1165.6435      52756.573      0.90034918     528.14057     -738.26596     -3286.805     
    182000   91000          995.7588       385.62529      50890.637      0.93336103     1807.9019     -1174.7724      523.74639    
    184000   92000          1010.3952     -8.6713982      51949.592      0.91433515    -585.47599      1548.7981     -989.33628    
    186000   93000          1000.3464     -729.9744       53529.862      0.8873428     -346.94834     -445.65766     -1397.3172    
    188000   94000          1007.8394      410.68388      53356.098      0.8902326     -346.14432     -105.13211      1683.3281    
    190000   95000          1017.4344     -2480.4553      51806.618      0.9168585     -4095.6926     -3372.5669      26.893632    
    192000   96000          992.75181     -25.560421      51594.164      0.92063393     1274.9464     -916.90249     -434.72521    
    194000   97000          989.59746      87.245705      51789.847      0.91715539    -3411.2475      3956.0822     -283.09756    
    196000   98000          1003.8553     -1698.2376      50815.969      0.93473251     2244.4641     -3976.9899     -3362.1871    
    198000   99000          1008.9133     -361.86466      51036.772      0.93068852     831.79099     -549.20491     -1368.1801    
    200000   100000         996.62009      2855.7887      51405.404      0.92401448     2152.6171      3108.6883      3306.0607    
Loop time of 485.766 on 40 procs for 200000 steps with 3640 atoms

Performance: 17.786 ns/day, 1.349 hours/ns, 411.721 timesteps/s, 1.499 Matom-step/s
97.8% CPU use with 40 MPI tasks x no OpenMP threads

MPI task timing breakdown:
Section |  min time  |  avg time  |  max time  |%varavg| %total
---------------------------------------------------------------
Pair    | 68.057     | 142.77     | 240.28     | 356.7 | 29.39
Bond    | 21.88      | 54.938     | 90.549     | 238.1 | 11.31
Kspace  | 88.995     | 222.39     | 330.79     | 401.6 | 45.78
Neigh   | 22.201     | 22.259     | 22.312     |   0.7 |  4.58
Comm    | 26.33      | 28.795     | 30.384     |  17.9 |  5.93
Output  | 0.020798   | 0.023459   | 0.029383   |   1.1 |  0.00
Modify  | 8.6156     | 10.39      | 12.102     |  24.6 |  2.14
Other   |            | 4.21       |            |       |  0.87

Nlocal:             91 ave         115 max          60 min
Histogram: 1 2 1 3 5 11 9 3 2 3
Nghost:        4204.43 ave        4293 max        4116 min
Histogram: 3 1 3 9 5 4 7 3 3 2
Neighs:        37036.2 ave       45393 max       26140 min
Histogram: 3 2 0 3 6 8 4 8 2 4

Total # of neighbors = 1481448
Ave neighs/atom = 406.99121
Ave special neighs/atom = 11.554945
Neighbor list builds = 9356
Dangerous builds = 0

# Cleanup
unfix npt_fix
undump traj

write_data step02_final.data
System init for write_data ...
PPPM initialization ...
  using 12-bit tables for long-range coulomb
  G vector (1/distance) = 0.16486539
  grid = 8 8 8
  stencil order = 5
  estimated absolute RMS force accuracy = 0.015894463
  estimated relative force accuracy = 4.7865702e-05
  using double precision KISS FFT
  3d grid and FFT values/proc = 441 16
Generated 190 of 190 mixed pair_coeff terms from sixthpower/sixthpower mixing rule

Total wall time: 0:08:06
