3640
Lattice="35.1780299881 0.0 0.0 0.0 38.2666953673 0.0 0.0 0.0 29.4537507993" Origin="-18.4985248835 -24.2470518047 -9.0405459862" Properties=species:S:1:pos:R:3
H -14.6376111697 -20.5421453796 -5.7034174314
C -14.4338149784 -19.6699900908 -6.2372153769
O -13.3941111828 -19.3574163683 -3.3005377123
O -14.5325611071 -22.9265547953 -3.9267234625
C -16.9629507166 -23.262804438 -6.6641495199
C -14.3033643736 -18.5536942425 -4.0675316487
C -14.1885785165 -18.5252262997 -5.530439941
C -14.3741810554 -19.6013595113 -7.6273152615
H -15.3036855828 -18.9464152049 -3.848940708
C -14.295289873 -23.5767493924 -2.9723850388
C -10.6669588106 -22.3851944274 -4.9840415794
C -17.3692063274 -23.7555232785 -5.4385716482
H -14.5582237059 -20.5433598744 -8.1217460347
C -13.9709567671 -18.382708152 -8.2140260832
H -17.300459751 -21.518555768 -7.9570933442
C -10.6003585243 -21.7046748563 -7.6703298805
C -17.8924200825 -22.1862053622 -7.2949292611
H -17.7399876669 -18.9213473342 -6.9554573133
H -17.7007145515 -20.8228431094 -5.564994403
C -15.8232164614 -23.8240747249 -7.2773520955
H -12.6856195749 -24.1307313898 -3.5987748112
C -9.9180976092 -21.2921360676 -5.4017512468
H -14.2557679223 -17.5314482021 -3.6930048754
H -11.9904723697 -23.9342363882 -5.4122437494
H -9.8660155494 -17.553026573 -5.0840491204
C -13.7099396405 -19.1703607307 -1.9527925678
C -11.3691723467 -22.7953039739 -7.1631076186
C -15.5039249996 -23.9200759776 -2.1079515102
C -11.3777786563 -23.1388589937 -5.8586111984
C -13.9133234675 -17.2551187188 -6.1347152091
C -13.6857131719 -17.2476164874 -7.45881389
H -10.8133222323 -22.4716854295 -3.9173161011
C -10.472089584 -21.2660750411 -9.0076484559
H -17.3730985151 -16.7829114508 -5.8169228169
C -17.9208147917 -18.1869899185 -2.2237984933
N -14.963163934 -18.6016283758 -1.7808266325
C -18.3792960356 -17.570444243 -3.3460558597
H -11.9913155646 -23.1972620991 -7.965202604
C -15.555052242 -23.5244983865 -8.6937618335
H -10.8969025387 -19.0573936944 -8.6834267238
H -18.1840271994 -23.0969050522 -3.6294792295
H -17.6120897582 -16.9638237702 -8.5762404188
H -18.1154154027 -19.3044756785 -2.2290807676
H -11.5802044344 -20.7721916901 -2.1945860273
C -9.8448677681 -20.9910340521 -6.7374871979
C -16.51165323 -23.1000839756 2.6631802171
H -10.9202172634 -19.1890888188 -1.6465368646
C -14.2736627535 -22.238439777 3.3129828285
C -12.9154033962 -19.5922051342 -0.897085585
H -15.8663630942 -22.536246018 4.6266011066
H -9.9949413993 -22.4341920044 4.0870888368
H -12.1506788338 -21.9781166395 0.5175480416
H -9.7161421118 -16.9070228714 3.2328369445
H -17.491782379 -23.4074849852 2.8615989892
C -13.1700361493 -22.3550653481 5.3324247474
H -10.1733021453 -19.4145206964 3.3942182608
H -11.7043931647 -21.914308861 2.2079297553
C -13.4278627453 -19.6008044685 0.3821947513
H -10.9309165139 -20.6409952609 -0.5540274975
H -15.770616673 -18.3148150248 3.9976844166
C -11.4995893252 -20.1142463886 -1.2960187753
H -13.1996945502 -19.8327167276 2.3455525925
C -17.1456301742 -17.5165011536 -1.3034400825
C -13.969466724 -17.8701302833 5.1197455164
H -11.5733461496 -19.5777030799 1.377458413
C -12.6178393774 -20.0926644649 1.4678536665
C -13.8563897523 -22.2001006992 1.9799161113
C -14.8087497555 -22.7258510246 1.2093292347
C -18.2532852568 -18.0535951538 5.09489863
C -13.1664728489 -17.3279736561 3.9406162157
H -12.1495496451 -17.8285829845 3.9848756163
O -16.648362235 -18.0943501405 -0.1907280099
H -13.5385938199 -17.813723283 3.0796679781
C -12.5839252327 -21.6447503748 1.5124379688
O -13.4460154766 -21.631868992 4.2872613726
C -15.5628270175 -23.6044290019 -0.7464173485
C -16.4582767 -23.8523482749 0.163792522
S -14.0651890488 -22.6552536831 -0.4424636967
H -15.0122437924 -18.7525758084 1.6205392462
C -14.6530516917 -19.0143756989 0.6018587796
C -13.0588492726 -23.7491128676 5.3491266453
C -15.9787117901 -23.3567522298 1.3588779891
C -15.5999623315 -22.667360316 3.6278500316
C -15.2109141244 -18.3659502433 4.9946314733
C -15.3406432855 -18.4453758911 -0.4711619948
C -11.4975996252 -18.8837256649 10.125012112
C -15.398875902 -19.4025448676 9.687039961
C -14.125946295 -18.7696218051 9.8786132025
C -13.5862959012 -18.8195212856 11.2092473953
C -16.0285714842 -19.5197757238 8.4345930373
C -12.2089413155 -19.1271391878 11.2971117036
C -13.3668159923 -18.5203419377 8.7062105362
C -13.9677315603 -18.4142515677 7.4362442972
C -15.328460928 -19.0037350535 7.3005113879
C -12.0232221741 -18.485836618 8.9494225234
H -15.9204491583 -19.8504365169 10.566395491
H -10.4502566786 -18.9904287303 10.1738213791
C -13.2954875571 -17.9638969975 6.32911439
H -15.6447212006 -22.31924164 10.8722561151
H -11.3010916205 -18.2909237037 8.1813595013
H -11.3247034766 -22.9100099198 7.963144403
C -12.4143906075 -22.943430201 7.5755152151
C -16.0367851793 -22.3808497802 11.8704353685
C -15.6341870877 -18.212821517 12.4533501041
C -14.3692937684 -18.856780274 12.3874867731
H -12.6450962457 -20.8266352581 6.8418342565
C -17.4805767072 -22.0061755553 12.3151709217
C -12.7235391628 -21.8604688225 6.6126635447
H -13.0943418523 -22.8656130181 8.4493979609
C -17.4435376572 -20.0858822812 8.4222346202
H -17.6206693377 -20.9669175738 12.2243625702
C -15.9123058234 -18.9655814172 6.0159117997
C -11.7132498614 -19.6598731834 12.5466142782
H -15.9236532313 -17.5487941762 11.6530968571
H -12.2896010234 -17.6346642862 6.4928583735
H -17.5874457699 -20.924226688 7.6540194245
H -17.7076915765 -20.5169377348 9.4385502182
C -12.7014263613 -24.1604333185 6.6833303735
H -16.5845263878 -24.1359063669 7.7523538525
H -10.6040169345 -19.9195662009 12.8033473377
H -18.2907861815 -22.624703422 11.9409314741
H -18.2502278962 -19.3665825277 8.0973654523
C -15.2270337725 -22.7841827422 12.9376131638
H -14.249788081 -23.2191083591 12.9697670959
H -18.3707396254 -17.6598813364 12.6331020935
H -17.3387112617 -16.7827386346 6.5768915688
C -18.0293775978 -16.846087248 5.7700097365
S -17.5135738496 -19.4723502964 5.7107581265
H -14.5261138598 -23.5151502764 15.6421674909
C -17.8432513971 -17.6988816253 13.6396794223
H -11.3328039007 -22.570594878 15.8578518345
H -13.0683249053 -18.8727520307 16.6072623938
H -18.4659499296 -22.2803985364 16.8647316685
C -14.9083337624 -19.8531556391 14.5170644709
H -12.0696160694 -17.1028233169 15.7527934428
C -17.2705948687 -22.2823385532 13.8125231886
H -14.9665526892 -20.5806739986 19.1654695112
C -16.0318545764 -19.0981389621 14.6240116406
C -13.6718920119 -18.9146303571 18.7666691668
C -17.6626079708 -22.4112962034 16.136417947
C -13.2448644096 -16.7591462023 19.8496624287
H -16.1284503207 -16.819880853 16.2701640809
H -17.0671483175 -16.8599556542 17.8252350614
C -10.0577555591 -22.0966284019 19.4006937201
H -12.1440820054 -20.452177317 14.5119326835
H -12.1338718715 -23.0886323228 14.4907907173
C -13.9101286265 -19.5607318011 13.563562972
C -15.9712852959 -22.8162292547 14.1313503962
C -14.6810595763 -24.2131982408 20.0415662098
H -10.2711096984 -18.2948423378 18.6855962662
C -12.1751808707 -24.1740188112 16.7555600525
C -14.073749155 -20.397188781 18.5803093271
H -16.0758786221 -23.1455978152 17.4362596359
C -15.5347785275 -23.1383684359 15.3936386278
C -13.5907892498 -18.1122492208 19.9202533389
H -14.2222795391 -20.6491738051 17.4878730591
H -11.752889174 -22.308880132 17.3557961202
N -11.9891092213 -22.8323233563 16.5542072183
H -12.4254114333 -23.7811237612 18.8539802165
H -16.7538848401 -19.18543049 15.4936688747
C -12.7762102099 -16.9679536496 17.5442626609
C -10.0321739412 -19.3410964719 18.9259473611
C -16.3630036028 -22.8589800375 16.4329980592
C -13.2054021693 -18.3197018862 17.5701687177
H -14.563235018 -20.3209054008 15.5248700936
H -13.3594619557 -21.0615296546 19.0452303614
C -18.0995394827 -22.0654277426 14.868131856
C -10.494177108 -19.8647744913 20.1494943394
C -16.4440336506 -18.3207514775 13.5893135016
C -12.539501375 -19.9180048088 13.6580178445
O -11.8561522107 -23.6531975414 13.8258875533
H -18.4576090421 -16.8324882181 16.0305275071
H -18.1538820782 -18.8095939993 19.685823572
H -16.0304704693 -22.7401174816 20.1726503611
H -10.2331781359 -18.6740729702 14.9105533487
H -14.6185812953 -23.8136978173 18.9777070816
H -9.8831984865 -23.195460611 19.5213311411
H -18.4007326556 -18.3863073863 14.3195205231
C -13.365231398 -11.2464694713 -4.1977730602
C -14.1607327289 -12.284184835 -4.1331573394
C -13.0613442701 -11.0396486386 -5.4996251091
C -13.1659231101 -10.6391027978 -2.9485191901
C -13.6221743772 -12.050000735 -6.1320307628
C -13.6398297209 -12.4954106415 -7.4273799276
O -14.4786133451 -12.9020347017 -5.3538526983
C -15.0123513529 -12.9014567708 -3.2546781081
C -15.8017734168 -14.1644484686 -3.4224253794
H -14.2227782527 -13.3880049491 -7.71118313
H -15.9709431803 -14.3892951422 -4.5090127296
C -12.7407245297 -11.716135496 -8.2405374939
C -12.1167114769 -10.3274682393 -6.3178528062
C -12.0332663418 -10.6219510067 -7.656992365
H -12.4363106557 -14.5606145493 -3.2831748603
O -17.0859898467 -14.1529203337 -2.7856586419
C -10.6155527093 -14.3051170123 -5.5382880338
H -15.1698476152 -14.9365119361 -3.0453482461
C -17.6966305599 -10.5919203297 -5.6884396265
C -11.5452643608 -14.8935362029 -2.7085661229
O -17.290830948 -10.2791096741 -6.9973335536
H -12.4602063657 -9.8060457974 -2.808351833
H -10.9323383401 -13.3907461092 -4.9739725907
C -10.3034605838 -14.1342777211 -6.8978955606
C -10.4936105904 -15.5181782423 -3.4120716144
C -17.1311575784 -10.2938676276 -3.2466944572
C -16.8186293057 -10.0654456845 -4.6318719479
H -12.6619132045 -15.5997314504 -7.9660553438
H -13.5722822516 -15.3700677698 -5.9096821078
H -10.3691289424 -13.1091258062 -7.3216360906
C -10.3898815967 -15.4981757653 -4.8166134792
O -11.2053155048 -9.8700443825 -8.4588751572
O -13.6707268319 -16.1629552378 -5.3661609997
C -14.7381169019 -12.2268385446 -1.9950031183
C -17.4032172817 -15.5184773793 -2.6459958765
H -11.4326681989 -9.6950482378 -5.7678312581
C -18.2286609119 -9.4936956044 -7.5928476746
N -13.3855242196 -16.1839022703 -8.2894029918
C -9.8307457334 -15.2520938807 -7.6500793005
C -18.3382377733 -16.1454766318 -3.4433382329
H -16.7891221487 -9.8947141176 -2.2788054133
H -18.2599365048 -14.8829239719 -7.3038316105
C -18.3226064376 -10.9353884797 -3.2132364742
C -18.1052723293 -9.3178185835 -8.9526297064
O -15.7797157089 -9.2765052182 -4.949179761
H -18.3497899043 -14.7040873801 -4.9012954299
C -13.8472270006 -11.1211862566 -1.8587846158
C -10.1687578674 -9.2838211325 -7.7294445404
C -10.0220925237 -16.586751285 -5.6296361853
C -9.8485540705 -16.4555441094 -7.0234151752
H -15.3980743414 -9.0094613608 -4.135283878
C -18.4572153577 -16.5777928812 -5.8666645099
C -11.304721772 -11.675470356 -0.5109810289
H -16.5404794001 -9.3697018493 0.9914805302
C -10.7106774553 -15.7963095469 -0.6324854986
C -16.7553819583 -16.2252561246 -1.5758111863
C -12.4599794153 -11.1583527308 0.0830101772
C -16.1364399838 -13.1508511904 2.4827005525
H -12.6137182384 -15.5495393302 4.9610139689
H -17.8842070374 -13.3302740917 1.400271298
C -11.3208124675 -12.3574355847 1.8479801315
H -13.1348300952 -11.170294683 2.1810897625
H -13.31119724 -9.3228026235 -0.695907626
C -18.237163535 -11.9115589415 2.9079714256
H -15.2544889233 -12.5898352362 2.1641460136
C -11.7305924062 -15.1562655817 -1.3448561386
H -11.1958196308 -11.7564301269 -1.6058592818
H -10.7035136205 -15.6925036323 0.4644246459
C -10.5692153114 -12.3901936321 0.5637968399
H -14.5796308402 -12.4311480945 -0.1326908606
C -14.4197114931 -14.9776388621 3.7984851344
H -10.6470133474 -11.8325144211 2.6315051144
H -14.3603392457 -15.9847970474 1.86777462
O -15.1753492144 -12.7496989729 -0.7492621325
H -13.5964949416 -14.6324092949 -1.2107185432
H -15.9675764534 -15.749251422 -0.9406884913
C -13.0777291802 -15.7336128186 3.9812915972
C -17.3863857136 -12.5274825587 1.9007486739
H -16.8535608454 -13.8836813542 4.4483510821
H -11.5358999667 -13.2853448729 2.248805418
C -13.5988780653 -10.4278128408 -0.5567834147
H -13.9795729934 -14.2624869901 1.7078910436
O -12.8099020393 -14.791979742 -0.6532496742
C -17.8326889797 -11.6871967283 4.1568180226
C -16.1135315272 -13.1545125487 4.0398173254
H -17.1617046719 -11.7761238889 1.0971896905
C -12.4678780058 -11.5866982066 1.4609306839
H -16.8531339621 -15.2025845452 2.4481894346
C -16.4099021119 -11.81125266 4.5502787895
C -14.6190074297 -13.6021489805 4.3871975151
H -16.1397718347 -14.4759669317 0.8968103071
H -12.3521365676 -15.3251451196 3.2515593394
H -14.4337151857 -10.4485732768 0.1176341397
C -14.5720497759 -15.023002449 2.2696354925
H -13.9064094094 -12.8925947759 3.9282323326
C -15.9846254111 -14.5597614615 1.9801187147
H -15.8563405926 -11.0982455842 3.9867969083
H -15.1067615331 -15.6472885782 4.2510963261
H -16.2528887063 -11.602558996 5.5696467418
H -13.6342698297 -11.5376857563 5.6832464263
C -12.5231447458 -12.8412699979 9.0323321512
C -16.3244166202 -14.7934946622 9.6770830646
C -15.0175908914 -14.4524931191 10.0931526315
C -13.2179140428 -11.5379582189 8.8407288174
C -17.0102749495 -12.7467743328 10.6441743906
C -14.7868381838 -13.2561706665 10.791728507
C -15.8491837419 -12.3283042485 11.1805791812
H -14.1886851 -15.2042595004 9.9257839063
O -13.4909747825 -12.9877327642 11.1559310695
H -13.8042469931 -11.1400429929 9.6449756699
C -12.5303612468 -13.4760870081 10.2768279763
C -11.8084317313 -13.263227636 7.954649369
C -11.6448836701 -14.4868928763 10.5402158002
C -14.0788606684 -11.7562308066 7.6688329312
O -16.5883576123 -15.8836212648 8.8716609827
C -10.8639797829 -14.2537991061 8.1628685341
C -10.7243504108 -14.7403393991 9.5021927258
O -15.4282604478 -11.861805367 8.0604250109
H -12.5604966087 -10.6632235266 8.6304967802
C -17.4323719189 -13.8671468351 10.0712924773
C -11.6403277872 -15.1413807051 11.9263191478
H -15.344000828 -13.6266215038 6.4119468992
C -12.0810359104 -12.5381785414 6.6968254636
H -13.8246980691 -14.4007185985 6.2909454245
C -13.5916076646 -12.32474642 6.4098894288
H -11.4830087993 -11.6290285577 6.7133150322
O -15.5139786044 -10.0223840473 11.4488636627
C -10.7953605258 -10.5179900546 11.8318157206
H -11.1642458107 -10.7620492737 10.8204573607
C -15.722628937 -11.060904117 11.9585919612
H -15.7002741629 -16.0116041112 8.3832236449
C -14.3405108001 -13.5904241714 5.9019927525
H -10.9318923883 -14.6183358287 12.5323447373
C -10.0509922669 -14.7050754556 7.1758272419
H -18.130134268 -10.9320659961 6.1424845076
H -18.2557210032 -14.6334616108 5.7161036302
H -12.5318897111 -15.0675071506 12.5295371122
H -11.6879036266 -13.0141528857 5.7501848155
C -11.5712439245 -9.8094786544 12.7566806754
S -18.2452908632 -11.5164970052 11.262710747
H -12.9713780762 -9.1190861514 11.3494942107
H -10.2481300741 -14.3305388558 6.1511608071
H -11.5232587639 -16.2084480362 11.8135127019
H -15.0666360126 -8.9559161576 8.6884069389
C -12.6966804551 -9.1145069195 12.3824911262
H -15.396810205 -16.1781930563 17.7348826544
C -18.3353582632 -11.1846191481 15.8952724589
C -9.9135341158 -10.3356094033 14.357797517
H -15.6822502749 -10.344686657 13.7541672605
C -17.6305424422 -16.2462452352 14.1087323683
C -15.3698948208 -13.9949666729 18.5902080209
C -15.9172210836 -11.3903897048 17.3699253752
O -14.6579344198 -11.3547523307 18.1180150063
C -17.98965669 -14.7840872787 15.9862121324
C -11.5810327479 -9.189374527 16.3766317813
C -11.0852266785 -9.7078596787 14.080595539
H -15.2655766919 -13.2428416076 19.3341438334
C -12.6730443649 -16.2176273708 18.7328816743
O -15.7377060001 -11.1671601019 13.2854744172
C -17.5948700807 -10.0408219476 16.1944147777
O -12.4348951198 -12.007781285 19.9052577163
H -17.2676545336 -9.6541440126 19.9174872188
H -11.6210941868 -11.4893257115 19.6392182448
H -10.7602987997 -9.8498384117 16.8066964523
C -16.3188496442 -16.286365918 17.1936709766
C -16.9312991328 -14.9311446699 16.8586847797
H -10.6858238546 -14.8725191016 18.3897289035
C -17.8785007906 -12.4406494233 16.2885757294
H -16.5614385015 -16.2533807965 14.3504051139
O -9.9679291437 -14.5603275564 17.8227061533
H -15.5690740586 -14.9166160954 19.0824888998
C -16.3376439208 -10.1842804292 16.8389727708
C -16.7160105975 -12.514748046 17.0437287729
C -16.3844683702 -13.7978796586 17.4850382265
H -15.7844335927 -9.2273223473 16.9799919386
H -12.3996051531 -15.1438914783 18.7716290869
H -14.4296576728 -13.9998768028 18.0932168581
H -14.291288563 -10.4646436909 18.1523372395
C -18.4234392758 -16.0274438807 15.3158633513
O -12.2271159192 -16.4604423124 16.4034831931
H -17.9652295151 -15.4863712254 13.4030127255
C -12.8708361246 -4.1157167017 -4.2802800037
C -13.1231756506 -5.3959141111 -3.7512128208
H -13.8813155762 -5.9980509283 -4.2239459058
C -13.9138174334 -5.4897582662 -6.8359183292
H -12.8604642143 -5.7881044223 -6.5810097589
C -14.4169638886 -4.2875891039 -6.2352860831
C -14.7528258115 -6.3805698935 -7.4565153919
C -16.1382883411 -6.0697659801 -7.4824661072
C -16.6056538792 -4.827564273 -7.2632156652
C -13.7441880569 -3.5847664362 -5.2393831883
C -15.7388339596 -3.8431963989 -6.6062112366
C -12.134994868 -3.2422863659 -3.5281537324
C -14.2106522681 -7.6038485756 -7.9812518926
H -13.3616911727 -7.9814111559 -7.2744220992
C -12.7715902866 -5.8074145263 -2.4980565391
H -16.8928052991 -6.69708422 -8.0479074506
C -14.1172038335 -2.1888524351 -5.1668860819
C -16.1231596365 -2.4980213244 -6.4896095927
H -14.9754672778 -8.4098432987 -8.1079978074
H -13.583039387 -7.5932706812 -3.1120275916
H -17.6177127799 -4.5035311971 -7.4882282932
C -11.4786210302 -3.7910309834 -2.4152821698
H -14.854686458 -2.5362362954 -2.3590975528
C -11.9654694638 -4.9282371239 -1.7733344243
C -12.2508535994 -1.8991767258 -3.7920575594
C -13.184473992 -7.1729715119 -2.1454883427
H -12.2501066171 -7.7328969798 -1.8457363133
H -10.2018201558 -2.2449940736 -2.4635484952
C -10.5051301611 -2.9975074566 -1.8126443083
H -15.3322641645 -4.0720240109 -2.2904792488
H -17.0605762082 -2.3677160896 -2.8905365399
C -15.2151655176 -1.6287921812 -5.9796558845
H -17.0792259324 -2.1188133478 -6.8681258312
H -11.2471524591 -2.5158846486 -7.9327508716
H -11.0352837688 -7.3568088437 -7.9310334943
H -10.2696231769 -4.7770805481 -8.5584419123
H -17.3651437706 -7.4986379888 -2.8758403833
C -10.2013027475 -7.8965600374 -7.4905467109
O -17.5100583122 -6.5975276619 -3.1255931748
H -18.2323895232 -5.0218087236 -4.9155924323
C -11.8080253399 -2.1006516746 -8.7422583675
H -12.7104622527 -2.6980325602 -8.7824467355
C -16.9606846504 -2.6772195966 -1.8501576315
C -15.4388877729 -3.1626799225 -1.7262883124
C -13.2619570665 -1.3490184341 -4.5053687815
C -17.8592532862 -5.2781419444 1.9280693299
H -15.6000987158 -8.1601034628 0.2408542418
H -10.2710339245 -4.3731363134 1.0978398405
H -17.0369747478 -3.8908848871 5.0780016521
C -11.7962767016 -8.5622429573 4.5233036666
H -12.7062801449 -7.0464351968 3.3686573084
C -11.0425295114 -7.8285531622 2.4790432846
C -18.1394403309 -7.4214084087 2.2728160287
C -17.231332789 -7.3356186459 1.2260668992
C -10.3676133336 -8.5724095284 4.5710614273
C -14.8504276431 -4.5498073938 1.8986912201
C -13.9214541171 -3.6701471715 2.437701875
H -13.0463359455 -8.6122534156 2.6254883972
H -14.0072521398 -7.2410830305 -1.4097043
C -12.3350052414 -8.0432769537 3.227070277
C -15.0037469554 -3.3078750407 -0.2624280975
O -11.7417554563 -1.7756076404 4.16259363
H -12.841757302 -5.1543688819 4.8536655083
C -16.5924635431 -8.4279488834 0.4712215516
C -17.3630742879 -1.6045710832 -0.8896120053
O -16.2113617474 -5.3417850805 0.1138951162
C -10.8277830973 -7.1061514836 1.4031189652
H -15.0660915381 -5.376765394 2.5043845242
C -12.6310347129 -1.4873680352 1.8801303806
H -15.0361335482 -5.1224858917 5.0304190371
H -17.5606978964 -3.5362871353 -1.6038625527
H -13.5683747023 -3.797133616 3.4902600052
C -15.3729135834 -4.3866468058 0.5940383148
O -15.427945756 -5.8933122148 5.3864563521
C -11.5322775228 -5.1437233756 -0.3996337522
H -17.3089043656 -8.5910270975 -0.3860763636
C -17.0080405438 -5.9495290717 1.0619572266
C -9.9313640403 -8.1112822512 3.3154846881
C -13.6132601728 -2.5234619455 1.6295093506
H -10.4807890105 -3.7457538253 5.1454340787
C -10.1115259969 -3.1865110637 -0.5463876263
S -12.2130330551 -6.4616920004 0.5976407851
H -17.9449613291 -4.2191876507 1.7692880229
C -10.7394067452 -4.1489725276 0.1886447718
C -14.1252645945 -2.5093627739 0.3960830747
C -18.3872126154 -2.0879774251 -0.0210454062
H -18.4301995123 -5.9826744719 3.9755711023
H -11.2046403459 -1.2879477562 4.6987775309
H -18.4204661921 -8.454430206 2.6604923365
H -12.3318340564 -8.9399929471 5.3688547439
H -17.5051467104 -2.331741941 5.6862042824
C -12.0144462423 -2.9125854215 9.8193952112
C -13.3286489978 -7.6220227359 8.4645927999
H -14.5049333742 -7.3736629644 11.8140928048
C -15.3446012569 -7.4704768903 7.1713394627
C -16.649231691 -3.4417086087 8.438589727
H -15.7153050198 -2.87557004 8.2665910914
C -12.7347933057 -6.5897224463 7.7067460607
O -13.3237401165 -2.7463289127 9.8373398852
C -14.6519618587 -8.0139077323 8.2143104998
C -16.8553112879 -7.7134043929 6.9415225084
C -11.4557828482 -5.9226572157 7.6289072882
H -12.1596986617 -4.3258658193 11.4129498442
O -17.3767895612 -7.9894004679 8.2131830714
H -13.5464177318 -2.1499288124 9.122490131
C -17.3993607789 -3.6582475502 7.2808260451
C -17.1087511431 -3.7791203298 9.7264354404
O -16.3774542399 -3.3758732034 10.8241913363
H -17.4751848879 -6.8515120389 6.6781536255
H -15.5357583957 -2.980672559 10.603357323
C -14.7778171813 -6.4821963793 6.3546184
C -11.1983374761 -2.38203016 8.8167403968
H -15.5387045799 -5.6572940221 12.0473267946
C -10.2476159108 -6.2569744146 8.2048264371
H -12.7581475527 -8.0611101419 9.2998070478
H -10.7558166296 -7.068958627 10.1849190877
C -13.5016466684 -6.055671836 6.6364491844
N -13.0777909483 -1.6569054481 7.4339012409
H -17.7523381006 -8.5722516796 10.5718297421
C -11.7309553052 -1.6843789233 7.6963536351
C -14.2119627977 -7.2115022093 12.8430502371
C -18.3155146292 -4.4279376399 9.8967739596
C -10.0821766605 -4.0014445449 10.8714892928
C -11.5153607188 -5.0169182882 6.5117212527
H -13.4398380871 -1.3615327556 6.5478375094
H -10.1971121699 -5.6228196364 12.2391096158
H -13.5878801148 -2.0453676517 8.1385386372
C -16.9013956031 -3.1983389448 5.8952054731
C -10.1354916728 -7.3020954317 9.3231867265
C -11.4701795408 -3.720663099 10.7827277218
O -15.7546070451 -5.5055523008 12.9827400466
C -9.8280126755 -2.3740419879 9.0448526493
H -15.8590084865 -2.9866211933 6.0306566439
C -10.4058647866 -4.3852237342 6.0560384702
H -10.4504301123 -8.3114715951 8.9444875506
N -12.7980474412 -5.0959945469 5.8811806783
H -17.110505215 -8.5527543955 6.2775222814
H -10.4897426172 -1.3713716218 12.8376663936
C -11.7870667193 -8.9402761893 15.0120387071
C -17.9613146218 -8.7316516349 15.7595669711
C -18.1823169463 -1.8884671586 18.6034922197
C -11.0425532629 -1.9681180628 15.7734580369
C -14.5615492851 -7.8332791836 19.0314768875
C -9.8667467536 -4.6200519973 19.87125519
C -11.4028018421 -3.3427906271 16.4598801246
H -10.5433014065 -6.6034528419 19.0549856486
H -16.7383621837 -6.1397164943 18.6326439632
H -16.2757564867 -1.9931779503 19.1663793556
C -12.7771180625 -8.096041389 14.5958385321
H -15.7206251063 -3.9389313904 14.5562953693
H -14.2529951208 -8.8689320825 18.9725637099
O -16.9239242652 -1.41715492 18.7386056058
O -12.8729260481 -2.5789642711 14.1062416407
C -15.106442326 -5.6071005496 15.9794754588
C -11.1408275396 -2.3580637233 19.3426807766
H -12.6749891818 -7.5593280661 19.9118058787
H -15.5608179741 -3.5516202209 16.3873157767
H -10.0037690977 -1.7906475727 15.6707171458
H -16.3754763453 -4.5089172115 18.1466815385
H -18.0392268621 -3.598834871 19.9134198383
H -11.8999912106 -2.0544975049 18.5669426084
C -13.7011639229 -7.2262334884 20.0745521043
H -17.2820305853 -7.9146989722 16.0141623073
C -13.5774492467 -7.3873581327 15.4486815115
C -14.4480816998 -6.321301076 15.0323052764
H -10.1889495808 -1.686118488 19.1893517866
H -10.3273256475 -5.8188087574 16.4567232774
H -16.927118032 -4.5901264082 15.7558849468
C -11.689420482 -1.9815433953 14.3369530581
C -10.3343423817 -3.805482512 17.4810544523
H -13.4753847775 -6.1132246684 20.0369282076
C -14.7539793785 -6.2813178877 13.6536867984
H -15.6098710192 -7.827535284 19.3670587195
H -11.7373576315 -4.4952601569 19.0612767584
C -10.8251722448 -3.826973397 18.9799683911
C -15.1064045397 -6.0907419961 17.280856075
H -15.3771322338 -5.0459169108 19.207359048
C -13.215541599 -8.1379655397 13.2357220856
C -15.8347559174 -4.3348358859 15.6321109781
C -14.3749184681 -7.1979105184 17.653388373
H -11.4360990329 -4.1994945315 15.7558333339
H -12.4178730006 -3.4329577335 16.888578046
C -13.496991368 -7.772867339 16.7985852622
C -15.9089692849 -5.4431595512 18.3466656865
H -12.3209481026 -8.8588741315 18.3778605657
C -12.4941834807 -8.6527498801 17.2867715425
C -12.7984879306 3.2404497653 -5.5168958496
H -13.1729682848 3.78703601 -4.6509735261
C -15.1616293013 2.8908404943 -6.1413914927
C -13.710442567 2.6854178129 -6.3851253584
H -15.8716006334 3.0476356603 -7.0482450219
H -15.6986239409 2.0629337895 -5.6324490748
H -15.1887033113 3.6284986738 -5.3625356784
C -13.2228607633 1.802052014 -7.3723834798
H -13.3134605648 -0.2290712745 -4.5120863909
C -11.852523511 1.4951699401 -7.4804465309
C -11.426812804 3.109037987 -5.7180695055
C -10.9130586306 2.2668536938 -6.7308442299
C -11.4013264122 5.6629464926 -3.9003569787
H -17.7797147326 2.4728484513 -3.6361433581
H -15.363876939 -0.5184860396 -6.0096604432
C -17.6852442592 3.5228891804 -4.0086692834
C -10.8468882377 4.4019057256 -3.6723411548
C -10.5460906923 3.4967196445 -4.6604663051
C -16.865322713 4.4670463184 -3.3199704709
C -13.9883023464 0.8961004281 -8.1146704964
C -11.443659973 0.2672243744 -7.9525687229
H -16.5577191688 0.9575317841 -2.5320430087
H -11.6055774721 -1.2013677328 -3.2650314827
N -16.070164403 3.9413746828 -2.2971263587
H -16.5025903518 3.1426388893 -1.8392939257
C -15.9924771101 0.2813069258 -1.9008619463
C -10.3606122971 4.1976928312 -2.3922209217
H -11.7654665972 6.0334319148 -4.8748096676
H -14.0144450356 5.0324065424 -7.2220964043
H -15.3976007733 -0.4295594816 -2.4476744609
H -10.4654969849 -0.0697071671 -7.714028573
S -15.7154468299 1.1462685123 -8.3731271992
C -13.7017075083 5.64338028 -8.0459483317
C -16.9460073362 5.8512534457 -3.7227068988
C -13.5710686664 -0.2834302644 -8.614303347
O -12.7081201755 4.8070555624 -8.6466157573
C -18.4124813944 3.8807520158 -5.1397692322
C -14.8999674223 5.978738285 -8.9563378115
H -12.9585643326 1.9951254804 -2.0431866605
O -11.0066539215 0.8755085298 -1.6836290759
C -17.9122901089 6.2102897912 -4.6979526812
C -12.2749230911 -0.6974264037 -8.4788832399
H -11.879975782 5.1562567879 -8.4543503884
H -18.490275535 2.0438925923 -6.1855785559
N -18.1133695275 -0.07096182 1.1044154674
C -11.3439777264 6.2507435617 -1.6058572345
H -15.873503445 4.6414389244 -1.5800129025
H -15.2752810263 0.9626148775 -1.392038947
S -13.5588673301 -1.1768363316 -0.7609872993
C -18.2177654894 -0.3884745251 3.7537612415
H -10.2400007511 0.2627040501 3.5281306769
C -10.838402235 4.9964778842 -1.2923891904
O -13.9171348027 1.0473483786 3.5132936486
H -10.4616883189 4.8222739671 -0.2276090003
C -16.6792169281 0.7046851316 5.251754022
C -18.3997998623 5.6267279839 4.6540107543
C -17.2654761689 6.232584389 0.4056047225
H -16.208973984 3.3074159751 2.6334834771
O -17.1629963602 1.9113004848 0.2071561661
C -17.2477262986 5.5272064999 5.3292249783
C -11.7074847997 -1.1141444348 2.9600044905
H -15.1793090572 3.0067728575 5.0581231848
C -9.9005842025 2.4451652038 2.8151133531
H -16.0967421392 -0.3073240235 5.2718351412
H -18.1205953495 2.0876118157 1.953846133
C -13.0053713564 2.5294314166 5.2901924728
C -17.9318269305 5.0325967559 0.2736716688
C -12.259412878 3.8969099592 5.2822502337
C -11.7618818253 0.3158779506 0.4010911275
C -10.8968222805 -0.0326129746 2.6879613192
C -12.4042905754 2.8906915075 2.8585733699
H -17.3671524343 -0.4096926752 3.0787664042
O -12.6959302854 1.9709912864 -1.0955645128
H -12.8200597595 4.6555392546 4.7086658216
C -18.0349029206 0.2161150992 5.0130068229
C -17.5319335433 3.976070141 1.1067257985
C -12.5345766391 -0.8070930556 0.747869532
C -15.8497293627 5.381240203 2.1421151129
H -14.9896068533 5.4789284297 2.7540798008
C -10.9323969757 3.5341174923 4.6847943414
H -12.8388343044 3.8983968242 2.7901814678
C -13.1195774341 2.057845485 3.9064178875
H -16.3729926058 1.2883777321 4.4359549599
C -10.8413428202 0.7129100679 1.5387571753
C -11.0479379124 3.0272502828 3.3787750056
C -16.963544978 -0.3087715949 -0.8331490608
H -12.536961167 2.3762969619 1.917783472
C -16.490200587 4.1549613438 2.0048395918
O -10.1545108296 1.8406073015 1.5529952989
C -11.8214303764 1.003148294 -0.8989060613
C -17.4540614803 0.5198357704 0.1695183387
C -18.1202561415 2.5748710165 0.999740288
C -15.4650201128 0.9316480086 9.1962026627
C -14.6306565481 1.9324471716 8.4097816167
H -15.1848683362 0.9564627245 10.252869061
C -13.1011793738 1.8471207126 8.595058795
H -14.9522571559 2.9965604314 8.6561439832
H -12.6798545369 2.7303748735 8.1611252388
C -12.7379404412 2.9761610423 10.8727937085
C -16.9878905477 1.0021578591 9.0434559363
C -17.3203649804 0.581716203 7.5695884941
H -12.7619681083 0.9839981555 7.9866924309
H -13.23510059 0.885649549 10.4376188467
C -14.9816429769 1.6882195136 6.8679016677
C -12.3162787751 4.2038327265 10.4883455253
C -12.7103408878 1.7517181187 10.0499336483
H -11.826409547 4.296424366 9.5369222858
H -11.6306003541 1.4793340013 10.0389701778
H -17.4529903115 2.0046577309 9.1875615206
C -16.5245786827 1.3967675925 6.5714924806
H -17.3179097398 0.2690981639 9.7202396036
H -15.2425918754 -0.163653318 8.9958185451
C -12.387668643 5.3365526236 11.2680321431
C -13.2042696025 2.8496932359 12.1652089093
C -13.1106554237 5.284644534 12.4579410965
H -16.3379470183 3.8737934653 11.680880473
H -17.0390349587 -0.4941033327 7.4544537553
H -16.9600779688 2.3826105173 6.5451097996
H -14.5206439633 3.543457177 6.486475687
H -14.5039980545 0.7122700333 6.6544941212
H -12.1610377383 4.3232009946 6.2823401562
C -14.4688923929 2.6781243069 5.8758198732
C -17.3753720547 5.0996457852 9.1161857784
H -16.4548789969 4.4450267171 9.1746260958
H -13.4343399683 1.8488562362 12.505280549
H -10.2332479308 5.7925827082 9.6450788435
C -13.4433829374 4.0077211809 12.9484653199
C -17.0000042178 3.3768996048 12.4337517269
C -18.4255783713 4.6415522565 8.3482633796
H -12.0586532907 -0.588025896 12.7540823869
C -18.0277614383 1.228450436 12.1094210965
H -10.3613741957 4.4392401957 7.3252203528
O -10.2095523784 1.1325851158 12.0544021299
H -10.3351109825 4.5070455998 12.9873786195
H -11.1936034608 -0.0788652673 6.3451255214
H -12.4957371106 1.7335377904 5.8755579661
H -14.9073269172 5.6904389652 6.6592247011
H -16.9510892272 4.6697367334 5.8514167802
H -10.1009331867 3.4141143409 11.718864975
C -18.0633067512 2.552980427 11.7325327995
C -10.8182416043 -0.8497355807 7.044020096
C -16.9063480621 1.064491422 12.9659272365
C -9.8113557527 3.5924619428 12.8183176914
H -17.3110799559 4.1742293416 13.0977255654
H -14.3201812102 -0.8996740986 20.3732460806
H -15.2647668361 6.1190406118 14.3157372017
C -14.8919477452 2.3915370988 18.7778223612
C -15.0481187604 3.1787888116 17.6145220038
C -10.339514096 1.3544291655 13.3922350148
C -11.2152900279 -0.8756463346 13.4377517132
H -15.1636574749 -0.9381676111 15.1625969686
C -10.1817450756 2.773690828 15.300381834
C -10.2129450605 3.0793898473 18.095113103
C -17.3804198754 2.8545194463 17.9387068569
H -10.0855986089 3.1595212239 19.2232138898
C -15.2387582705 2.328833082 14.0668532684
H -16.5811605856 3.6541529475 16.1163114501
C -10.8213565818 1.979766812 17.5121376286
C -15.9257924978 1.990847473 19.5899630089
H -17.7042475538 5.1779347258 20.0679861399
S -14.5141551084 3.7984688584 14.3165950622
H -12.6803394133 -0.5003576333 16.3479768819
C -16.4259906974 -0.1265558513 13.5556059246
C -10.7974193299 0.2992335293 14.1964264066
C -16.2970542958 2.3204174153 13.226120678
H -11.3542973559 1.3792419734 18.1956336802
H -14.3204094423 1.1949494247 15.7350635644
C -15.4966374643 -0.009248625 14.5776438841
C -17.2227001358 2.2523751259 19.1917534391
C -14.9317966285 1.2436449329 14.8370910094
C -11.5723369302 -0.6350580012 16.3523925566
C -16.3623942603 3.3361152331 17.1586341836
C -10.7081212977 1.7389326724 16.1474461471
H -11.1784954207 -0.4520362364 17.2970778561
H -13.8185795027 2.1668285735 18.8692842807
C -11.0620632778 0.5187241269 15.5552765867
H -14.1312051345 3.4697419489 17.0431167909
C -10.1775665329 2.619534386 13.9077306312
H -13.714852521 6.0437953593 15.3318372059
C -17.8982290356 6.2197414991 19.8351863842
H -16.8286069883 -1.1474476162 13.3496492348
H -15.3512141 5.000271599 20.3797481645
C -14.9229926998 11.7178527366 -4.6415861626
H -12.2315117547 10.5282821153 -3.6584590738
C -11.4284692626 10.3944616801 -2.9824639503
C -10.9705605391 8.9772588081 -2.8613426796
H -13.8281622433 11.7238799081 -4.7210380004
H -15.3624460336 10.8303884157 -5.029125506
H -15.0981056593 11.7409811795 -3.5719174883
C -12.1555526169 7.9537948676 -2.9771085219
H -12.6558625755 7.9530087753 -3.9699004027
O -13.3830020819 11.6990482591 -6.8957310469
H -14.3139974362 7.5607898062 -5.9805066814
H -11.8597406298 10.6938626599 -1.9980401026
H -15.9011098067 8.7878496386 -2.6603983936
C -16.4919400674 8.1017370105 -3.268265261
H -13.1541726464 11.2111231997 -7.6633312086
C -13.8915106313 7.9591484468 -6.9520500607
C -13.0374216869 6.9177351684 -7.5231738063
O -17.0419032067 12.9580570889 -3.616878888
C -15.5431554567 12.8529475867 -5.4311630382
O -15.0415967504 6.4618131868 -2.3110244835
C -16.1453919455 6.8151982688 -3.0819203547
H -14.4371253824 7.1713186835 -2.1615524854
H -16.1131912583 6.6117182068 -7.2696611231
C -16.0347143328 9.4321480813 -7.6188443448
C -10.197489053 11.2247495223 -3.4070063997
C -16.6591618144 13.5386373353 -2.4142150938
C -14.1112940316 12.7059750726 -7.4872454668
C -15.063395814 8.2368830255 -7.8974665121
H -16.8240289258 9.092876339 -6.9444440247
C -13.9243886886 13.0068252518 -8.8260773846
H -13.2896325094 8.8014076823 -6.7312371939
H -15.5068252671 10.3107391934 -7.2372720014
C -15.1139973554 13.3638697593 -6.7287777169
H -10.1431789757 8.723761216 -3.5766335704
H -12.8347821379 8.2294681981 -2.1691906442
H -10.4966370424 8.8789877689 -1.9140207825
C -16.6586547359 13.4634751083 -4.8474644503
H -11.4614499699 9.9682774328 -5.4980524663
H -12.0199104013 12.0687455912 -8.983077043
C -9.7613540282 11.2680386812 -4.723402829
C -10.4832401651 10.4867668834 -5.7942470027
H -10.6872807916 11.0134622554 -6.7603378824
C -17.5762644342 8.5323322619 -4.0213615904
C -15.8600986057 6.9700379006 -8.2606552118
H -17.7520287244 10.5939422605 -3.3501188991
H -12.348751498 7.3392391989 -8.304138586
H -14.5978400215 8.4386701169 -8.8475076239
C -16.5895298223 9.7377710163 -8.9886958635
C -11.6041318159 6.577770913 -2.868029213
C -18.1626915591 9.8328273162 -3.9815399146
H -9.9724580298 9.5507312343 -6.0494508254
C -18.2358499392 7.5517618426 -4.8493544182
H -12.3534332597 6.5588474585 -6.8008501203
H -18.322490412 12.3526183838 -1.8178421099
O -13.1811572564 13.9767715971 -2.8167915435
H -15.9210546294 13.5083934598 5.5417603941
H -18.399286124 10.7690276255 1.8146903679
H -14.3741583076 7.6167246876 3.5112976592
C -17.6154575139 13.1343045326 -1.4703647205
C -16.8904605412 10.4573200693 5.3719112508
C -15.6125593732 7.6790987063 0.9744492273
H -13.4131297683 10.1858121371 1.2747550917
C -15.0955162159 10.2062446374 0.031784103
H -11.6515794732 6.939851061 -0.7769959044
H -16.9921378925 10.1320291278 -0.9890116664
H -14.2749817102 13.1032580646 4.1451377262
C -16.9353305528 7.9609546983 5.0139715398
C -17.6532514709 13.6455161917 -0.2106875842
C -18.1953639331 8.8491184387 3.1663757385
C -16.2365433126 9.5791554142 -0.4313148562
C -13.7528765158 8.0120166965 2.7013197949
H -12.667725167 12.4680747425 4.6531389138
H -17.5086221605 9.724664648 2.9917620624
H -17.5413951794 13.0194013973 5.0626023289
H -10.507086187 11.1217787273 -0.6019815579
C -14.2595635618 9.579350544 0.9487304334
H -12.9751324151 7.2518219646 2.5074421345
C -17.9939236561 7.8671726554 4.1196641259
C -13.2330000934 13.4278951291 4.3739327337
C -16.5422862251 8.3196373851 0.0176058283
C -16.5205124033 6.7082409891 5.5294851924
O -14.6468191722 11.4006319733 -0.4546153689
H -13.2499048511 8.9037216159 3.0466455382
H -15.2419670004 11.7561153066 -1.0808274626
C -14.5470607762 8.4142389756 1.5433638893
H -17.793328988 10.722702411 4.8393476114
N -17.5519015391 7.3832944934 -0.3484201432
H -12.8553735403 13.6642045978 3.3910607079
C -16.173907869 6.3942011569 1.2352124589
C -9.813306693 11.915693253 -1.0746946229
H -9.828505506 12.7878773311 0.864171792
H -9.8373883341 11.1820323834 4.3836492504
H -18.4416301431 7.7495497834 -0.6072963895
C -16.3128350551 9.1502325556 5.5157098288
H -18.4506630323 13.8952383274 1.4298171194
C -13.2364771969 10.0341077065 10.8260859205
C -12.3402982119 8.9307284762 10.6908218312
C -12.8601061211 11.2811723142 10.2692239793
C -13.6496482682 12.403882151 10.5746349662
C -12.4325715012 7.7495838963 11.3688179484
C -14.6043780658 9.8910379397 11.2183611163
C -14.8561400527 12.2962539352 11.2344577467
C -15.3217032273 11.0171896441 11.4976387721
C -11.6924565441 11.3932757627 9.3720495803
C -11.221530025 9.1379689495 9.7824265603
H -15.0452645352 8.9705892478 11.5793457298
C -10.9297733586 10.3321956502 9.1301406366
C -10.4736430495 7.977588658 9.4988473116
H -11.4447317608 12.4415949703 9.1827828261
H -13.3026777986 13.4097544563 10.2172946135
H -17.2358280808 9.9669986755 11.7304021881
H -17.3777347414 11.7474447692 11.6898180027
H -17.1670550397 12.5157374083 7.9970912138
C -13.0020436406 7.669227894 12.6465212914
C -17.3260238094 13.3466924296 7.26827007
C -16.7335268916 10.9246599167 12.1070125726
C -15.0144514615 11.3526912444 6.6348676321
C -14.4952347543 10.126677414 6.8088126311
C -16.1757076033 11.542831707 5.9163119604
H -13.5957862553 10.1635919482 7.4036699432
H -14.5632676376 12.2652745051 7.0292905626
C -14.58614143 7.7195919386 6.6342236674
H -13.6189128759 7.5508265921 7.2431972294
C -15.2801307395 6.621909281 6.2633618686
H -15.3888852751 13.2122358014 11.5753651849
H -11.138542189 12.6008029781 12.5085977638
C -16.7531638674 12.9592276894 5.8810605937
H -12.62125831 13.1258751925 6.9454970678
H -17.0456548197 7.3041553068 9.290621579
H -10.2787120275 10.257198523 12.1997058337
C -17.6109879662 6.5064555105 9.7095444579
C -15.0964154389 8.9757505794 6.2229385891
C -12.0002963731 6.5801179529 10.75710928
H -9.8416502642 8.0576687228 12.9265120948
H -10.1832955289 10.3182427833 8.3259749256
C -10.8834984277 6.6940405204 9.9120289118
H -18.4622515802 10.6313853821 8.0746726592
H -17.4253144152 6.6043269092 10.8416686412
H -10.6201194282 6.9950999128 16.2090534632
H -13.2836053991 8.5908573282 13.1334070681
C -18.3789660806 8.8332476773 19.1678786942
H -17.9992955441 7.5546720479 15.1782954485
C -12.1489002988 11.3877743703 17.5917513532
H -16.8859234276 8.4617097025 14.1388227524
C -12.4853688594 12.4281971266 18.4847570479
H -11.9159369949 7.4411211206 19.0540152562
H -14.5725735932 6.3959661449 19.5469663385
C -10.6612738057 10.073005058 13.2218231428
H -13.3667202888 11.1373374474 19.8492152495
C -12.9023190641 12.1701646454 19.9276012337
C -11.9777641639 13.0643171689 15.7409040231
H -18.1019048143 13.6277918481 20.0674477952
C -13.414044167 6.4863341024 13.1592644759
H -17.5665062361 7.0850621031 13.4449682235
C -14.2201935371 6.5017076906 14.4591484353
O -10.583111569 7.0961746861 15.2863253142
C -11.4673783418 10.6894948913 15.3495114093
C -11.7353588467 13.3216275006 14.3970507888
H -15.9502953612 10.3282246206 13.9576271933
H -14.3586495362 7.5549719168 14.8386185234
C -10.3249853429 8.7728024837 13.6657649352
C -11.7283670992 9.07258961 17.1065963279
C -11.8879403597 11.6927356657 16.2149270971
C -17.9258477118 10.8841697968 14.5509018042
H -15.715049634 10.1010789276 19.851596928
C -17.2987922974 8.5203905668 19.9356769661
C -11.4383002557 12.3098886529 13.496011323
C -10.7460738617 8.3782338487 14.8983632785
H -16.2489648391 12.0244823117 13.8247584142
C -16.668405265 11.0203731503 13.6504134169
C -12.3700360391 13.7270711444 18.0788295481
S -11.8281523055 7.4636382283 17.7654093248
H -17.5577969878 10.2918918908 15.429095013
C -12.0484505599 10.0639386589 17.9792720433
C -11.2751461932 9.3676818165 15.8045215588
C -17.8175731008 7.95154691 14.1732461493
H -12.3268930353 9.7949398553 19.0023958126
H -18.3373857778 11.8429856419 14.8722112366
C -17.0479670916 7.2033046917 20.2867870893
C -11.1968091223 11.042882957 14.0159259213
H -17.2923136324 10.5828881523 20.3862881478
C -5.2629560452 -19.2556195787 -6.148443449
C -5.5201776808 -21.0188137661 -7.7568711192
C -4.8287887034 -20.483716688 -6.6456397611
C -3.9475674481 -21.2906961189 -5.8954075221
C -4.1992979446 -23.0165307221 -7.5863862127
C -3.6047606377 -22.580076176 -6.4180124231
C -3.5549088769 -20.8324401532 -4.6519983249
H -3.0077458933 -21.4880258148 -3.9383594587
C -3.7373310456 -19.4994382951 -4.3747696603
H -6.6735118557 -22.1881785024 -4.1792826084
C -6.7118757758 -18.9603303406 -8.0843823972
C -2.5999208635 -23.5020739629 -5.7751276417
C -5.1383361961 -22.2751711237 -8.2202152461
C -4.7746273505 -18.7391724139 -4.9504644099
H -3.3125953392 -19.176891838 -3.4373120218
C -6.171935268 -18.4684012568 -6.8621756311
H -2.7666451632 -23.524849317 -4.6913461966
C -7.2795586463 -23.0391258671 -3.8039803619
C -7.8244500632 -23.0679471772 -2.4939075285
H -6.5152152375 -23.1789206302 -6.0328744986
H -7.3904210543 -18.2797150385 -8.6155792909
C -6.4498452892 -20.2175356582 -8.4920056957
H -1.4337852701 -20.9053266389 -6.3328399627
H -1.4297919765 -22.5496101901 -2.4023845309
C -7.5130022967 -24.113575499 -4.6892468724
H -7.2529264896 -16.6186306421 -7.1312903897
H -8.704911231 -16.838534353 -3.1615875345
H -7.3101827353 -20.9502966623 -2.2094092213
C -6.1259334338 -16.7365673603 -5.2276023667
H -1.782486344 -21.9278288902 -7.8340822944
C -2.8212452466 -16.6867119583 -7.0164075003
H -3.9373339509 -17.3802659646 -2.753473916
C -6.6205249966 -17.2433692362 -6.4503945143
C -4.6744865268 -16.865845354 -3.3680645893
O -7.0421683464 -23.9413038642 -5.9540061513
C -5.2210667314 -17.5608090466 -4.4253942139
C -7.7838552627 -21.8697259878 -1.7128778931
C -1.2819916036 -23.5360142097 -2.0069776467
H -9.325478149 -20.7920623917 -3.6276676106
H -3.6699543672 -17.2365185622 -6.5944253853
H -0.9981989274 -17.2997439117 -5.9239408322
C -1.1595355245 -22.9238253699 -5.9996817989
H -9.1404848507 -20.1113893702 -6.9962613778
O -9.2475640681 -20.4619006667 -4.4789898944
H -9.6686994708 -17.3822814067 -7.514192616
C -1.103364112 -21.7707534148 -6.9401276667
C -1.4467647934 -17.30023812 -6.9453647636
H -1.2928538012 -18.3450170272 -7.2692231164
H -9.2488455937 -23.9816577898 2.0663332349
H -9.5733351821 -20.6822068426 5.5178100971
H -9.3498297089 -18.2181531383 5.5052400757
C -0.9172101383 -22.5530504913 4.6610051928
H -4.272019937 -22.0285371094 4.2216483995
H -2.1296882158 -20.3719429453 5.4722002251
C -2.6066731451 -23.9467398236 -1.3471154446
H -4.296473978 -18.8706597929 -0.822159999
C -8.9390810607 -23.0388586629 1.6390589515
C -8.684427874 -23.1118368152 0.2273204404
H -1.5514557572 -23.5096355808 2.2625321885
H -7.809723685 -19.9413688289 -0.2294957609
H -8.3322551305 -22.8312627436 4.1222075864
C -1.1702958667 -19.8416300048 2.2717093012
C -4.7065583842 -20.7353946667 0.2808623734
H -8.9347322488 -18.1229953925 1.0604798312
C -4.486413689 -19.2918674743 0.2205677012
C -8.6683887913 -18.2581053674 4.5654971807
C -4.2810728414 -23.8954694732 0.3169140457
C -4.6279730733 -19.3423880304 2.5794965813
H -2.2371634073 -20.0270208198 1.9232938734
C -4.6090617154 -18.8488525734 3.9290969728
C -9.057611278 -21.9759202306 3.829915795
C -4.9803581709 -21.2184464437 4.0732179746
C -8.0331193033 -19.5082336053 2.5385565002
C -7.9632008398 -18.2658823257 1.6566828133
C -9.084118058 -19.4538534129 3.7392507868
H -5.982708558 -21.6012477335 4.3463489
C -8.1723943358 -20.7606900723 0.3274637644
H -4.1236473953 -17.4591404823 1.4524425979
H -4.6237704187 -21.205159056 -0.6777282598
O -1.4099668028 -21.6498426285 3.7376106938
H -7.8203787926 -20.6177840624 4.9414038693
C -3.0995460976 -23.4366003668 -0.1736037046
S -4.9159703245 -23.2019166319 1.6826677315
C -8.3523871775 -20.7375177784 1.6862580341
C -8.9003890208 -20.712540456 4.6020861519
H -6.6389848931 -17.1196986951 2.8909512051
H -2.6657780172 -22.4460703111 0.1784870997
C -7.7246342173 -17.0549637697 2.4669423902
C -4.7027234421 -19.9432642025 4.7777890065
C -8.2548761197 -21.9290139792 -0.3840123598
C -4.4437635992 -18.5669710134 1.3856482698
C -8.7758802178 -21.8618106223 2.3554360814
C -8.7572503404 -17.0342841559 3.6583570951
H -4.5823646508 -17.8067243718 4.3166627729
C -4.8104985403 -20.7285004034 2.6766314838
C -4.8627083851 -21.4285081719 1.539280043
H -7.1834078468 -18.3785109098 0.816776887
H -7.0984641483 -19.6347767843 3.1385372939
H -8.6872279493 -16.6924546548 -0.7705211268
O -1.3263429167 -18.0574793815 0.6792600931
H -7.5977918095 -18.3232597083 4.9017033054
H -5.6856411069 -21.9269580297 10.0145569827
C -4.71380072 -21.5697157281 9.5590294651
C -3.7355669807 -21.4223526601 10.7394431893
H -4.8525951691 -20.6544818153 9.0016437102
C -6.8755402712 -19.4689989017 11.4629525046
H -3.2343027937 -22.4317124387 8.2348054195
C -4.2151476136 -22.7296362459 8.7381876499
H -2.7076471671 -21.4413672844 10.352206193
C -3.7933914144 -22.6050772093 11.6930209661
C -6.7313825147 -18.2383573766 10.8313051938
C -7.3399241309 -17.9546192373 9.6338148602
C -5.3250406513 -22.9747882371 7.7594907966
C -7.597821838 -20.4151685035 10.824403533
H -3.8785754743 -20.4459473167 11.2466994366
C -8.0336714866 -18.969598143 8.9731411969
H -4.854041919 -22.8286979397 11.9919290544
C -2.3730093053 -17.3196315492 10.5721177833
C -2.2367922487 -17.1283586619 9.1894586836
C -1.5325487616 -18.1717660359 11.2890909437
H -6.1028576873 -23.4138121198 8.3705369923
O -1.8053207841 -18.3426481237 12.5993387439
C -8.157278543 -20.1956345746 9.5361697438
H -5.6226314588 -22.0352422405 7.22894374
C -7.7054225336 -21.7239581094 11.4324464084
H -8.3730949014 -18.821776462 7.9265690731
C -4.1153500341 -23.9495770843 9.5750700214
H -2.7362457043 -18.1563241366 12.7403564199
H -3.3249304237 -17.0311963323 11.01979167
H -2.2219746676 -23.7545390114 10.7777632657
C -6.0348921915 -17.2644898224 11.4908874726
C -3.2748113743 -23.8759347209 10.9087526261
O -2.9210403316 -22.4460801768 12.8082332351
C -1.0240511459 -17.5653309942 8.5501625264
H -8.6772152482 -22.1388633124 9.209264597
C -4.9074464462 -23.9362730751 6.6402476883
C -1.4689455436 -20.846328914 6.2692313871
H -5.0558354904 -24.1913015544 10.0160427704
H -2.1295749095 -20.9890700138 7.1082483282
C -5.6138088445 -17.4699193514 12.788256084
H -4.7534569733 -19.838835949 5.860873996
H -2.3896873647 -21.6539513917 12.5920893226
H -4.3715218572 -23.4517527872 5.8674507077
H -8.56684419 -23.4564224547 11.512560137
N -8.7728111293 -21.3005117383 8.732524453
C -7.2520405429 -21.9116933571 12.6842547884
C -6.3292673701 -19.6540234763 12.7383224653
H -7.14474018 -16.9953334893 7.7878135627
O -8.3881821436 -22.806680215 10.8498837043
C -1.8519231391 -16.6837980346 6.4574278334
H -9.6448490819 -16.7505169483 11.4166003447
C -7.3367178168 -16.6939291349 8.8294076916
H -9.7000989293 -20.9888323844 8.5953903936
H -5.8643382604 -23.9992334748 20.0043906059
O -5.0040138606 -23.9658662508 16.6992915925
C -5.9444077202 -22.9002486051 20.1600561221
C -2.9164436978 -23.0063496857 16.3410956767
H -7.0154095163 -22.77201497 20.2811756629
H -7.5937636851 -19.9685559402 19.45477675
H -6.514112086 -22.0589393888 15.1510520701
C -9.5873355045 -21.5760713515 18.2332327661
H -3.6481478904 -24.007027619 20.0660740725
C -8.746243259 -17.6207996409 15.7002365266
H -1.399162284 -21.2079042803 15.261795469
H -7.2609934886 -22.9135046173 13.1756536294
C -3.6902735403 -24.0317567123 16.8127251239
O -9.1532929142 -19.7049753802 16.7955327459
H -9.0914104079 -22.4152959058 17.6297899115
C -6.9812777877 -16.9222057756 17.7671565201
O -4.4864422436 -17.9735188863 15.5144426382
O -7.126353041 -20.6614213737 19.8710343789
C -5.7097680073 -18.6568072573 13.5077076462
C -6.5923936593 -20.8703954159 13.3291473122
C -6.2917185692 -21.0305672427 14.7266754546
H -2.7769823927 -17.8788730589 18.007842628
C -1.7408108936 -18.2315945469 17.8912972195
H -3.464197546 -22.16494142 15.8071323912
C -1.5242087539 -23.1199290107 16.2785804264
C -5.2056082315 -18.917054169 14.8042506392
H -7.7388678626 -18.6144673208 18.8219491273
C -1.1551515439 -19.0732983485 18.8320855558
H -3.7788679633 -17.6402791125 14.8921485224
C -5.5131802401 -20.1012699294 15.427921466
C -7.8623624783 -18.0540845302 17.9230647943
H -5.2899215704 -20.3754514557 16.4915287319
H -1.8317987794 -19.4711953745 19.6460840591
H -5.5632035979 -22.4127153934 19.1587368711
C -8.6190073017 -18.388683808 16.8496867125
C -9.528728449 -20.1983684258 17.9874431215
O -9.5839075302 -17.9921261315 14.7059891051
H -1.5817913281 -16.607223082 15.4512346143
H -5.221652255 -16.9833431382 20.2927504061
H -6.8089021983 -14.787643471 -5.5793238872
C -6.3391669252 -15.4184518951 -4.8773169967
H -5.577208703 -11.4099989581 -7.3319132896
H -7.8617749159 -13.5222401658 -7.711741661
H -7.8517416088 -13.2047716656 -5.0812836013
C -5.8490756657 -14.8656290008 -3.7632455633
H -5.4134561871 -12.8710135852 -4.0809345221
C -4.9194992731 -15.569867581 -3.0556698124
H -7.4703038405 -10.8535446875 -4.2139463875
H -2.9041308937 -11.8492006801 -5.8238317882
C -6.1983479696 -13.4087434617 -3.594317629
C -7.61258614 -12.9845364193 -3.9885619777
C -5.5476501804 -10.8044903023 -8.2246444761
H -3.4641439468 -10.5965084835 -3.8594625788
C -2.638714488 -11.2899283087 -3.8307844336
C -2.3512739456 -12.1162308917 -4.8987963517
C -8.0180397307 -11.5455964245 -3.5604247972
H -4.8754851403 -15.2668888336 -7.4343937342
C -4.8680398624 -9.6370967574 -8.4889056693
H -4.1388564639 -13.7820563041 -7.7314563099
C -1.7709246627 -9.6523290406 -8.2258686108
H -8.2645266194 -13.6261292518 -3.3343336559
C -2.5860767722 -9.0869309408 -7.2474465478
C -1.7212082339 -11.699400577 -2.7779154642
C -4.1503170435 -9.0489753607 -7.2742650651
C -4.1153204322 -14.8064497528 -8.0475342132
H -4.4994212376 -9.598446639 -6.3446000266
H -8.9753294136 -11.1045648541 -7.5520933725
H -1.2901250318 -14.3080962155 -8.7685260968
C -1.2368028437 -13.2226203527 -4.6531295625
H -1.5525196323 -14.23694796 -4.719653802
C -9.0682704513 -10.0551135468 -7.3107516371
H -7.29242288 -10.0826839005 -6.0805581645
C -2.8678396223 -15.5230363279 -7.7709828504
C -8.1028512563 -13.2914867849 -8.7440920989
O -9.3815178615 -11.400087146 -3.8448474965
H -3.9531361343 -12.7010037043 -1.9701033486
H -5.6142232711 -11.1902390806 -2.1832021753
H -9.6701675251 -11.8531256722 -4.6553499261
C -7.6955802281 -11.276366921 -2.0700738011
C -6.0689748927 -13.2120462023 -2.0282872756
H -7.8929192626 -10.2440141334 -1.8831342123
C -1.5711584659 -15.2532088645 -8.2377971657
C -8.1379882814 -9.4614732714 -6.4586075241
H -3.1152274752 -14.8584234668 -2.0017732788
C -4.2058923481 -14.8614514421 -1.8727337184
C -9.582519792 -16.3227342485 -2.6963129043
H -6.090316356 -9.0820728041 -4.5902612654
O -9.6072496278 -15.1580831774 -9.0004400739
H -1.9576712068 -10.043648026 -1.3762743345
H -8.4697600349 -16.2049632267 4.3443068895
H -8.0956796977 -16.0080590122 0.8636224343
H -5.0310248849 -12.2644221843 1.5666690278
C -1.4669717646 -10.9903819321 -1.574127609
H -5.4174405463 -12.8888896784 5.5844462046
O -7.7366180737 -15.8403227941 1.7174512872
H -4.5344752046 -13.3132080849 -0.5706714234
N -2.324071697 -9.63152208 1.6211747107
H -2.3342204314 -10.3339899949 2.4097985626
O -8.0539180631 -12.4443079958 5.1221508638
H -6.8180002227 -13.8809382934 -1.4357584429
H -1.9653637877 -15.9769204487 2.4130283469
H -9.5959308051 -12.8033088977 0.3601773223
C -5.4650678675 -12.9194402607 2.3810575837
H -1.3648541635 -14.4939641473 3.1377205432
C -7.0836614371 -13.0670087531 4.29450436
C -1.7327915917 -16.2557643727 5.1358419348
C -4.6871197209 -13.4641399353 -1.6024256838
H -2.8720566589 -13.7353770047 1.591389012
O -1.0625689988 -10.8723953311 3.7120945339
C -5.0194497503 -14.5520315346 4.1955620541
H -7.2548681912 -11.6082296562 2.7178934118
C -6.2929715251 -11.7641330001 -1.6616311802
C -3.8729858079 -15.2092988346 5.0549806721
C -2.2445078892 -15.1683677391 3.0998542691
H -3.7394134967 -12.815024245 3.6600306225
H -8.4672448052 -11.8963448174 -1.5623608748
H -7.4758949298 -13.8977025334 3.6968276583
C -3.3591123472 -14.4286741592 2.310147403
H -5.9065785194 -11.2991773447 3.7138414215
H -5.6862071094 -15.3654817494 3.7015202809
C -5.9488740233 -13.6985349384 5.1106112309
H -4.4588338918 -15.4650839918 -0.9781332507
H -5.9873037519 -11.4716140863 -0.658384661
H -3.911675812 -15.152114952 1.6859353084
H -5.9819017318 -13.7390750109 1.8647759869
C -2.6988519808 -15.5890920734 4.4456530476
C -4.3329541171 -13.5696764345 3.1714809669
C -6.4922996329 -12.1242742118 3.2416928297
C -9.5358827335 -16.2265747688 -1.2898572582
H -3.1652363429 -9.1060476758 1.7339464404
H -1.1381535418 -11.3201023713 4.5436531134
H -6.9426132508 -13.5995430358 10.2943120874
C -6.470797745 -12.6230409807 10.5254337098
C -6.3467297953 -11.7423754671 9.2520989112
C -7.6932234366 -11.2389473087 8.8333185872
O -2.8837389186 -11.9925342888 11.8527602996
C -2.6919152368 -10.7173661425 11.3626429115
H -8.1895707902 -12.0115611315 8.2904134546
H -3.2262920172 -11.094692456 9.2869954782
C -8.7378267007 -11.6969217459 11.1267169662
H -5.8047918883 -12.1314597603 8.4229616534
H -5.4484581258 -12.9628634049 10.8322891715
H -2.2016548786 -13.4430746153 8.001768358
C -8.5853318682 -10.7054155998 9.9855033154
C -7.3661784814 -11.9458201047 11.6653872747
H -6.9533061264 -10.9076010158 11.7376945365
C -2.95767942 -10.3932448756 10.0547683577
H -5.7373541737 -10.845264752 9.6118217017
O -7.5498532957 -10.1725510619 7.9633938548
H -2.3410305244 -14.1677372804 10.4174137994
C -8.6279804078 -15.7521032971 8.7908144569
H -8.3315248515 -15.8042725144 6.6482803798
H -4.2023731505 -9.129640998 8.063633005
C -1.3965666502 -14.183090109 9.8993660594
C -8.9838644632 -15.4337122478 7.4808299846
H -5.0849360916 -15.7222576686 6.7606233405
C -1.3072857669 -13.6619338069 8.6334055782
H -9.2098880631 -12.6222829533 10.7759070722
H -8.2338882799 -9.7291340335 10.383825864
C -4.1736305967 -15.9141459217 6.2303375594
O -9.1888938799 -15.9594902632 11.1123139088
H -4.243999002 -16.3093039391 8.9006037989
H -9.5504939134 -10.4807781334 9.5161687127
C -9.5916526394 -11.1410387289 12.1784032944
H -7.8825484969 -13.5950368964 13.0297621474
C -7.3173863614 -12.6574518907 12.9667227623
C -9.516317317 -15.498707247 9.7962439985
H -1.6762463901 -10.2323517819 7.3161124886
H -8.4048881917 -9.8016213868 7.8027568755
H -2.8311599638 -9.6397716661 6.1745520978
C -3.146228068 -16.4085717817 7.0774630885
C -3.2978930141 -16.5935374537 8.4293868233
H -4.5623113316 -15.1128668203 12.6795903182
H -5.6968639299 -16.3129494162 11.0818611512
H -7.8779350063 -12.5707973584 6.0615843692
H -6.492936975 -16.0271548025 9.122743395
C -2.2787107246 -9.3411268432 7.0901447783
H -6.3809057223 -14.4333682135 5.9111375368
N -2.3346357846 -9.7944257216 12.2427341769
H -1.0536845703 -14.6597339553 12.4153458479
C -2.7920288855 -9.084807616 9.6318357773
H -0.9890680648 -12.904413297 6.055575082
H -1.2851447569 -11.6486765721 17.7588083543
C -5.3696517716 -8.9671440561 17.3146233944
C -5.2977129531 -16.1173904358 19.6299358363
C -1.07812898 -12.5730805379 17.2351113021
O -6.585228892 -9.0193681089 16.5357395109
C -6.0140338527 -16.173038827 18.4262531642
C -9.2118591978 -11.1462590853 13.4798153194
H -2.1261246939 -10.2367801633 20.401547958
O -3.6106152172 -12.8775099921 19.4070152472
C -2.5133996197 -12.019990698 13.1900206987
H -9.465930334 -10.1054874393 15.3138041577
C -6.4132451812 -11.2810945466 20.2295269638
C -8.0112752951 -16.3448217723 15.6132199821
C -7.2416560022 -16.2224752375 16.6585218488
H -6.2684945761 -12.8730177692 13.2208351584
C -1.154233949 -12.1076407126 13.5627373194
C -9.2301841079 -13.7841396947 18.6042252723
S -4.8448416913 -16.0858956717 13.5372942344
C -7.4286219632 -12.2011971387 20.0440412201
C -8.9113891287 -14.0631420989 19.9991110119
O -7.0934535247 -11.0474979121 17.963890116
O -6.5221539418 -15.0590445096 16.4244519904
H -2.9072261311 -13.1357781966 19.9709599037
C -3.4158890781 -12.0191807602 14.2380479496
H -1.764466292 -13.2440730874 17.7303682659
C -7.7533025686 -12.0774512224 18.7734790845
H -5.729178863 -12.7278937605 16.3663442141
C -4.9837338056 -14.0457438254 17.7138741711
H -7.1729597656 -10.7887186241 13.9157422643
H -8.0100013415 -15.7331233402 14.7018740917
H -4.5002818415 -11.8186276582 14.0480364397
C -4.7291200089 -9.0980270157 19.7235023908
C -6.2835671359 -10.574113963 19.0957306669
C -5.4043357619 -9.6164164981 18.6391527279
O -3.8005126508 -12.1509701374 16.6473263392
C -4.7848449768 -13.1249782573 16.5494365996
C -4.5793433999 -15.0194585038 19.949837306
C -4.3491603715 -13.9841786032 19.0157904868
C -2.9436480434 -12.1758242821 15.5551098286
C -8.5985634372 -12.6139836839 17.9348089246
H -4.5571365988 -9.3083475425 16.7356425048
H -8.6593346602 -12.2017452464 16.9126499378
C -5.7587404384 -15.1143870742 17.6685627631
C -7.9003787189 -11.6409256364 14.0142282889
C -1.6013347726 -12.3546261651 15.8558241206
H -4.5249531156 -13.8260153529 15.6947483622
H -7.9863914888 -12.053896148 14.9815328568
H -0.9346717019 -9.0121304655 13.7966482251
H -5.3008444753 -5.5369591557 -7.1144372295
H -4.7802892394 -5.3032446016 -4.2480545099
N -4.2528808071 -5.4851698843 -7.0385607035
C -3.8349225236 -4.973680731 -4.6354186826
C -3.5297388483 -5.0453474097 -5.9446626044
H -7.2129390688 -3.7146820942 -5.3659483852
H -5.2730851268 -2.852773577 -6.5703343705
C -7.760491265 -7.6284539616 -4.7659672061
C -8.2230077384 -6.4157690007 -4.1560385825
C -2.1824379537 -4.9862070568 -7.7262946471
C -2.2057770571 -4.6614911922 -6.3754127657
C -8.404387929 -2.3356289187 -6.2420717238
C -3.4565618111 -5.2303611023 -8.1811094139
C -2.8857569426 -4.5825050941 -3.6999004714
O -3.0611814523 -4.5674321184 -2.3776515844
C -7.4490325736 -2.7303915121 -5.1234715467
H -8.0706072987 -2.8515110503 -4.2841942391
H -7.1229074311 -2.947766513 -7.8277611739
C -1.6915052012 -4.1900783392 -4.1920070861
C -1.356926406 -4.0727693556 -5.4863773918
C -7.5083343512 -2.0400721869 -7.4285056489
H -8.9835481758 -5.750932817 -4.7316964622
C -6.1351518354 -7.7486214374 -2.9746617431
C -8.3176159577 -8.1137160221 -5.9836427796
C -6.6735932229 -8.2578377741 -4.1538365051
H -3.9666689149 -4.905267492 -2.1371615344
H -4.5197508057 -8.0344629803 -7.185920746
H -5.5365123333 -2.3235055167 -4.1598739519
C -9.2692666139 -7.3115705482 -6.6368872944
H -8.0055906575 -2.0201329261 -1.7647085002
C -6.191188175 -1.9069205226 -4.9552301166
H -5.4496541236 -2.0710614982 -1.6974443143
C -5.4354126784 -1.7962703844 -6.2858427692
H -2.0874605763 -7.9736019318 -5.4965968598
H -3.0258861317 -2.4579779384 -7.5826686643
C -1.2359789443 -4.6203291546 -8.7213929026
H -3.484800762 -1.56729979 -5.3027561631
C -7.7180186246 -6.0114995017 -2.9458001626
C -6.6622034988 -6.6588989676 -2.3328670258
O -8.2826521622 -4.8811213265 -2.2878836794
C -3.2966965099 -1.4454734233 -7.4462045826
H -5.3187157574 -8.4118124312 -2.4940921571
O -9.3100372042 -3.4486906437 -6.4510943092
H -9.3909323919 -6.2115835954 -6.5504979676
H -8.2829392311 -1.7438193291 -8.1787145326
H -7.6356653088 -4.4933154729 -1.7420035322
H -9.0941997471 -1.5228340408 -6.0579041659
H -9.315186638 -3.9905617394 -5.6894095365
C -1.7475705645 -8.5629104569 -6.2750127594
H -1.1064175587 -3.76092588 -3.4619147195
H -6.7807161874 -6.684622653 5.5296913952
C -5.232675206 -5.2989552345 5.468315537
H -4.3364937311 -1.5433882298 1.1712433279
C -9.5583602237 -6.9254288014 0.8913502078
C -8.2025512024 -1.4347675469 4.7855990887
H -9.2853799314 -1.550173581 4.8011004055
H -2.881204138 -4.8077968339 2.8380264264
H -3.5394349881 -2.3552512646 -0.2130550072
H -7.7553964218 -8.0493606417 3.5624202237
H -2.2151031437 -3.2963650968 2.0476672354
C -1.5919361326 -7.3480300792 5.4909479216
H -9.3500235233 -6.506682825 -0.1062912948
H -1.4294313472 -5.5085915741 -0.5418080237
O -1.9778753747 -1.732458686 4.008314153
H -6.2969486416 -6.2902772972 -1.3620356708
C -1.088157789 -7.7728339925 0.8325489022
C -8.427475048 -7.3489392974 1.6475856619
C -1.1437422704 -8.7953467911 1.7379776798
C -3.9668730982 -2.8977780858 3.2236263402
C -5.2846592974 -2.7936807559 3.0121922362
C -7.845242021 -2.1446534563 -0.6441762806
H -8.9947828229 -2.4677984032 1.1195099073
H -7.3751624985 -3.1716771475 -0.5697158948
C -4.5325929892 -2.1894225783 0.2836009188
C -5.4040298298 -1.3667059158 -0.7733663402
C -7.4524039292 -2.1654094392 3.9325767253
H -8.0363608825 -2.7977125721 3.263011893
H -6.0989807131 -4.7200058538 2.1157842721
C -9.179853029 -2.1597101785 0.0746323595
C -4.980480369 -7.0984193558 4.2827525891
H -6.7041330996 -5.8785151802 4.0012321804
O -3.6567907361 -5.5993590777 0.6449620896
C -6.0786719268 -2.069618551 3.8899000625
C -3.3433539059 -1.9804388777 4.0709476443
H -7.4824401064 -7.2586843275 1.1283844314
H -6.9206199581 -3.2002283696 1.5296018402
C -3.7160249166 -6.7939736039 4.8272484992
C -5.9374823523 -3.7081790462 1.8503085591
H -1.9209731771 -7.6904399482 0.0868924168
C -5.0383422529 -3.5661313991 0.6510808915
C -3.8375274566 -4.373809282 1.1240907858
C -3.1314364238 -3.8135962605 2.3285392671
O -2.6431641693 -7.6005191044 4.5905492611
H -5.5062739642 -4.0824889352 -0.2233026372
H -5.0793225305 -7.9163123305 3.6039673351
C -8.5961683739 -7.9441182672 2.8869908606
C -6.0579638547 -6.2616856438 4.803108913
H -1.0214874728 -5.8305866713 4.1284993729
C -3.8727374453 -5.5503525449 5.5447889187
H -9.5993507208 -8.7158750158 5.402005439
C -5.5054602997 -1.306857868 4.9421067763
S -5.2987460155 -2.8193198109 9.4031843323
O -6.0849840442 -5.1391687715 10.711232923
C -7.3967545437 -4.6934269181 10.7505998497
C -7.9157701205 -3.5385692918 10.0463214744
C -7.0386934935 -2.7107737218 9.2356878112
H -3.7321980524 -3.929327736 11.8183931092
C -8.2714030544 -5.4508898427 11.5155157269
H -3.2318294377 -7.5796835085 8.09238191
C -2.4735652463 -8.1440239526 10.5572879976
H -5.5374657353 -4.4649704474 10.2648943177
H -2.5213614256 -2.1086013034 11.3198060024
C -9.2723499536 -3.2187766135 10.0405451339
H -7.9499505536 -6.279785328 12.1607500139
C -7.6174950537 -1.6474446573 8.5170568398
H -8.299383453 -5.910896478 8.1995216416
C -2.1289476076 -1.9194164733 12.2808055476
C -2.9529292238 -4.6354414143 6.3219068328
C -2.2944195817 -8.5179834542 11.9202153704
C -2.400906825 -6.6225615487 10.2589639095
H -3.4223818653 -3.8590841605 6.9045543112
C -9.5618275061 -5.071924236 11.6226572738
C -8.9954593395 -1.5406632404 8.3446824663
H -4.4795400477 -2.1855953468 8.5549074082
H -5.5888053731 -4.3351041491 6.0053647337
H -2.4905646719 -5.3241495386 7.1267154692
C -9.1777009103 -5.620042339 7.7672024786
H -3.4547169674 -6.2239440051 10.226590802
H -9.0828112706 -7.5267460897 9.6143728486
H -1.2194168345 -2.1921530895 9.326931145
O -2.0487874071 -7.5318954119 12.8659971121
C -9.2237667874 -4.6556098781 6.7363568184
O -8.0845325688 -4.1284963342 6.3176775448
H -1.0799155072 -2.1200808998 12.1146374102
H -1.9440328327 -6.098228134 11.062617033
H -1.8511381807 -6.3125394261 9.360397865
C -3.4954705861 -3.8835769077 12.8702927738
C -1.2625527875 -8.2376569951 6.6006455641
C -3.1492033996 -8.7004037771 8.2253216862
H -2.1199600165 -4.1758102198 5.7574027427
H -8.2224757608 -3.2826844042 5.9764887315
H -9.2807482791 -7.6259825427 17.1526069402
H -9.1143391618 -6.6838431602 19.9442996792
C -6.542990762 -5.355328385 14.8053723246
C -9.5970703655 -6.0030701182 19.2631277749
H -9.5681814047 -3.0023519618 17.5428091411
C -8.6069018251 -4.5735240699 15.8821564342
C -8.8130243406 -5.789362782 18.0309585036
H -8.9141550802 -4.1924661221 20.0332188824
C -7.4265227502 -6.8385001872 16.3954728938
C -5.5304259918 -6.1775045229 14.433385002
C -3.0727006073 -3.6656040476 15.5415534327
C -2.7254139738 -2.867440018 13.3455073373
O -7.7506068718 -1.8441094548 13.1220934224
H -8.0691071914 -3.7404680029 16.3821023782
H -9.0264416977 -4.2662372939 14.9324776206
C -8.3808936045 -7.1227185306 17.4876284763
C -7.5244637056 -5.6498556975 15.7404892912
C -2.9675055431 -4.797896965 18.9896834679
C -1.5181156298 -8.0683878375 14.0698991692
H -5.2008003164 -7.9084919699 17.5475635554
C -2.3708840914 -2.8059096379 14.6092891866
H -4.8089051881 -8.174151332 14.7079526425
C -5.5499885298 -7.4344483144 15.0277051838
C -1.4037739278 -1.9354615576 15.2811543098
C -3.4219929149 -4.7452147779 17.5963251962
H -0.9321294547 -4.024266172 18.7507643062
H -3.8094875919 -7.8923035094 18.5067763797
H -3.3362506723 -5.6987319578 17.0147180052
O -4.7470207531 -5.893164503 13.3638833801
N -3.9527801631 -4.5839272559 15.1093668299
O -2.7833368178 -3.6763686825 16.8977609867
H -7.913097706 -5.1571051228 18.2217697441
H -4.4530473842 -4.4542585076 17.557214675
H -2.3659845873 -8.3255810247 14.7348873231
C -4.1333927497 -4.7409213526 13.7611196215
O -3.7890285735 -8.1520603577 19.4158351424
H -5.4693652545 -5.4411815563 18.7910097524
C -6.5308222927 -7.7930820845 15.9320363705
H -6.5855626788 -4.2955776074 14.44533357
C -3.8987247053 -5.156282394 19.9781759327
C -1.6827427858 -4.4376580305 19.4334058752
O -5.2537491628 -5.5090730229 19.6899122124
H -7.8271658361 -7.6430846897 18.2648356726
C -9.6022719925 -5.0687448386 16.9240289851
H -7.5588028049 5.3749290599 -6.2718661936
O -3.1472393368 4.2088922902 -3.3975577664
C -2.7630019382 2.9009806767 -3.5998639753
C -3.33125561 1.9132914855 -2.7797146686
C -4.00916436 4.7252819309 -4.3920341463
H -5.0744999929 4.5979292675 -4.0180990937
C -2.7578758809 0.653335624 -2.7536596641
H -3.9561274 4.0083668935 -5.2160464267
H -7.7626296545 1.6900646425 -5.4196749249
H -5.9200484334 0.6916327113 -2.5882810847
H -7.7040700494 2.1974274837 -3.0943387819
C -8.6804717763 2.7545420312 -3.2265808208
C -1.75924428 0.3959939086 -3.6344919885
O -5.6142368254 5.9919319367 -5.8548572546
H -4.0558081842 -0.0905812232 -6.0302518672
C -8.7076525314 2.2512507775 -5.6682252462
H -5.2108866012 2.9950930674 -2.3435783884
H -6.6914674278 -0.1645408081 -6.8418409288
C -3.6659084621 6.1266491625 -4.8016435698
H -2.3598291391 -0.8942260306 -7.5321869524
C -4.2113135127 -1.0318298241 -8.5717974244
C -1.7598090383 2.5814088691 -4.4625670308
O -3.917146063 2.9664000303 -7.8665691627
C -3.4276866981 -0.609795037 -2.1240264438
C -7.4730948458 6.3051448306 -6.8319673672
H -1.3673526417 -0.6236034602 -3.7127307466
C -4.5257429305 2.218168412 -1.9411780515
H -6.5111672188 -0.8511655362 -4.7017981868
C -4.0240185175 -1.1814329915 -6.1482721659
H -7.647703489 0.0529162818 -1.6865876219
C -5.59391417 -0.8856953923 -8.5020165061
H -3.8154095645 -1.2038002518 -3.0538386613
H -5.7128346174 2.6064005889 -7.5505982876
C -9.3095103856 3.257217796 -2.1396231706
N -6.608076304 2.9079516454 -7.9053831633
C -6.3121295215 -1.0804293624 -7.2641579155
H -7.0026677747 3.4144683265 -7.1380227071
H -9.0599402148 1.3498804867 -7.5257775828
H -2.9530903675 2.8995681251 -7.6789256347
C -1.2659736168 1.327149236 -4.5123826959
H -1.8040647313 5.8903303296 -3.0298103433
C -9.2791533646 2.8867393886 -4.5147846815
H -2.6149861891 -1.1212237054 -1.7131441985
H -1.2925854682 3.3861960236 -5.119147043
C -9.5165381018 1.9557118724 -6.7203249017
H -9.6990161177 5.6942541362 -7.8478827309
H -8.0012161356 6.3273231118 -3.1509233987
C -4.026317589 3.7155353858 -9.0071252109
H -8.5888392711 3.9826655588 -8.9697158986
H -9.593834669 -1.1763353741 0.4104398284
C -5.3776397105 0.9715079602 -1.6609412568
H -2.5175132207 4.2954338562 2.7394572806
C -9.6794143332 3.6611843633 5.2794673046
H -7.3679596071 5.0321136998 -1.3236547858
H -7.8705909351 2.0543801187 1.4238811385
C -6.8886637677 5.9151618546 -0.8037760859
H -4.3392422436 1.7114303727 2.0705914169
H -3.6174835735 5.4623990934 1.2279622488
H -6.1241300635 2.8919949415 3.7345852457
H -8.9668411529 3.2641529117 -1.0866164367
H -6.7886542764 2.2448040204 -0.7583653697
H -2.619107334 3.2884781041 4.14853478
H -5.1162861505 6.3029176658 2.8342647465
C -6.847209915 -1.0821494524 -0.2254627155
C -4.5491708 -0.1744792677 -1.1766261844
H -6.8175382682 -1.1024712104 0.8501713916
H -6.6687696602 3.00946062 2.1371219613
H -3.6989563258 0.0615969092 3.0814340503
H -7.010784735 1.354363093 2.779855137
C -2.5329112564 1.2446111429 1.9874689014
O -3.5633647573 2.0928765181 1.6431732102
C -8.6040618608 2.6917319059 3.2989633145
C -6.2621483773 5.9112584294 0.398564399
H -1.0208874219 3.7120581299 3.4011952343
H -5.891971911 1.3295066263 0.4106799931
C -7.3001566445 3.7523875767 5.0676907394
C -1.6691699971 -0.6994235899 3.1150311457
H -4.0523718579 0.2068599483 -0.221560663
C -1.2369305839 1.3565350621 1.3578850108
C -6.4021689083 1.2686585319 -0.5595207742
C -8.4992263106 3.3063607057 4.5677595039
O -6.1299256508 3.5670528663 4.4499184692
C -7.4221090352 0.1837588101 -0.6416607809
C -2.0325627613 4.0808124884 3.6743210307
H -6.1575811825 4.9946470294 1.014359811
C -7.473895721 2.2596033726 2.4030386211
H -1.5196331755 5.9070699186 1.8209647528
H -8.3195126686 0.4237154818 0.0027731994
C -2.6560999596 0.1752330294 2.79763018
C -1.9861503184 5.3291999571 4.4873523643
H -2.40935331 3.4210658058 -0.4297761923
H -4.2524208164 2.62842193 -0.9934618669
H -3.3994674095 0.6858919981 5.6213415457
C -7.67976995 -0.5366831281 5.6584505573
C -1.307493132 3.175443828 -0.4736963985
C -4.1441579585 -1.2764408424 5.0005740775
C -8.6951757869 1.6381496745 10.3517542767
C -6.4062306172 0.939038783 10.3644618498
C -7.4493558826 1.7266898407 9.7527518613
O -7.2568979163 2.559862024 8.6868123386
C -8.9569830436 1.0079031644 11.5746408379
C -6.7212360188 0.4416422309 11.5142975703
H -8.1027807175 2.9813197402 8.521324952
C -5.0456362951 0.8756449434 10.0513975508
C -4.4664847901 0.2807035743 11.1380700842
C -4.1534521011 1.2997020019 8.9523926241
H -4.3521525693 1.8786729944 8.0073927742
C -2.7993804022 1.0770946033 9.1520169582
C -7.8199007966 0.3315610513 12.2744085327
C -8.2905505311 4.6296268853 6.9832855979
C -3.1321110918 9.839360389e-04 11.4190195213
H -8.2790659819 0.7938062292 7.2524458657
C -8.7112393469 0.2064039414 6.4940944464
O -5.851434549 0.6696104394 6.3680926533
H -9.5168551011 2.2647125262 9.9973672549
H -5.4684982845 4.1020387825 7.4277097798
H -5.6655634961 5.2506997529 9.5321789066
C -5.8744063113 4.913829211 6.8688458777
H -4.6774648902 3.3121687223 12.0184249465
C -2.305783791 0.4286032558 10.3073305671
H -8.2576152106 5.0284921735 7.986920175
H -2.3423238503 3.1847314507 6.5458429719
H -3.1930691384 3.9417978393 11.4800879805
C -3.8386846018 3.9211251709 12.3294888265
C -3.377679222 -0.3746568858 5.9104581131
H -4.0135026284 5.005635647 12.4838700919
H -3.75345378 -0.377583788 6.9283683556
H -6.5961261101 1.2471377564 6.6129711666
O -2.0831699479 5.2383171156 8.8573179182
S -5.3250012698 -0.3516291336 12.5803286086
H -8.7070476248 3.7030800006 12.8910230868
C -5.8764116404 6.2355959397 8.9396330402
H -2.0516943803 1.4305632048 8.3758570347
C -2.4592904886 -0.4905567478 12.653318755
C -2.1011798741 6.313952863 7.9990343529
C -1.9186966643 5.2175065577 5.8866785655
C -9.5123800416 -0.6957888979 7.3532281009
H -2.300588674 4.4263869023 8.4820802937
C -9.5345601022 4.2647239984 6.5334701142
C -1.5051081569 3.8836785929 6.5222087754
H -4.601802465 6.2664903283 11.000870059
H -1.7665010203 5.201209142 12.4405009099
H -5.0992570649 5.062225461 5.9879065622
H -1.5222740623 0.0556565406 12.8911301741
C -7.1505043817 4.3917127194 6.2810087556
H -1.0090504564 3.7668478379 11.6515468777
H -6.9313057347 -0.8327726599 8.2664180835
H -9.2139788362 0.860786979 5.8263797641
H -2.3602920853 -0.6099126349 6.0556616627
C -6.0097044034 6.2090905471 7.5783809577
O -0.9145338858 0.2108332075 10.4088125126
C -1.0952788273 4.3112113599 12.6381998945
C -6.3067766875 -0.4319674653 5.702338778
H -1.9050517017 -1.1075700262 15.7881363748
C -6.495038454 3.7109600531 20.3529015231
C -5.2346721304 6.2263524391 16.1705519771
C -9.4803453851 3.8565590019 15.9894176409
C -9.6332328882 4.1032740376 17.3203140383
C -3.9890605101 5.7844519412 16.7480633027
C -6.3938635713 6.0416734793 16.8771772169
C -7.8092389086 -0.6877615261 13.3361816155
C -1.9068831107 0.7915366687 17.7277131274
O -7.7341850651 -0.2171999025 14.6561639917
H -8.2731427785 5.1906158473 15.8469585194
H -8.1719463113 0.6195154084 14.7540086796
H -7.3052025102 -0.1925114428 19.6506558589
C -3.9188545888 1.2558632159 16.6160826324
H -3.0296195521 -0.3978348437 13.5678928091
H -1.8680805842 4.0300763218 20.4092183489
C -1.6558295061 5.150192018 18.0342638337
H -9.0474395146 6.1795613904 17.5291005065
C -5.1961806226 4.0550167527 19.7625695194
C -7.674701518 4.2447097583 19.8860890946
C -5.9642812117 2.0868740413 15.6762970096
C -5.3046954307 2.760664907 14.7159914068
H -7.1790621305 1.0587274421 17.7727677918
C -2.882276346 4.8091526182 18.6691099233
C -9.0527906368 5.2608782753 18.1024798909
C -3.3157958284 0.6161771814 17.6607451566
C -5.2167922241 4.8550352177 18.5963512546
C -3.1774312441 3.2462570805 13.5189143204
C -5.4869436245 0.0711546187 18.7131467758
O -6.0548314555 3.5953254897 13.9666181578
C -6.0982537211 0.7705405659 17.7202939344
H -1.447397382 0.4267103634 18.6547440545
C -3.9690687882 2.5198411279 14.5175853378
C -3.2609407776 1.8908774334 15.6077428091
C -7.666500318 4.9403907947 18.6933325109
O -8.7835036587 4.6672105218 15.236543576
C -6.4376741378 5.3355611397 18.0801806491
C -2.8439063545 4.2049753449 19.9335952093
C -6.2048276035 -0.3903558439 19.8087006746
H -6.9787175024 3.1909498267 13.9489473137
C -4.1392490388 -0.0240970871 18.647804356
C -1.8954034472 1.9473687024 15.5751232372
C -5.3718329939 1.327691739 16.6566567698
C -1.2230199686 1.3674963128 16.6643433028
C -1.8327870469 3.3844035854 13.6260990067
C -3.5778974466 -0.8870247134 19.6605018725
C -4.0555324031 5.1224130379 17.9719882953
H -7.048031801 2.225474304 15.7974452146
C -1.1964414921 2.7522720271 14.6242753391
C -1.6086128949 5.6228720297 16.7893208775
C -2.7480707454 5.9484495956 16.1088013087
H -9.6647678118 5.5333121203 18.9389804402
H -2.5811422728 -1.2122304715 19.5370830277
C -7.205395765 8.2766168332 -3.5632848592
C -6.6137718944 9.5062874206 -3.0803751014
H -6.038084041 10.2898994721 -5.021441162
C -5.9813216919 10.4961424417 -3.9397799885
C -5.2728986834 11.5363294703 -3.4457019383
C -3.3125515559 8.7521686419 -5.9742986719
H -3.2087518959 9.7011964066 -6.5621733271
H -7.4898290251 8.044672982 -4.6228940157
C -2.4524783966 8.2195193209 -5.0159295442
C -5.6870161953 8.0229902158 -7.026995245
C -6.5730957861 8.8014513301 -7.8232719276
C -4.4866167561 7.9908220323 -6.3386070105
H -4.7685447268 12.2624599347 -4.1422560134
H -6.2636128413 9.8120183452 -8.1744843862
H -2.7748108622 12.844410772 -2.8234971849
C -8.3128989014 12.0857251892 -6.5013842433
H -3.3645808448 8.6397677269 -2.4171655069
C -7.8777922919 8.297495366 -8.1699205907
C -2.417626942 9.18452925 -2.1977787836
H -7.2034836157 12.1948966363 -6.6072979994
C -7.5521233401 7.2355983792 -2.7548089923
H -1.4114888907 11.5465267593 -8.4464062574
C -8.7160004086 12.0777540261 -5.0773491407
H -8.4273411426 11.082324506 -6.9120357006
C -1.3740419636 9.4494539758 -3.0577083381
H -8.9069018586 12.7073869054 -7.1879289082
C -8.5647515761 13.0148180522 -2.8351820734
H -4.2861817372 13.1210931315 -8.2307033566
H -1.2860595014 10.1034985134 -5.0581380038
C -8.1920028234 13.0504441754 -4.1963289045
C -1.3340315714 9.1241445538 -4.5836328236
O -9.5822748273 6.6768048185 -7.9246046318
C -2.5253763586 6.9413143971 -4.5344912924
H -2.5486086124 13.8110966357 -8.0859057504
C -4.4439864156 6.7770226452 -5.7214441597
C -6.3155095573 6.9243259977 -6.6142724232
C -8.3293121815 7.0691472851 -7.6544556055
C -9.4623220621 11.9846679241 -2.4335258586
C -3.6347832945 14.0073560596 -8.2723316565
O -1.4775919597 6.5514283719 -3.619530547
O -8.7089478426 9.0372445247 -8.9763934564
C -3.2070591272 13.2487840532 -1.9203207908
C -5.1000370041 11.5751267725 -2.0271606324
C -6.5045262628 9.5485622823 -1.6818911438
H -2.5778674612 13.7295438134 -6.1068414329
C -8.2834912866 13.9972636937 -1.9318990141
H -1.0198233325 14.0037581317 -2.7557302675
C -9.4545117583 12.8457038568 -0.1506360929
C -3.4789394756 6.5481212768 1.5127897935
C -4.3021792624 12.5681981412 -1.3358082135
C -2.2043347527 6.6536309243 2.2983857097
C -8.2332703192 10.8565189982 5.2998871795
C -2.2105639604 9.8206522212 -0.9709276989
O -1.4131248384 12.0553269203 2.1804665234
H -6.787674802 11.8913908233 2.497216987
C -7.0986794618 7.2309500014 -1.4318849752
C -5.6252139938 12.3502269265 0.6830613429
H -3.3478691825 7.0309203559 0.5152247155
C -2.5947741978 10.0727156318 4.6224406974
C -4.8315939094 7.016044784 2.1173192562
C -2.3239038287 7.6956778971 4.5514561555
C -2.1352821794 6.5414581092 3.7952629512
C -4.7537585213 13.102742243 -0.0928464763
H -3.9426375226 12.3701479436 5.3092246325
H -6.7081927008 10.6520374624 0.8140882154
C -5.83927295 8.2435214344 0.3113325284
C -6.5115424333 8.4136773125 -0.8981363953
C -6.1199540518 11.2236018057 0.1077147892
C -7.2013079767 8.6135905748 5.0061030116
H -2.8768682411 9.6524959292 -0.124032809
H -6.6741668937 6.5892745185 4.9336357036
H -2.8548942654 10.9948841284 4.0602067636
H -5.3330774473 12.6277023512 2.9763275761
H -4.8255055298 8.023600619 2.5562360522
H -2.7606631747 9.0828090635 2.8018883662
C -2.617957717 8.9159895744 3.865956461
C -6.0362341121 12.6526684196 2.1460585666
S -7.6742985989 8.511680421 3.3380877752
C -5.7071686995 7.0498614299 0.9136959757
H -8.2704561502 7.429258868 2.8390425237
H -6.563572574 13.6725565863 2.1596301637
C -5.8872748973 10.7284678243 -1.2600666953
O -9.0204699049 10.8010028183 4.188759398
H -1.7223804786 7.5907459686 2.0863620784
H -5.4375790762 9.1220401624 0.8185005509
C -6.7319904889 7.4625486438 5.5418513902
C -8.7274031728 13.9808967535 -0.5801267926
H -0.9262633305 11.4552198594 -0.6246653231
C -5.8769887628 8.6256684773 8.9617974909
C -5.7090368487 9.8331320778 9.5966555889
C -2.1185313957 9.9666827122 8.7765721474
C -2.034202289 8.7627935939 8.0332257439
C -2.5405922841 11.1836975178 8.1656773592
C -2.9346386616 12.1652446446 8.9956707502
H -2.8289162487 11.988201824 10.0801892277
C -2.7322400824 11.2130830444 6.7734622821
H -2.1875560934 9.9031534977 9.8728706911
C -1.9934204549 7.514314235 8.6649907085
C -6.2076783329 10.9872757031 9.0089019472
H -6.0945357587 11.9931752583 9.4993316029
C -6.4065148576 8.5623914553 7.6288816365
C -6.8328149009 10.912152498 7.7825370752
O -5.1108976633 10.0170873514 10.8140589413
C -6.3412647458 7.3719544177 6.9154501635
H -5.1657649522 10.940580094 11.0166488507
C -6.8382243958 9.7071438491 6.9814704637
H -7.5781955938 12.8710224124 7.9178172372
C -7.6041831798 11.9926019925 7.29496229
H -1.8641620037 7.4042304755 9.786331561
C -5.6414134451 7.3842088262 9.6490681927
C -8.3538330898 11.9369677762 6.1523880936
C -2.24413205 8.806367842 6.6590299297
H -8.9662375403 12.7577444228 5.8882863083
C -3.6766601193 13.1899881061 8.5609591058
C -4.042622129 13.193644015 7.2125591531
C -3.5647394817 12.2276681779 6.3588806856
N -5.1196455452 7.1046753291 10.9418289733
H -3.4501454026 13.4824201995 11.4521047895
H -4.5495047739 7.8756742679 11.3510482342
H -8.1949101486 12.920816789 11.9659995426
H -6.0471369828 12.1968739036 11.9199349161
C -2.0532818444 6.3930460845 6.6255497454
C -2.4551659872 10.0450610587 6.0159411915
C -7.4347152116 9.7931296191 5.7375165426
C -2.2204612865 7.6324047137 5.9374553493
O -8.5642368409 12.5784803268 12.75696795
H -9.6827196961 8.0882990488 8.7680493506
C -6.1817824397 11.827616727 12.9601837002
H -5.8258004528 13.7536510995 6.1589058003
H -1.3308507094 8.7833637775 19.2165891389
C -6.8126889992 10.9463025462 15.5637195865
H -9.4131434087 11.4015310199 19.2213027284
C -7.5421367282 12.0010011571 13.4695201676
C -8.1589152965 9.5156545878 19.2819267548
H -5.3708811354 13.6684920425 17.2913426025
H -3.4695961282 10.0492048213 18.9445305977
H -5.628591641 11.284001566 18.1236237606
C -3.7087451093 11.9952247305 18.0282815881
C -8.6629928105 10.7772457384 18.7385014874
C -7.1496094158 10.5155638384 16.8732343986
C -1.5383535149 13.0201575072 17.2915527866
H -6.9227831119 7.7832127512 18.8784968793
C -7.7441526099 11.6579745045 14.7943606225
H -5.8649827532 8.6719078235 16.9532419965
C -6.6849087016 9.2804659068 17.4554981593
H -6.4573792955 7.8636234506 14.5430389206
H -3.409364753 6.3984688825 14.3286889342
H -8.6965336911 11.9328727862 15.2342471885
C -8.1347713814 11.262677553 17.6110233446
C -5.1530941372 11.2557604146 13.7539616841
C -1.5836331768 10.8111916407 18.3963296299
C -2.9549540445 13.0652327752 17.3446963695
S -5.2517334848 7.3470830345 14.7997639429
C -7.180600804 8.7998295514 18.5678444066
C -2.9907727323 10.9156250943 18.4327348936
H -4.2068299298 10.9167465827 13.322815005
H -4.7460059345 10.3112782289 15.7291309654
H -8.580873982 12.1869551807 17.1717083726
C -5.5111801528 10.7904097537 15.0363698083
N -5.0765894125 12.1003506642 18.346983653
O -2.6336159805 6.5884120773 14.8689779813
H -5.5192382614 12.8363527974 17.8824705381
H -7.3737411276 6.4507535541 16.4524807472
H 0.6428196373 -19.9276661958 -6.2964240301
C 1.9953189009 -18.0600230193 -5.4579222379
C 4.6119821059 -20.1788874467 -4.1283299317
C 4.1966428013 -21.2999588368 -4.7953653968
C 4.8840965288 -21.7159720226 -5.9005849724
C 5.7252899751 -19.4820603085 -4.5275201301
C 5.9985877486 -21.0189858096 -6.3831920162
O 5.9953928352 -18.2876768315 -3.9040101825
H 4.4259812494 -22.5825472433 -6.3819835159
C 2.8579561053 -21.940832197 -4.4524522704
C 2.8994632526 -22.1560642588 -2.9418888218
H 2.0593120749 -21.2495381095 -4.7101085979
H 1.8529659439 -18.9518229633 -4.9243978563
C 2.6802773011 -17.9472534138 -6.6448633556
H 1.9454223778 -20.3223906551 -2.907434902
H 2.706681839 -22.865022021 -5.0174958043
C 1.711628938 -23.1446931906 -2.6439233965
H 3.528273823 -18.7636339391 -2.9530824495
H 0.9199602427 -22.9117920656 -3.3768573501
C 3.9108965188 -19.80907341 -2.8080124095
C 1.0502604258 -20.5444628159 -7.1086956224
C 6.4579155337 -19.9541375469 -5.6115269797
C 2.7533976364 -20.7382068431 -2.3948912407
C 3.1099586045 -19.0780606759 -7.3785399046
C 0.2345095281 -21.561514387 -7.5454167637
C 0.7296033786 -17.384573827 -3.5455665839
H 3.94689864 -22.6193299787 -2.6642979946
C 2.3411976968 -20.2728760708 -7.6209033072
O 6.5083472783 -21.3959431826 -7.5584881518
H 7.2869101949 -19.4083435401 -5.9924612565
H 0.1298510829 -18.2437926235 -3.9285698914
C 7.0673151181 -17.5882219666 -4.5369885286
H 6.807261907 -17.2236138826 -5.550331443
H 4.6800300012 -19.8061261692 -2.0208272722
H 1.3202712071 -17.8180163665 -2.7437364892
C 1.5171394358 -17.0086435859 -4.7718038984
H -0.8929147718 -22.5460713583 -4.9552140199
C 0.6863750558 -22.4434165778 -8.4483649803
H -0.0196774738 -23.2243501082 -8.7253814959
H -0.0615232504 -16.6635690519 -3.2600459591
C 4.9921124433 -17.6368326738 -8.1799976423
H -0.4330386822 -23.7482299151 -6.1241995266
H 7.7326509669 -20.325693182 -3.2411603233
C 2.7843431695 -21.2227651232 -8.5633127369
H 5.7682888299 -17.5952159481 -8.9269210963
C 4.2371974739 -18.8755545623 -8.1882954809
C 3.0986940538 -16.672331303 -6.966131089
C 1.9857651694 -22.3275332174 -8.9398305625
C -0.6372582389 -23.916502577 2.7110142431
H -0.8165599452 -17.4589347843 0.1674493756
H 0.3711116792 -20.964560077 -1.4885091882
C 5.9496416177 -23.1354939776 -0.0958434921
O 2.4820410903 -22.1844040257 4.1902649256
H 7.3552028932 -19.2072163797 5.2429659677
C -0.231419183 -23.6826134991 -0.9579394298
H 0.5073299121 -17.4675337589 5.5428782731
H -0.629514525 -23.2076574273 -0.0441063783
H 5.4958755024 -24.0257142825 3.4124788804
C 3.8786028199 -16.848593045 2.4970721717
C 6.4945920146 -23.8541723813 3.8430472851
C -0.6445059404 -18.7347644706 1.6723616822
H 7.6265559082 -23.519069609 -1.3021449953
C -0.4421809485 -23.7610507866 4.1823604693
H 0.2443205334 -23.3442897751 2.2393969747
H 5.5921754763 -19.1717684383 5.3714727081
C 6.4298405523 -19.7784846441 5.0440822144
H 7.1485713146 -17.5394876991 3.256875458
N 6.1100795266 -22.0511329449 2.050047503
C 1.0463795511 -21.484659947 -0.7409509286
H 7.1023216321 -23.7249905129 2.9941460485
O 1.8092587763 -20.684227304 5.6403790096
C 6.9365722479 -23.9528862169 -0.6534000929
C -0.5821431433 -20.5870965505 3.2772022908
H 2.7584292512 -22.5836833772 5.0050555816
C 1.1336455354 -22.9879107276 -1.2304700379
C 1.2465388819 -19.2190215911 2.95630208
S 2.8954478845 -18.9775775253 3.6611036156
O 6.0801631869 -21.8355836444 -0.2015959953
C 6.2346283493 -17.8470543626 2.7109128561
C 1.7236920387 -21.0736130206 4.5824207021
C 6.1542673967 -21.6692500936 3.3206363511
C 6.0547432496 -19.8745567499 1.2010230662
C 0.7488569588 -18.4563084469 2.0092531237
C 5.029017601 -17.1556202327 3.4288717042
H 2.1028606419 -19.6637506803 -0.5204701137
H 0.5978161508 -21.4474150303 0.2587431021
C 4.9207580181 -23.7641404685 0.5590903292
C 6.0592684782 -21.2303284082 1.0179730981
H 1.8170759716 -23.5395849297 -0.5814852272
H 5.906601817 -19.1826038334 0.3817013284
C 0.7931130321 -20.3067870266 3.6730399938
H 4.0369566649 -23.2250351592 1.0398876785
H 4.7599137952 -17.5730672993 4.4112866226
C 2.7625351572 -17.5572993661 2.3658360884
C 6.2031500126 -19.4174754286 2.5162489013
C 6.273295662 -20.2575307147 3.5932212991
C 1.6405351874 -17.4860992125 1.5737730757
H 6.3551798165 -17.464669773 1.6638236987
H 3.0592630099 -21.2477277487 -0.2873597069
C 2.3409175619 -20.7028555907 -0.8969809368
O 6.3361759737 -22.5670851945 4.4061251528
C 1.4561571402 -18.0743941499 7.376927073
C 1.1895945685 -18.3949395881 8.7755362417
C 1.8410185471 -19.5476545621 10.8083869371
C 2.1529271701 -19.1271319404 9.562727961
H 3.3398341993 -20.0473287306 7.9564100416
C 3.4637413502 -19.6741736012 8.9855381776
C 4.4184444357 -18.4752667935 8.8751301386
C 5.7666960696 -19.1165435006 8.3779265908
H 5.5349841199 -19.9699558224 7.7950282945
H 3.958973306 -20.4565827822 9.5259137355
H 4.5421910269 -17.8986616181 9.7751778894
C 2.849366639 -20.1592887199 11.7430363508
C 6.995768465 -19.210081168 10.7140717811
C 0.6739968054 -19.237667381 11.4248192989
H 6.1464349613 -18.7209456951 11.1723041943
H 2.3502221363 -18.3575817078 6.8163223098
C 6.8726568144 -19.4436143561 9.3584761879
H 4.7658936195 -22.2588813615 8.5633824331
H 4.0713655668 -17.8065462072 8.0441506012
H 6.2660756918 -18.3433658428 7.7400327868
C 0.3928922545 -17.6451565626 6.6128888925
H 3.8684366568 -19.7711981198 11.5263361615
C -0.0876731192 -22.7567853834 8.2208073226
H 2.8966812894 -23.2119543559 9.7564603283
S 5.6818750679 -22.8368870434 9.3655439948
H 2.9074191016 -21.2781566644 11.7603142721
H 2.6387374417 -19.7138685299 12.7087042351
H 0.9958707819 -22.4448101317 10.8077713241
C 0.5400928556 -23.4233864918 10.5771770004
C 0.3328389757 -20.1039147437 12.7095482775
C -0.8280429846 -17.2831187337 7.2016915059
C -0.0611681785 -18.1649771258 9.3315874958
C -0.3211438282 -18.5054276487 10.6606056579
H 5.9369387505 -23.9160839849 6.3677230206
C 0.4384496588 -23.7275541562 9.0635380353
C -0.3138547187 -23.111997354 6.8719412749
H -0.5261715613 -23.3346929519 10.9637738504
H -0.0378136029 -21.4514905112 9.5674058799
H -0.6117844255 -20.5456170976 12.4642729335
C 3.4779237701 -23.7326923592 10.5573962771
C 4.8449213605 -23.6718004798 10.615532808
O 7.7104976492 -23.4952220414 11.1594093507
O -0.2824630714 -21.4880311166 8.6663768092
H -0.7987940177 -20.05236607 6.5320771129
H 0.9586497958 -20.9775949047 13.0233092718
H 6.4245986643 -20.5878265407 5.7708580112
C -0.8429256201 -22.1948677752 5.9739176607
O 2.6236325604 -23.1509847091 16.0178743336
C 0.5022928689 -16.8941854078 15.117111301
C 4.2754221212 -17.2892882322 17.543678534
C -0.8358814635 -22.0614981544 15.6695764792
H 2.4559923195 -17.6650752893 14.7866428598
H 2.4587377593 -22.9757036068 19.6551887602
C -0.6782052338 -17.0859889578 15.8266325821
C 4.731275895 -19.8529386156 20.3437269004
C 3.9516530325 -20.9475392468 20.0876220818
H 0.0710226111 -19.548929315 13.6691595105
H 6.1078834596 -20.5612930355 13.1242234824
C 7.5708480978 -24.093006044 17.344668734
C -0.6856775348 -17.9235777213 16.9275865476
H 0.9315653456 -19.2107833027 19.2495375577
C 7.1541575621 -21.9212826182 18.2069422
H 5.6813479201 -19.7827564293 19.7741788034
C 4.0762094653 -20.6364490446 14.7115536023
C 0.5484757729 -22.1159687112 15.6335467704
C 1.293306931 -23.1733861696 16.1147291961
C 6.7210136496 -23.1608400949 18.0112401356
C 6.080952328 -19.6336366065 13.7806592266
H 5.7502630895 -23.5016010658 18.4187370555
C 1.5799676342 -17.7005779331 15.4661000392
H 4.2436524994 -21.3330417364 15.5890106374
H 4.1851360201 -21.2524313399 13.8390308955
H 3.1127239546 -20.1254484854 14.72377954
C 7.1836430887 -18.7598378175 13.6560310526
H 0.3378132325 -20.644857722 18.4196534081
C 6.3127000148 -17.713244722 15.6700899956
H 1.0076373503 -21.1971579201 15.2125922756
C 4.2828946232 -18.4230229775 16.7506718672
S 2.9182731127 -19.5472758798 16.9244750046
C 0.4039262778 -18.797455568 17.2081163912
C 0.1814356615 -19.6048878073 18.5343360797
H 4.2577699797 -21.6490608101 19.2958883141
C 1.5302506485 -18.6423855742 16.4973281105
H 2.8659351703 -22.2566473652 16.0367536746
H 6.47885639 -21.2325645907 18.6403117025
C 5.2509345287 -18.6410041123 15.7527973189
C 7.3338184705 -17.851760102 14.7132450204
C 5.1488789887 -19.6113887707 14.760506027
C 6.3526182449 -16.7335526692 16.6350610069
H 3.4183703646 -17.141707468 18.2785656768
C -0.8140137916 -24.2171639654 16.7823102553
C 0.5928307006 -24.2240047717 16.6658821299
C 1.7332799048 -14.4982123511 -4.3647807165
H 2.0020875466 -12.3702543272 -4.2227365587
C 4.2479649731 -11.5185488445 -6.6863126859
H 4.5053310682 -10.7706450592 -5.8826588525
C 2.757405097 -14.2229382704 -6.8527702761
C 2.5243175125 -13.0994936471 -6.1490707379
C 2.0841551119 -13.2440326833 -4.8590867027
C 2.7457044727 -11.6493974861 -6.7032333301
H 2.2660899228 -10.9764306255 -6.0215940648
S 1.2507212004 -14.5081023903 -2.6858144881
H 4.6403466394 -12.4952933379 -6.3161613412
C 2.5040228748 -15.52163776 -6.4238869333
C 0.0771109452 -13.2402286181 -2.3629020967
H 6.5028392916 -12.4925356148 -4.9238088424
O 6.6157667 -14.7731385708 -5.5562852559
H 3.4355582714 -14.0494340083 -7.7210543076
H 2.2948083321 -11.5403610222 -7.7040564094
C 4.8828681306 -11.0974828986 -8.004951376
C 1.8701101498 -15.6679656195 -5.1714923722
C 7.421780416 -12.533154865 -4.3096901478
H 6.8360245046 -11.9752321525 -7.4842704797
H 3.4367211206 -10.4633589069 -3.3860910302
C 7.2659727501 -14.9503250659 -4.3243156693
H 0.334509538 -9.1671835387 -5.9024482569
H 6.3028495369 -9.5486246043 -7.2209294532
C 5.4123698568 -9.5922122922 -7.9085507914
H 5.4860428445 -11.6430647937 -2.3494733155
H 7.2833564569 -11.6825799074 -3.5887349033
C -0.420203832 -9.6260133787 -7.8262444404
H 4.914935729 -15.5329270457 -7.6656895585
H 6.5920797159 -15.6539370399 -6.0303818061
C 7.3660822361 -16.3070112197 -3.7287127918
C 6.0460258422 -12.0265845932 -8.3286591489
H 3.3563408183 -9.2534571066 -7.394210168
H 0.3444293596 -16.3201773305 -8.1723155121
C -0.7425713168 -16.3126267948 -7.8628925518
C 7.6023866266 -13.7783901258 -3.5866393615
H 5.6863180849 -13.0501382344 -8.3797773863
H 4.2157997341 -11.0871112002 -8.8311055614
C 4.9559010524 -10.7213464353 -2.094755748
C 3.5073930085 -10.4606345816 -2.3180145441
C 5.6748390459 -9.5020233232 -1.8167296228
H 2.8005095286 -11.1701920751 -1.9083191095
C 3.4714943461 -8.9979678657 -1.878966303
H -0.3746303623 -13.0370322879 -5.3316904129
C -0.8404331526 -12.7318330965 -3.2493708899
C 4.3595019719 -16.5315711109 -7.6769928715
H 0.3054511701 -10.0121882751 -8.5954896958
C 7.8744592602 -16.2038384359 -2.4778723524
H 7.8068834522 -15.0571056411 4.1467496779
C 0.2230756872 -12.6231468685 -1.1346215883
H 0.7834273666 -16.3749937963 -0.0095446378
C 1.6654827205 -16.425057743 0.6435866595
H -0.7899154171 -16.5000583311 4.6694345311
H 7.4633983958 -13.0141160591 5.0448544339
C -0.5053135011 -11.5062456032 -0.7251538683
H 7.1105026392 -11.9288909861 -0.1314017264
C 3.0623165192 -8.976929648 5.3892316851
H 7.3817035747 -12.1838904538 1.6598167715
H 7.0745817383 -13.5314163564 0.4688824953
O 4.8181394238 -14.8410310122 1.4598745995
H 2.2952918948 -13.5135149324 2.0902101648
H 1.1405654331 -10.861987702 5.2110706565
H 2.906086091 -14.134114755 3.6922273508
C 5.3801531843 -12.4745731467 1.1043266133
H 5.5805842334 -16.1687132312 3.663583433
H 0.1481136164 -13.2359768216 4.1501528532
H 4.5366831014 -14.5784144108 4.1346835233
O 1.02070042 -13.1335410895 4.4985861684
H -0.2295955665 -11.0523036377 0.231528704
H 0.9249691771 -12.9418731372 -0.32791604
H 2.6964636208 -10.8743236527 0.6609468468
H 2.90532922 -10.8998985686 2.5121003661
N 3.6010746243 -14.3283361726 4.3888047314
O 6.9907177336 -9.5849164436 -1.6472558146
C 0.0148349022 -9.998994098 3.5871135393
C 6.8042842531 -12.5245586136 0.7611129892
C 3.2224324849 -12.8956070322 1.6864107818
H 5.2336468568 -10.2193059253 1.0125297676
H 2.6641228355 -14.6986784002 -0.0982699489
C 3.2428010854 -11.3936928324 1.5256258563
C 4.4678753125 -13.5115830267 1.3934153077
C 1.0417839011 -10.060517302 4.5044139939
C 2.7156373598 -15.5858785711 0.5871300206
C 3.8320775407 -15.7617722605 1.4945476823
C 4.7479544297 -11.2054228983 1.2927548949
C 2.0139944298 -8.9877159953 4.4820973441
H 7.2404514719 -10.213793632 4.477965359
O 1.9542023008 -11.0453275635 10.2345601596
H 1.3532832778 -11.4456084857 10.8530158788
C 6.2643445011 -13.8534447929 9.5369924822
C 6.1130665252 -12.5049255683 9.2013579271
C 4.6140808331 -14.6234067167 7.7853155227
O 6.0891296686 -12.2252423763 7.863817282
C 5.9366990796 -11.5973836134 10.2485272524
C 3.4269894419 -14.5962498456 8.4706165046
C 4.6659475493 -14.4665798739 6.3985941067
C 2.2487333231 -14.2518729009 7.8476164439
C 5.912333234 -14.9434229013 8.5173619543
C 2.2253500228 -13.9960743014 6.4528526079
C 1.0057430834 -14.2620999697 8.5431225784
C 0.9694826603 -14.688145549 9.8697774563
C 6.5276741588 -14.1912268582 10.8121385383
C 3.3329240914 -15.0773855152 9.7871320904
C 2.1649331798 -15.1990886661 10.4600867824
H 6.7470228571 -15.0991261544 7.7172646653
C 5.6178430749 -10.2541563199 9.9837740464
H 5.5656436857 -12.9321428299 7.4829736408
H 5.6287844789 -14.5490420935 5.9162282869
H 4.1172084198 -15.5795626302 10.3282803258
H 6.733177518 -9.9116440468 8.2392236556
H 6.7378031936 -15.2510886443 10.8894824747
C 5.8826165987 -12.0602275402 11.6391667063
C 6.2943885244 -13.3828843161 11.9358947394
C 5.3684757064 -11.2552964026 12.65087796
C 4.8925618048 -10.0005069019 12.3044962893
C -0.2705579283 -14.6497943146 10.565545754
C -0.108036046 -13.7153160932 7.9143137678
C 3.4495162711 -14.2685366026 5.777062875
C 1.0579148132 -13.4703311601 5.8012355564
H -0.501406528 -12.1911169107 12.6963418066
C 5.7654041549 -9.5645352047 8.6198451039
C -0.0313807454 -13.243579022 6.5808699118
H 4.9854504996 -9.8404825794 7.901713826
O -0.4211033741 -15.1517777256 11.8944875251
H 5.8321785846 -15.8568954556 9.0319023
C 1.8594516889 -9.7033873302 10.6153537105
C 5.0966120099 -9.4875167496 11.0302147939
O 1.3039656692 -9.4063128002 11.6013718517
H 2.9689504833 -9.7661429525 6.1551717609
S 2.1854887275 -15.8671654382 12.0602298086
S 0.0770757695 -9.1263960221 8.6242188856
H 6.3410154358 -13.7779991415 12.9295208774
H 3.3912145305 -16.2891332159 12.4230946392
H 6.8075231202 -10.0467704536 17.5596041165
C 5.2868844592 -15.1037037019 18.2611384863
H 7.269670736 -12.3295907641 19.427223502
C 4.3401761701 -9.1076445418 13.4063765711
H 5.3754627435 -12.887505867 14.1529760838
C 7.5914127009 -9.7227054791 18.2674531034
C 7.1902902055 -10.1202018048 19.7157333514
H 3.805780955 -15.0871237715 16.8031070398
H 7.1457936953 -16.0181342547 16.5137931357
C 3.2611322615 -13.4494773295 17.8134191909
H 3.3693384585 -10.8820799156 16.7733921244
C 5.3440706007 -16.3895994452 17.5052990573
C 3.9732832379 -11.3381993257 14.6489762242
H 7.0126179123 -9.3417650331 15.2288365693
C 4.2194765543 -9.8758957455 14.6951620246
H 3.1043422978 -11.6257305912 13.9849831349
H 5.7656378914 -11.5919278689 19.011713194
H 1.7862702386 -14.9229596604 18.5069977942
C 6.5952474725 -11.5448610488 19.7596198867
C 2.1744603196 -13.9614029536 18.7559478372
H 0.2957782415 -14.147584464 17.0037037211
H 0.4047718058 -13.0597301257 19.6955167044
H 3.6804690891 -12.4895519586 18.1995016729
H 4.9125440625 -15.0833378189 19.340552008
C 4.3871805903 -14.4141908885 17.3260991744
C 0.7423572652 -12.5359770511 14.8954701902
H 6.0978287849 -11.3984313468 14.7046998962
C 3.7101714352 -11.7322792229 16.1194682061
C 1.0298436673 -12.9785990495 18.7785690654
C 0.3574993903 -13.1100603342 17.3742872793
H 1.1654984574 -13.3897233902 14.3437962925
H 5.0156104981 -13.9835672202 16.5925234785
H 1.3525842652 -11.8939741208 18.8205664439
C 1.1945811094 -12.3668626377 16.3219573215
H 6.2986434389 -14.6033291623 18.2231511168
C 6.0726507517 -9.1456795774 20.2083996506
C 2.7051066505 -12.8491762472 16.4013881639
H 1.2267834169 -11.2895641568 16.6293673493
H 1.0718213626 -11.638461001 14.4595033658
H 2.6040714571 -14.1230953762 19.7504840956
H 4.7009451022 -11.9194191065 16.4636583551
C 5.2860550687 -11.826940475 14.062213971
H 2.8417290761 -13.6650567125 15.6471717934
H 0.5449799704 -16.3028087671 14.2095572428
C -0.7387651359 -12.4011458648 14.8544151037
O 4.7851089692 -9.4266681413 15.7879421921
H 5.2473764341 -9.1067740304 19.4241142196
H -0.6588216445 -9.3233962335 15.9711106554
C 2.118208951 -5.8831409935 -3.8126497412
H 2.3518776713 -2.8904535416 -6.0536825112
H 4.3522828475 -5.4281015902 -7.3728566527
C 4.7945761084 -5.4259379983 -6.3679284933
C 5.336559211 -6.8293958505 -6.1909549448
O 4.8159342157 -3.0434602371 -4.9178166192
C 4.4322452394 -2.2903355554 -6.008266973
C 3.8085666168 -5.1282382329 -5.2762168934
C 3.8409079165 -3.9055812538 -4.5475135453
C 2.9002422207 -6.0876843171 -4.9298153135
C 3.1419859699 -2.2934493692 -6.5236588098
C 3.0161233893 -3.7163457661 -3.481387487
C 1.1365870063 -6.8606944903 -3.4190146315
H 5.645814341 -4.7400196126 -6.3090324349
C 2.9089207154 -7.3537666787 -5.8339588777
H 4.0660444468 -7.864202232 -8.2322428135
H 6.7206893553 -7.941831027 -3.5662285853
C 2.1740207333 -4.7503786332 -2.9829947893
H 3.5117697625 -1.6376535717 -3.5059788014
O 1.4579028734 -1.5357506853 -8.088365877
O 6.6021242648 -7.0347157637 -6.2259600387
H 0.3579042541 -4.0308969846 -6.5086801424
H -0.2983669013 -2.4221051651 -6.4058622495
C -0.1049176694 -3.3512685853 -5.8381134258
C 4.3610374317 -7.9849465284 -6.0641780218
C 5.4563489441 -1.5635927245 -6.7084233139
H 3.2795327297 -2.1295061422 -1.8315719036
C 0.3017222477 -6.6049965377 -2.3921006104
C 7.5501324245 -7.6895379937 -2.9350343269
H 1.1267995476 -7.8046370283 -3.9195254766
H 2.725269689 -7.0119665366 -6.8062686382
C 2.7497920725 -1.6649834285 -7.6761378583
H -0.506108556 -7.4385297403 -2.2640933324
H 0.5059856302 -3.1155502406 -4.9363035049
H -0.2102892361 -4.2776221074 -8.4463892432
C 4.3020602559 -8.6883769812 -7.4570314755
H 2.1724343762 -8.0693803737 -5.6472690721
C 2.9125335783 -2.3181521971 -2.9180019204
C 1.4758405357 -4.6342868401 -1.7617607437
H 7.7158194445 -5.7958575135 -3.9766059464
C 6.8689416221 -1.5863083275 -6.2862505861
O 7.6044658055 -2.426560968 -6.6272504436
H 0.9424624166 -2.0131007673 -7.4717542548
H 7.2888316798 -7.5361525965 -8.3655917912
C 7.8026534125 -8.5079060392 -1.8739109085
H 5.2779313414 -6.3898190294 -2.106427086
H 1.805358726 -1.9411509579 -2.89373729
H 4.6911570544 -8.6796835813 -5.3069777363
H 0.2149949543 -7.8162827542 -6.8774256944
C -0.2791443785 -8.7324565576 -6.6349726883
O 7.3150060209 -4.8373033482 3.4635920565
H 6.3262564771 -8.5024375042 5.2591302428
C 0.4785582738 -5.5667418094 -1.5047119967
H 7.3640805817 -6.7288270989 1.6205542206
H -0.324735552 -2.8417027696 2.6868628367
C -0.0864217603 -8.9224153093 2.6582674978
C 3.912362618 -7.9565270088 5.4231167983
C 4.7247310937 -8.4980179314 -1.5597787867
H 2.67592106 -8.4425538521 -1.4206214051
H 1.1388199126 -5.2817980778 5.4796577707
C 2.9624900629 -7.0307974873 3.5317601119
C 6.9796080791 -1.9041348798 5.4894912129
H 5.3214334789 -6.2307288739 5.3710853473
C -0.230845238 -6.7253268071 0.8481658415
H 1.576166307 -3.9078029079 -0.0144481343
C 0.9748037858 -8.0345128313 2.5674226438
C 2.0193057634 -8.0429421286 3.419446414
C 2.9248786187 -6.0857882087 2.4728661351
H 1.8537369104 -5.1893157422 1.0085437211
H 4.1125624891 -4.2863111651 0.9867164987
H 4.033727909 -6.5951451989 -0.7966620823
C 0.859062627 -6.9246091502 1.7150522802
C 4.9648587578 -7.026977902 -1.2269237854
O 1.5864217317 -3.5594557855 -0.9079619193
H 5.7393752846 -6.7985374692 -0.5050146274
H 7.6313210667 -8.8137598116 1.0732552672
C -0.3842904944 -5.6424105378 -0.1987801092
O 4.9246239365 -6.0705712449 4.540890818
O 0.6171606004 -2.6732116228 2.9541797567
C 1.9127717673 -6.0655865588 1.6225573681
C -0.6466795544 -6.4032606901 5.0753934932
S 4.1925836652 -4.8186631351 2.2728474865
C 6.8284816798 -3.1895405326 5.0187162738
C 3.916954883 -6.9495533825 4.5440207961
H -0.2431474745 -4.7123687587 0.3503323481
C 7.6199956798 -3.5864496335 3.9594586984
H 6.1722254518 -3.905194327 5.4745380377
C 0.834977229 -1.3591967864 2.9963823636
C 1.7309641241 -6.980377635 8.0085360531
C 2.9305198693 -6.1829886929 8.2070850231
C 3.8674828301 -6.6911850296 9.0950279308
H 4.7127111471 -6.0912205061 9.4237877064
C 3.6601931838 -7.8886936331 9.8765776035
C 0.7388077004 -6.8575397196 7.0105819493
C 1.602645497 -8.058870206 8.7587537603
C -0.1444089447 -7.869435353 7.2543630939
O 3.1190247649 -5.0207541116 7.546492134
O 4.6460963138 -3.1493362146 9.0268872969
H 5.2050435798 -3.5083336074 8.2867700283
C 5.1348166967 -1.9568079577 9.6112254244
O 4.5832570073 -8.188955913 10.8915055845
H 0.6089919786 -2.755825336 7.5599864958
H 2.5527513094 -2.0917412179 9.9528165098
H 5.0967562138 -3.3626279069 12.4086748666
C 0.0116287091 -1.8343122067 7.4178452286
C 3.0310542498 -2.019881132 10.9850943279
C 6.9246561059 -1.8323119393 7.7391208854
H 7.0243445467 -2.9070130027 7.7697631493
C 3.0233389088 -3.37121246 11.5471418726
O 6.1196921108 -1.5660415866 6.5426053211
H 5.9247880641 -8.440879184 8.7412080612
C 2.380958009 -8.6153378728 9.7056295901
H 2.4738953065 -4.8983959448 6.909082098
C 4.1237205136 -3.8983240165 12.191320368
C 2.5088947927 -5.4876032968 12.1684722341
C 2.0019822156 -4.3543972643 11.5599723474
H 0.964521193 -4.1931435997 11.2039648754
H 4.6320906741 -5.9883835954 12.437986282
C 0.4418624357 -6.039231889 5.8343011101
H 7.4701604328 -7.5865042287 11.1661093968
C 3.8980096175 -5.2515007888 12.7829590202
H -0.6672843785 -1.9973826367 6.5463907621
C 4.3903818733 -1.4145274783 10.6767841577
H 1.8692562302 -6.3189514794 12.3179318053
C -0.6564048788 -1.5217069838 8.6844953327
H 7.8410144514 -6.5448802251 8.8953675742
H 4.6651377882 -7.7932192349 6.1909246503
O 7.5884986854 -7.6144720329 12.1441099923
C 6.2502121186 -1.319380636 9.040848579
H 2.3917894811 -1.3280146381 11.4880176471
O 6.9732382498 -8.0471199381 5.7426968942
H 7.3861954991 -1.4811478692 16.8993889828
C 7.7901200735 -8.1314459388 18.0906801363
H 3.3188336628 -8.7693258798 13.1225357839
H 7.3621729878 -7.8375291041 14.5057089227
H -0.9018106178 -5.4112461048 13.511234662
H 3.4012454344 -1.6554928331 16.3265863161
C 0.6027747804 -4.9274915524 14.9551475177
O 4.9254031699 -4.1888169722 20.1357590078
C 2.8607050969 -2.5893405182 16.0595808867
H 0.8827669847 -3.9548129116 14.4992654373
H -0.6961522757 -2.428718716 16.0164258511
C -0.3415137222 -5.7497910917 14.3719857908
H 3.2744436433 -6.1988230877 20.0729348806
H 3.1539278767 -3.054201041 15.1639320403
C 6.581791379 -7.7306979467 20.2626318804
C 3.9935045763 -4.4069504833 19.1423213708
C 3.2022234501 -5.5367610002 19.2067687277
C 7.8511836784 -8.717128907 14.8507548802
H 5.3551047569 -3.3805719561 19.9640551669
O -0.0827408359 -8.6880745497 16.5247202138
C 0.9080874086 -6.5887278443 16.6796712557
C -0.6000666349 -7.0626978288 14.8278233017
C 3.871783115 -3.5180720768 18.0754998923
H 4.8808366084 -8.2329471907 13.6077575852
C 0.0274665747 -7.4182020663 15.9664523081
H 6.8587022971 -5.3461909654 19.6171112991
H 4.5276066308 -2.6621594111 18.1198057708
C 7.2539604486 -5.9593819735 18.7551271256
N 1.503335051 -6.8778795681 17.9512235722
H 1.7926883159 -7.8563753906 18.0421532884
C 2.9617467596 -3.6484710033 17.0785439996
C 1.1696924492 -5.2644488344 16.2285351326
C 2.1780992505 -4.7564853302 17.1643772123
C 7.2218166575 -7.313666327 18.9800363362
H 3.8303677929 -5.2469589348 13.9284888412
H 1.8098528662 -2.3099676873 15.8201019575
C 2.3061171816 -5.7226405086 18.2134155461
O 7.7273179891 -4.07242 17.2537587352
C 7.7447268937 -5.4038097643 17.5722734195
H -0.7258608881 -1.376902705 14.6284594538
H 5.800166804 -7.0401945905 20.3748988635
C 0.9397194279 1.3799739585 -5.0868631756
C 1.380686505 1.0279283694 -3.8225855688
H 2.5128838564 4.0850834095 -7.150424069
N 1.7534222541 2.0682340145 -5.8700400012
C 3.4993490115 1.961272662 -4.2645553218
C 4.9192616123 2.2011937296 -3.8773819668
O 3.8687843403 2.9390189625 -6.3331033352
H 5.923740731 3.314401436 -7.511365319
H 5.0385468711 2.4984966529 -2.8164717523
C 2.9997300243 2.3678126841 -5.4696361028
C 2.6674384623 1.3214483813 -3.3930320089
C 3.227088574 3.4078959952 -7.5093519525
H 5.5942127715 1.3168443401 -4.2070504505
H 5.2966590535 3.0648630929 -4.4927471003
S 6.4072913646 -0.2102039285 -8.4806177587
C 1.8146642933 5.3030816008 -2.3887004771
H 0.7309082791 0.70530563 -3.057422977
C 5.5780059104 4.0213001374 -8.2824448169
H 2.7163556613 2.4647276998 -7.9332756571
O 1.8434453786 3.9993070684 -2.4258574636
C 4.1982055135 4.049345396 -8.5202887514
O -0.3012621824 0.9421507182 -5.4824197486
H -0.7559736414 4.5282712588 -2.1562144863
H 6.693491944 -0.0661055034 -5.2872243022
H 7.5597137211 4.6182646338 -5.8326173273
O 7.3468960914 -0.66636491 -5.445821745
C 3.7873407142 -0.9971367629 -8.3906463548
C 7.1301797024 5.721898054 -3.2516889179
O 7.2634825126 4.3655683479 -3.0153734788
H 1.6485622074 5.432082132 -5.2765905504
H 3.4930106288 5.6121260543 -4.9280541025
C 2.4403545172 6.0341476613 -4.7857652186
C 2.1358124461 6.1877444547 -3.3598057005
H 4.2704020019 6.0785197162 -1.9562547777
C 4.9600751571 -0.9934166283 -7.8494210004
O 5.0632743013 5.5518636654 -2.037532224
H 4.1418199322 0.5688432696 -1.8583828817
C 3.0853430042 0.9210922465 -1.9552778642
H 7.5789355304 4.5432906059 -8.9929178872
C 5.962364104 6.3451958132 -2.7002318801
H 6.9753199093 5.3034547851 0.0144438011
C 1.7274971513 6.0850564628 4.6090070659
H 4.4672616326 2.4106895245 2.0638125722
C -0.3634302638 3.7917135027 -1.4248224388
H 5.5331149282 3.3295377115 0.0386039627
C 1.0237527034 3.4010866698 -1.4695803363
H 1.2798357846 5.68827582 -0.205873871
C 2.916422593 1.9174769444 -0.8369584426
H 7.556029218 2.8261480562 4.5597673006
C -0.7147791972 2.1420703092 0.3475942547
C 1.4570262144 6.1278615734 -1.1906762126
S 4.6760906245 3.5131913273 4.7948463949
O 1.8764517517 -0.9345886227 3.3560018719
C 5.7984162376 5.3924652562 3.3169937353
C -0.3603382267 -0.5225169448 2.6737563485
C 3.3985578832 4.6471479283 5.3338790304
C 0.5929489277 1.8184366794 0.1531024042
S 1.3414261392 0.5260688061 1.1181197251
H 3.6557723754 2.8193956911 -0.9313003623
C -0.3548884896 0.5433558315 1.8547721106
C 4.960259886 3.4693582947 2.0965777252
H 2.4718795979 0.0938202315 -1.6456548939
H 6.6371766633 0.9040126915 4.6436535694
C 6.5009365012 5.7774482175 2.1908167663
H 2.8250992241 4.8340135939 3.2395132496
C 2.6649322625 5.1673625622 4.3191733594
C 6.4386675706 5.0093052456 0.9663607703
H 3.3064262458 1.3920512309 -0.0085124664
C 1.5161162322 2.3631948292 -0.6700203353
C 5.1210916353 4.1754728339 3.2897490408
C 5.6544170667 3.8375767333 0.989288182
C 6.1268327823 6.1690576593 4.5221821265
C 7.7486940089 -0.943088797 4.8254297549
C 7.4566208097 0.4342213538 5.1687924858
H 6.6488996455 5.5560840401 5.3197769894
C 3.4182857636 4.7142128938 9.1119155117
H 4.0023539529 4.4128290308 9.9968667255
C 3.7739306993 4.2855228015 7.8457803979
C 4.9169366001 3.4300482306 7.8325088059
H 2.2928881587 3.6202208183 11.0517292185
C 5.8813902408 0.4577736268 10.7556757915
C 2.5746801643 4.2635485751 11.9422378124
H 4.8215171681 2.2769066661 7.5874770686
H 5.4219818121 3.4672589765 8.7915793355
C 2.5602056021 5.7912905791 9.408201405
C 6.6480196437 1.6528345495 10.8742837771
C 6.6330356519 2.9385275486 11.4608846684
H 4.0817632816 0.1807927156 12.1181980768
C 6.4562246312 -0.1760020788 9.7278945685
C 2.8474458804 5.6417216318 11.8868543339
H 5.5632562378 3.7530016117 6.98119012
C 4.6861227719 -0.1679016789 11.2641989627
C 1.3823688768 1.681247377 8.535284236
H 5.8658953246 3.0471935888 12.2207388664
C 2.0411761589 5.73219988 7.0362798589
H 1.6502538508 2.1183894134 7.5312120619
H 0.7121650957 2.3946217995 9.1127128847
H 7.7318834814 5.4024479591 8.9936157277
C 3.075438864 4.8054507626 6.7139761619
C 2.4550097483 6.3134751035 10.7017313398
C 0.6007842811 0.3832681768 8.4761265643
H 0.4524014158 2.4397005815 12.5203316011
C 1.4222047655 6.3384209201 5.9335997038
C -0.3313733993 -0.2623478705 9.2460198248
H 2.2771394098 1.6392502496 9.0834732533
H 2.4100804927 1.3561071113 12.2335065341
H 7.1884989738 0.5679257894 6.2093666689
C 7.0719852199 6.031257848 11.0896357495
O 7.620094079 0.4860912456 9.1007653777
C 7.2163201765 6.0755144411 9.6483634536
C 7.7191653259 3.8221568138 11.1746275382
C 0.7612963536 -0.5290603237 7.377343502
H 1.4965904905 -0.1898469833 6.5879374687
O 7.7623351491 5.0567081574 11.8420263396
H -0.0794561235 4.5579837671 12.8734313194
C 7.5810097136 1.5819961101 9.960641784
H -0.6637051428 3.5350746006 5.8931840614
H -0.8762155766 3.9113949341 7.3665534932
C 6.4709989101 4.6307377167 20.370340871
H -0.6251823725 5.8061326618 16.288757761
H 7.3948728736 -0.9089947667 14.5642231201
H 1.9725154602 4.1806312259 20.1617247452
H 7.375791385 2.5154807927 18.4576253151
C 3.8697966093 -0.1651958265 19.8821149358
H 0.5700975551 3.909622548 14.5804262874
C 4.6592363437 5.5235264597 19.1258387382
H 5.1943173571 -0.2924377069 16.1728545605
C 5.0989106064 0.2828641037 19.6823981053
H 2.79820898 1.4266276974 13.9978489355
C 7.5458221868 3.6289812979 14.9560275997
C 3.0371838876 4.1455133199 14.2527828695
C 3.7519814017 4.8219658159 19.8590478573
O 5.2042274759 2.4511251414 16.8176292031
C 4.8240038881 1.5076139408 17.8598015923
H 6.8726869645 4.4906454995 14.838415655
C 7.3697627352 1.2750319937 14.2729560698
O 2.3571773173 4.8462166146 19.6202162119
C 2.6985419429 3.456892146 13.0680274958
H 7.5565853297 1.6103874868 20.0534288984
C 2.2557303868 1.9542516743 13.1287013412
C 5.8910267482 0.353868681 15.6928880323
H 2.7534131639 1.5458283086 17.2598958584
C 3.2610015695 5.5027533247 14.2485583537
H 3.3754571604 6.0524604163 15.182099936
H 0.7614613802 2.4511969628 15.5386946801
C 3.5016491694 1.1199730419 17.9661723474
H -0.7620975679 4.9414301313 18.5813509883
C 5.8070794237 1.0238469895 18.8236995394
C 6.9152687864 2.2702327332 15.1195403833
H 1.7461075428 0.1719801728 19.0960466852
C 0.3004656322 2.8214837618 14.6980984579
C 5.9300867711 1.7537985861 15.9206010734
C 6.0073892446 5.3363696632 19.2556895351
H 3.3231758214 3.67949725 15.2242490914
H 6.187373103 -0.2293000237 13.5167812905
H -0.1451873756 1.3028861322 16.6934749602
C 0.7639465698 1.9222849137 13.4627812553
C 2.882703522 0.3071961037 18.9396038954
C 7.2190537963 1.5075380803 18.990890284
H 0.2654409044 0.8969223648 13.5400668533
C 6.7569097581 -0.0422624877 14.4999560856
C 6.7079819019 6.1084588875 18.2396569733
H 7.8384344641 0.8883336415 17.213152578
C 3.1656460395 6.3461961654 13.087013005
H 0.8379983615 12.0483474224 -4.5943336114
C 1.6212312329 11.0615729066 -7.0863023218
C 1.772841914 12.5358476218 -4.9689046532
C 2.0146642006 9.9261927782 -7.8489893177
C 2.3314116914 11.4680089329 -5.9145215474
C 3.2164832039 9.3037152331 -7.5702565321
C 4.0409717008 10.9868566794 -4.2881483562
H 5.1114303546 11.3243920931 -4.4028258719
H 4.2549491321 10.0472434179 -3.7307402418
O 6.0582088243 12.6440027333 -6.5152339235
O 5.0733664483 9.0843951664 -6.0465495708
C 6.2477484007 9.2986144163 -6.6824969169
C 6.6904704002 10.5537399562 -7.2000937697
C 5.8217921567 11.7901972718 -7.2764005753
C 3.8612132204 9.6553465745 -6.4659141742
C 3.2320118351 11.7316517091 -3.3722449056
C 3.3937288836 10.6782149077 -5.6060704728
H 2.3347656264 8.2720966667 -3.5685615475
C 0.3728506943 11.6084174963 -7.3254268059
C 2.1066168053 7.4482898847 -2.8868929173
H 6.2563072885 12.0972513002 -2.7158280359
C 2.7284746721 13.0222905322 -3.8666511439
O 6.8279395392 9.6871009775 -2.9330916618
C 7.0604397866 8.1880180723 -6.8518089546
H 6.8533677558 7.2216465098 -6.346396587
C 5.860232004 7.7717366834 -2.5494590317
C 6.9349961155 8.2574547 -3.2227985904
O 2.9260255647 11.1468610552 -2.2406912474
H 1.4073015279 13.4355777991 -5.5789569998
C 3.8959589016 8.2112595628 -8.3384367101
C -0.392706405 10.174944097 -2.3556882102
C 7.3353370977 12.3359965149 -2.7282696116
H 4.9934284673 8.3150751719 -2.125367167
H 3.250718971 7.3583099441 -8.6141220806
H -0.4630847693 8.6135733751 -4.8266031494
C 1.1761637086 9.5211617279 -8.9068569566
H 3.5388301611 13.5820946378 -4.356452688
O 5.1103434314 12.0638773127 -8.4219300627
H 4.6819238899 7.6775478867 -7.8099025196
H -0.0896357657 12.4328540259 -6.8256085475
C -0.4763596554 11.0625483775 -8.266649837
H 7.4894133769 13.3054861223 -3.1536374432
H 2.9054584463 13.5019422197 -1.9892646974
H 0.5892688813 10.3509770299 -2.8653544064
H 1.2882340988 13.0906182344 -2.3461318622
C 2.1086215631 13.6863151582 -2.7022785959
C 7.852042836 10.4637554689 -7.8498322297
H 2.4538355185 6.9767440001 -5.3388230776
C 6.8778926737 13.3464346873 4.8226138922
H 1.8100628593 6.7134899824 2.5545125676
C 7.4276634979 6.7959667455 2.5941009955
H -0.0822268963 11.4571375351 4.7050015369
H 5.233946754 6.6891994342 4.9440790275
C 1.748413404 7.6174349573 -1.499450123
C 7.5672231183 12.2315432912 4.3276714746
H -0.0452804274 13.4760107089 -0.7019062879
C 7.2761061312 7.0383062498 3.9734943678
H 2.7182393084 13.108285379 0.7354879574
C 3.5470057483 12.6661914379 1.2802724777
H 0.1828104951 7.0078185411 3.2503816729
C 1.2648410271 6.9847521469 3.4848107207
H 5.1039505316 10.4961516172 -0.8222918343
C 1.1275672812 10.9983214805 2.3713181485
C 4.8424775012 13.1517477366 0.6483816748
C 6.8808714634 12.9523899849 -0.6595948144
H 3.7888973835 7.2019501655 2.3764088587
H 5.399442447 10.7397168803 2.0919822744
C -0.8612771669 10.4171897866 -0.9285060006
H 5.6451412424 8.5618950256 1.2793863002
H 3.437620204 12.8791801671 2.3669318532
O 7.8409249239 12.2459379386 -1.3731273664
H -0.3309422948 9.9253037263 -0.1659835108
H 0.9065697764 8.3063043928 -1.1617677922
C 5.816054556 12.3639513044 0.0495103575
H 1.1047357245 9.0236431663 4.2881401806
C -0.4181429345 12.8657119999 2.5067006435
H 4.3476803116 8.6954125832 0.1033592834
O 7.6268293412 12.0249359047 2.9481374961
H 1.9055269924 8.6786312005 1.646290757
O 4.6475649659 10.225741495 5.5149560675
C 0.0457977477 13.5496522918 5.0073301103
H 4.1650532142 10.9756626614 5.1225698185
H 1.6541700111 13.1033713005 2.7796523847
H 6.6281699033 10.3459916973 0.0675877416
H 1.6571262882 12.0564499548 4.9944638566
C 2.5765154247 10.5639082147 2.475086934
C 2.4852947542 8.9814153493 2.5319181526
H 3.0216073276 10.9844617006 3.3107185895
C 1.893129357 8.3588290433 3.8220005373
H 2.6714794914 8.2530315855 4.5462866642
H 2.9057059609 10.898295778 0.3174139145
C 0.8724002878 12.3523820406 2.9717617625
C 4.7810507249 10.4230244551 1.2169346211
C 3.4468273974 11.1218555558 1.2454096311
H 0.8095008297 10.9408712829 1.3012364187
C 4.6917584758 8.9101649354 1.1711402052
H 2.5311083919 8.024488355 -0.8371006634
C 3.8242581168 8.3489609507 2.3138827086
H 4.5762405594 8.5466683323 3.138772837
H 0.5304481368 10.2941813445 2.8972922382
C 0.6852826474 12.2502168983 4.4871067623
C 5.695004768 10.8777417057 0.0559914715
H 7.8134007878 7.8054823582 4.4732954934
H 0.9459377825 9.1757609628 9.8953505883
H 3.2916936887 12.0030271365 9.7139596795
C 4.1920073182 9.9937758459 9.723929824
C 4.8717654983 8.9309312984 9.0715677068
C 5.5265636315 7.8964981694 9.8442173043
C 3.7731714956 11.1635267338 9.0446125803
C 4.8205861071 9.0270360655 7.6341932935
H 3.9315391074 10.0488675287 10.8240802405
C 5.4815619713 7.8930857343 11.2083218212
H 5.0535965729 8.6549120244 11.8137339612
C 2.0395927708 8.2393768014 12.1797704951
C 1.2969276618 8.209795349 9.7607768218
C 0.3409598373 12.86679379 7.3608144644
H 1.5566757458 9.1867776753 12.3638132529
H 5.150196818 8.1745048107 6.9918515166
H 0.6201619197 11.9236683848 6.9283508603
C 3.9973301351 11.242170845 7.6860566012
H 1.1173068916 12.4944509989 9.308562134
H 0.8869274615 8.3323692799 7.680587042
C 0.5995980458 13.1777474596 12.3955467678
C 0.5708290631 13.2450634512 8.6184279234
C 4.5766361027 10.1824051978 6.9243770205
C 3.3544085912 13.004897862 12.3953523738
C 4.7252879486 12.8762425844 12.3592492666
C 1.9047382389 7.595170337 10.8988663621
C 6.2889736644 6.9389701449 11.8076736179
C 5.5085230163 13.7285474877 11.5752748604
C 1.3068174326 7.6714881403 8.4667547531
C 6.4126819886 7.0212896479 9.1125858996
C 7.1290569418 12.6941514397 7.1301693936
H 6.9728600565 11.2578351908 9.7388699978
H 6.7704823192 12.9371807342 8.0788732958
C 6.8884978669 13.8647488335 11.8549141806
H 3.6953802021 12.2552853785 7.2407425009
H 6.1807300072 6.8423058959 12.9084874685
H 0.7503539349 7.166363254 6.0197042984
H -0.5192458526 13.2181083825 12.3351391697
C 7.8224984194 11.5261001619 6.6173370576
C 7.5334172052 12.9949586196 12.6953026729
H 6.3782872473 7.0513072014 8.0163989485
C 2.6792548583 13.8841880145 11.5315816158
C 6.6565754754 13.5782079277 6.1525555538
C -0.0146360983 13.8109450833 6.3949973548
C 1.249181299 13.9667016663 11.4878754729
C 1.904706912 6.4270670814 8.2536616445
C 2.7821050232 7.6939324544 13.1723427403
H 3.8066615004 7.0728527402 18.3275714536
H -0.681521109 11.8106981119 14.0202850736
C -0.8414983351 11.9043683235 17.7992390709
H 5.2147017762 7.7565777214 15.6986931146
N 0.2391637365 11.4732586047 13.915482228
S 2.8993605751 12.7314392798 17.2841447478
C 2.572378643 12.1429944802 13.2283307878
C 1.1438758119 12.22986025 13.1775743551
C 4.5722304031 11.3293704457 14.2446036517
H 6.7388793919 8.4329501398 14.5398875507
H 7.2561617485 11.4003163887 14.217026287
C 0.5801245415 11.8665737738 17.7502243875
H -0.1008556881 9.2996909802 18.1045435864
O 7.6005279299 8.3115673507 14.9268208565
H 1.072833272 11.0578802806 18.2536446492
C 5.9718355753 7.4243571423 16.3667800063
H 6.0064448402 12.6644378003 17.3384335506
C 7.356634178 7.6324425247 16.07644009
C 5.3665096839 11.9756988717 13.2660677482
C 6.8168115614 12.0573066848 13.3653391793
H 5.5582536279 11.6686574836 20.3161341806
H 4.5150331891 8.5507359339 20.2602098148
H 2.9335114283 8.2213093687 14.1218339558
H 3.361173147 11.6854669108 17.917147391
H 7.6272259616 10.7771493179 16.9321905287
C 1.2471863597 12.8661905048 17.174662989
O 2.4917331432 10.5858439418 15.0757162933
H 4.9396476171 10.6511111638 15.0730556997
C 7.113789092 12.8492324317 17.1171102943
H 3.078617649 9.9749113435 15.4847015231
C 3.2231279992 11.3603742567 14.2055826214
H 0.5633525348 11.0402752919 14.7001671699
H 1.0217866155 8.3367529491 18.9710621489
O 1.604540601 8.4670282095 19.7332092008
C 5.6603903136 6.673265152 17.4608037303
C -0.7715180465 9.6707935415 18.9614910816
C -0.0256464365 10.122264493 20.2518928126
N 4.4093373123 6.3732310852 17.9625950053
C 15.6288831609 -20.2159554377 -6.6967518994
H 11.7242547067 -21.6615534543 -4.4449292018
C 11.5674888086 -20.7313563463 -3.8752267784
H 9.6767530564 -20.1945641593 -4.8117389506
H 14.8110185358 -20.1361837253 -5.9009940705
H 12.1114709894 -19.9173631556 -4.371416158
O 14.6716125852 -22.362811794 -5.660699009
C 10.0895224894 -20.3882227644 -3.8373171789
C 9.8729163861 -20.1954791152 -7.9172541376
H 9.325479233 -22.3656500312 -3.4793009357
H 14.9161718086 -17.7238145211 -5.9354058569
N 8.6066656173 -20.2614927101 -7.7684334167
H 15.0517422417 -20.6215174909 -7.6443424321
H 9.1216022005 -18.2254918699 -6.8866280554
C 9.9472483623 -22.5877844325 -7.9502516529
C 9.6446401126 -17.9518496441 -7.8131575686
C 9.3338948046 -21.3710278605 -3.0114261494
O 10.5309051469 -19.0162322242 -8.0209033634
C 15.9103405983 -22.2807594877 -5.3782793932
C 15.9817071517 -17.9159791348 -5.8063630979
H 10.0008747834 -19.4086029851 -3.3268702486
C 10.5935461607 -21.4196016019 -8.0523274194
H 12.3136895983 -17.5488996272 -7.4612788015
H 14.188066978 -20.5596713173 -3.3135180828
C 15.8475399053 -18.0583849596 -8.2273830192
H 11.2926239398 -17.5121280597 -3.2554495069
H 15.121817605 -18.6900278075 -3.9426399111
C 8.5849271209 -22.5867659133 -7.7568507058
H 13.7721957958 -22.3715580648 -2.915624767
C 12.2123429375 -20.8929264738 -2.462937602
H 11.3453640978 -22.7286027257 -2.6331456166
H 12.9356838447 -17.1277613195 -3.9054104049
H 14.8784452544 -17.6794170178 -7.934839153
C 10.5340750045 -24.0190411274 -8.0514205456
C 16.3285244271 -18.8472467028 -6.9480110529
C 12.1122434889 -16.7969715639 -3.1970564417
C 10.4031084305 -16.6759454723 -7.9300986771
H 11.6041471731 -24.123085844 -7.8058852382
C 16.6059155169 -23.3583124449 -4.6286413631
C 12.1005923801 -21.3877502954 -7.9145074611
C 12.5595659641 -16.7813269334 -1.8179408358
C 13.7040077853 -21.328108004 -2.6038221773
C 11.7976685467 -16.6941899289 -7.9435779719
H 12.2329939985 -19.9108089115 -1.9500008209
C 11.4383818691 -21.9959407219 -1.8357380524
H 8.9591162349 -17.9776377046 -8.6477130051
C 16.1137841107 -18.4723485353 -4.3380580104
H 8.1200985842 -23.5422244418 -7.7658986452
H 12.4859314414 -22.355278923 -7.8697194438
H 12.6141705606 -20.8337374586 -8.7131131909
H 12.383496796 -20.8919963715 -6.9999551239
C 16.5521427303 -16.7598738257 -8.3962055762
C 10.0609057142 -21.4571446199 -1.6779116749
O 7.9454760886 -21.0997748522 -2.7005845922
C 16.6583660503 -21.2901718477 -6.1872590388
H 7.9612639343 -18.225503036 -4.5332580994
H 16.4117926632 -22.5483370237 -7.9504670221
H 15.891248255 -24.1576439374 -4.4549818787
C 7.9062339699 -21.3921264459 -7.6174937337
O 8.018233802 -17.5995372768 -1.9554439792
H 16.6633597045 -19.4046251656 -4.3239708844
H 10.4661831067 -23.7115652847 -0.0291611659
H 11.4642165364 -20.3761197502 4.997762488
H 9.2158427687 -21.1553173609 4.7782474541
O 9.1643467157 -21.8927989528 5.4188395514
H 12.8821405297 -17.633273561 -1.0887149586
C 15.4936088886 -16.9216295738 3.6161728854
C 13.9520741126 -23.9130603023 2.9935911274
H 16.3949456062 -23.2332910414 5.2348575283
C 9.8964858477 -22.9105049479 4.8452804552
C 14.4796849072 -18.635689234 2.4564862864
H 10.8070483386 -21.5975720736 3.2333578836
H 11.5665794608 -23.1655583104 3.7114526312
C 14.6822119095 -17.2299694684 2.5022772105
H 13.9071421041 -19.163582944 1.7168950812
C 15.9801937417 -18.1592392314 4.0982094813
H 10.1289505017 -20.5146484035 -1.1657772977
C 15.5226019602 -23.7186010622 4.8107379093
H 12.2423873589 -17.1433642521 5.3040366603
C 8.5900593139 -17.0976137575 -0.7248071977
C 11.0274205464 -22.2832423624 4.0607129483
H 14.2759339027 -20.2128853033 -0.7855324793
C 13.3549723354 -23.3891035436 1.7885530064
H 15.3308379156 -22.2808767484 3.3434706743
C 8.8236068582 -18.2337858262 -0.0428369643
H 9.160763919 -23.5604348565 4.2555876183
C 11.4854131212 -23.2802689825 0.2788949851
H 15.1396016601 -22.2481648569 1.1734395615
C 14.0089386327 -22.5036489083 0.9120364459
H 8.6407626191 -19.1903432994 -0.5005783711
C 13.5138492606 -22.1289622818 -0.3104273602
O 9.7287501046 -18.8185180625 2.1153611352
C 9.3965642047 -17.8478746661 1.2408924541
C 14.9605983307 -23.2554485185 3.6403442926
C 14.3201040378 -21.2614272988 -1.2268360973
H 9.7184836078 -19.7270219685 1.7267503554
C 11.9360934597 -21.4150502574 4.9596213989
C 15.3479761447 -19.3144279982 3.4229853059
H 14.7969632115 -19.8515828002 4.2273974284
C 12.1680175488 -22.4466071679 -0.5565584408
H 15.379382787 -21.4156684701 -1.2349378561
H 12.9933879145 -21.20224757 4.6571856553
H 9.4550988639 -22.0731065752 -1.0643682563
C 12.0742890283 -23.912883439 1.4291515694
H 16.0320113942 -20.0327883091 2.9839783212
H 12.4209660927 -21.1492437632 8.8438447388
C 13.2331306397 -21.8610096163 8.5244539591
H 14.1243060086 -21.6615469081 9.128060155
C 13.3731823052 -21.41530738 7.110077465
H 11.1194804273 -21.3955416153 6.9399854911
H 10.02555371 -20.7788676763 8.817357874
H 13.4126109611 -20.2937586675 7.0364782735
C 11.9375161522 -17.5608160296 9.0862306845
C 12.0682136455 -21.8684866708 6.4139386856
C 10.7776961082 -17.5614175214 8.2650400925
H 11.118751643 -21.093694369 11.1092724611
C 13.3075052167 -17.2863813544 7.1620194031
C 13.2206846209 -17.4608814153 8.4718200511
C 10.9305494023 -17.4499272145 6.9053753934
C 9.2311444525 -20.2153124247 10.7627576178
C 9.1492613874 -20.3924592051 9.3740419658
C 10.3378837556 -20.5442782174 11.5857870135
C 11.9221495749 -23.4152447927 6.3874355521
C 11.8303025056 -17.493482226 10.5154188238
C 12.974886163 -23.3046813039 8.7802492577
H 9.7345609293 -17.6936963755 8.6751734765
H 13.391253905 -23.2338788548 10.8129219769
H 13.7619772385 -18.1254899706 11.0845673424
H 14.3333159719 -21.772847185 6.6401806955
C 12.8625133614 -17.6166113901 11.3944718894
H 14.0740242096 -17.2622660402 9.1434034556
C 12.2074115781 -17.2940891456 6.3208414819
H 14.2878236146 -17.0999625235 6.6666906727
H 9.0541487108 -17.510025573 6.5768367681
C 10.5464582591 -23.8078257271 5.8780353531
C 10.7885695098 -16.7353274878 11.0007874166
C 12.2505423887 -23.9633282241 7.7433496908
H 9.8647200775 -23.6970278051 6.7814754624
C 13.1770262433 -23.8964453426 9.9754190457
H 7.9292040561 -20.1836961297 7.6367393403
H 8.6882036815 -23.6247764386 11.3979891184
C 12.9413266221 -16.9135492362 12.6220719471
H 12.7009695427 -23.822040661 5.7104559176
C 7.9878946914 -20.0428510932 8.7543451464
C 8.2806519286 -19.0562092999 12.791364945
H 16.3600068945 -23.3220527669 7.2259652072
O 9.8569763826 -17.4723816792 6.0616711156
C 10.5751023834 -19.9710068125 12.8527748223
C 8.1658117241 -19.4602798135 11.4483672016
H 14.5685469552 -24.0843491593 12.0988003047
C 8.9096185367 -23.8024301564 17.013535202
C 9.4434936467 -22.5090834635 17.2830518123
H 11.1945296973 -24.0667054781 19.4593145419
H 14.37542879 -17.4608953705 18.8233330963
C 15.9191789364 -18.8085398553 19.8824171608
H 13.8187317807 -17.0495729031 13.2864974604
H 13.2445039783 -22.4505330986 13.3870210181
H 12.7988877676 -19.124658467 18.7571559543
H 8.4313621942 -19.6869924711 18.9064440845
C 8.5579591381 -21.6021361993 17.9465489792
C 8.7059991343 -17.6906943662 15.1828584632
C 9.048905381 -20.3703188077 18.3300608095
H 10.7351573437 -23.3074674717 15.1770781735
H 11.5455499451 -20.0516797339 13.4701115837
C 10.6657708826 -22.0603994155 16.8386632323
H 8.9428000121 -17.1412612488 16.0861337419
C 15.2890181786 -20.0023497875 16.7884743027
C 11.259756017 -20.9485036438 17.4569228656
C 9.7165456993 -18.4258488794 14.6325861042
H 12.6100907015 -23.9793811625 13.8976032804
H 14.215482965 -23.4091566573 14.4347040131
S 15.5251583963 -21.3877164158 14.5503598499
H 10.7287280542 -18.3469707352 15.1503050609
H 15.5342734308 -19.8268953009 20.0504661204
C 13.2471071302 -19.6147926827 17.8854960372
H 15.9232552872 -17.671098367 18.1427315315
C 14.6418701215 -20.9088751138 15.9618602006
C 13.1741933986 -23.0898972154 14.2554721414
C 9.5480536399 -19.1278540317 13.4100575287
C 10.4054209535 -20.1699291725 18.24512962
C 14.6014854735 -19.3313718876 17.7732778926
C 12.574396676 -20.5731626104 17.101654295
C 15.1731928649 -18.2298378293 18.6346024908
C 12.6292950961 -22.2806217732 15.3691395914
C 13.2648429619 -21.2540274736 16.1113247253
H 10.7656308687 -19.2624177381 18.7248975369
C 11.3516898723 -22.5962229301 15.7226277413
H 16.2444047447 -19.5548862356 16.5157867315
H 16.0056253974 -24.0787861267 17.5228958203
C 14.8964698815 -11.8908187052 -3.1458829515
H 13.0963337514 -12.9131654537 -4.0811852873
C 13.5960469865 -12.4421863929 -3.1750417007
C 10.0220395877 -10.4025981785 -6.1388163594
C 10.3891825532 -11.8079334728 -6.5304919692
H 11.2075607726 -12.1397439207 -7.2093275199
C 9.5660068323 -12.7580364765 -5.9190510416
H 10.8159383868 -9.7271065064 -5.60380743
H 11.3674679527 -14.8461552359 -4.2436192713
H 15.298165736 -15.4386584077 -4.7193380057
C 11.8734840061 -14.5946820038 -2.1406959474
H 10.9544583273 -12.8174592706 -2.9200279167
C 11.7795682275 -15.3810508395 -3.3480183846
H 9.7752098225 -13.8440216821 -5.8600578629
C 11.5631268725 -13.1695586213 -2.0706799972
H 15.3531514311 -15.637411091 -7.0833098535
C 12.8538077302 -12.4776204338 -2.0223655043
C 8.7956664366 -10.7278813189 -5.2859124185
H 9.7175385673 -9.7357089156 -7.0017191066
C 16.0407338647 -11.5761874381 -4.0066129474
H 15.7086417849 -11.7364022233 -6.2426637542
C 9.7268737389 -15.5266115811 -8.4976718103
C 8.5842871933 -12.0945493993 -5.2294816565
O 16.5215717511 -10.8019014583 -1.8323328881
H 8.0702441502 -10.0108569537 -4.9178625614
C 15.2717204289 -11.490196697 -1.934363218
H 13.659763156 -15.9156859776 -8.5664155068
H 8.5309311402 -13.055668856 -1.8844904059
C 12.5441974562 -15.7160367984 -8.494657911
O 8.3602459448 -15.5329595709 -8.6968974667
H 13.215542509 -9.5215103673 -3.4116773861
C 10.4880661903 -14.4504162922 -8.9598279022
C 16.3834180357 -11.4088474505 -5.4158237066
C 11.8673339661 -14.6127850681 -8.9986854191
C 16.3582645081 -15.5968572512 -4.7473612321
C 8.1807897536 -13.9539155101 -2.3374862978
C 16.4278903973 -15.8670957636 -7.1856143224
H 8.0229257664 -14.6416577963 -8.7464640786
H 15.7904830902 -8.9476208477 -5.7432896172
H 9.4977465105 -10.1638616926 -0.4771713075
C 15.8008080657 -15.6787741305 4.1466900181
C 10.5250172884 -10.1607061853 5.4515204381
C 13.3744043525 -12.0040000494 -0.8337403573
H 14.1758354965 -16.5778080004 1.8594175813
C 12.3708783888 -15.5071946483 -1.2147060227
H 10.8878286479 -13.0173022532 -1.1773760591
H 8.8573634554 -9.8202018906 1.9182457586
O 9.8600466109 -16.1275333468 2.8637222362
C 9.0714778239 -15.435222826 0.7446324769
C 8.1852448272 -15.1965291535 -1.6740183001
H 15.3498582548 -14.8048884311 3.656105332
C 8.6408287645 -14.3753259926 4.0472634043
C 14.7485675194 -11.1953247234 3.5309040619
H 10.6687922768 -9.1554700976 0.1474817654
C 8.2189368599 -9.9590364617 4.8719866275
H 13.6962691203 -10.977189461 3.2269761832
O 15.2171964496 -12.0141218911 1.2816481214
C 15.2315323874 -10.780702146 4.7762812828
C 9.4665519522 -16.467692749 1.5825833693
H 11.5367750675 -14.1356351358 2.5315715771
C 8.4027797313 -13.071427885 4.50701618
C 10.557883693 -12.6031080379 3.6420400616
C 16.5273307801 -15.63277091 5.3187211707
C 15.6067670838 -11.6087939201 2.5260593543
H 13.0014756741 -11.2882242707 0.8874661489
O 12.6884155065 -12.0488868569 0.3799515086
H 16.1964989247 -10.4200062391 0.4855978856
H 14.569041333 -10.0124318833 0.9409416798
H 11.3600493236 -11.9091836271 3.407667567
C 10.6810008013 -13.8627400654 3.0880382935
C 14.6402091068 -11.3553931007 -0.7360564435
C 9.7244123718 -14.8212176628 3.272843061
C 9.4348589814 -12.08485342 4.3426704794
C 15.1487511117 -10.8305441456 0.507126009
H 12.4366046193 -15.3007541981 -0.0785443777
C 9.5717330307 -9.1393681521 -0.0610500433
H 9.1754202206 -14.3583179428 0.8831327332
C 9.3915955184 -10.7213911615 4.7802105223
C 8.6170094678 -15.8111365551 -0.5122042436
H 11.4389700151 -9.3727601952 2.1085112274
O 14.3286979858 -10.1032972083 5.6142141375
C 16.5534761593 -11.1563267482 5.1112539143
H 11.4667949091 -10.7602081841 5.483020522
H 12.3918013369 -13.3074653149 5.4333824893
C 9.3650795519 -14.1463850157 8.2838790853
C 10.3882302547 -14.2232194526 7.1777714502
C 14.041519365 -11.0016075464 11.1790215739
H 13.308474774 -14.8159928665 8.5749761355
C 11.5099867699 -13.1807481359 8.8438770169
C 13.6527095155 -12.9163867658 9.6314798994
C 14.0060652554 -14.1754295273 9.1386786545
O 12.3646485611 -12.4747933098 9.5599536445
C 14.6112184912 -12.1528139389 10.4017938132
C 11.5309147934 -13.511333227 7.4739164082
C 12.7091015914 -13.1392488444 6.563699454
C 10.2477970811 -13.6011435386 9.3306329165
H 10.0013596766 -13.5541798086 10.4185367597
H 13.0807230512 -11.2204416412 11.6725269355
C 15.383711084 -14.6343194397 9.1693498354
H 10.4937716797 -10.8235389662 10.6274813217
H 14.5988706718 -10.5474424698 12.0464424177
H 13.0475839618 -10.0609216233 7.7952490894
C 15.8827957736 -12.624914562 10.3711096409
H 11.6890877603 -13.5527944365 12.3533702797
H 8.9334162418 -15.1031871413 8.5707610743
C 9.9387882001 -10.4925103126 11.5020639333
C 14.0842776024 -9.7062385118 7.9350477412
C 13.6664574076 -9.7803307952 10.2775544563
H 8.6330101438 -13.4399050012 7.9698853919
H 15.6797263219 -15.6703064903 8.9159614402
C 14.906403638 -9.6131300195 6.7887754292
H 12.6313716869 -9.9169382018 9.9234372391
C 14.573260227 -9.4715794513 9.1654013575
H 12.9015176195 -12.0486328067 6.6976166258
H 9.8459279477 -15.6803149718 12.5631550731
H 10.2527246629 -14.5520368185 6.1625210733
H 13.5440997878 -13.856979235 6.7664122367
C 10.4095662696 -8.9893042812 6.2405881129
N 16.1081612842 -9.0085622787 6.8849775849
C 9.9552514327 -11.1400004027 12.7444675863
H 9.9252232667 -16.5639114367 10.3682781959
C 11.9379221086 -16.1329525718 13.0231315305
H 9.8794591638 -9.1064192827 9.1429714365
C 9.1944569463 -9.3679882146 11.3071332714
C 16.4024090011 -13.7820764769 9.8040327452
C 10.7956675272 -16.1604291005 12.2319029627
H 16.0650288926 -16.2864004796 20.2243327377
H 15.7240832289 -16.0142168019 15.0313469205
H 11.0762706409 -15.7271324426 16.4277689223
C 13.5929301381 -13.0762828541 19.2108011426
C 10.5804607481 -14.1380772575 15.6210443744
C 9.848034606 -12.8772327489 15.7638410531
H 15.611915889 -13.4123337403 18.6321065779
C 14.8801641287 -13.7861170389 19.3409154766
C 11.0586047776 -13.5030744694 13.2822049765
H 9.3901919593 -12.4875350807 16.6939956873
O 10.756514932 -14.8967392206 16.7499496002
H 14.7526444705 -11.5693161731 18.1467453992
H 14.794267048 -14.8289420852 18.9633035533
C 11.2073697464 -12.6724398853 19.3565976273
O 11.8904977402 -15.5737234707 14.2711156984
H 11.8365231222 -9.7541151756 17.2058549693
C 8.5136325104 -9.3070451785 13.6477824947
N 9.9804944748 -13.2689226775 19.9288812938
H 8.5343559758 -10.2525915211 17.9504975396
C 15.2147236496 -9.7459769859 14.7812113601
C 11.1806726179 -14.366991358 14.3984247972
O 12.7369056137 -10.0465701535 17.3891909635
H 14.9897668002 -14.3652123824 14.6171472044
H 13.1738503991 -10.1959522808 14.3977361626
C 12.3442873143 -13.447530977 19.6951258093
C 9.832368354 -12.2144740574 14.610088537
C 10.3392974434 -12.3012992523 13.4117211323
C 9.2160661017 -10.4808535141 13.6089765281
H 14.118461672 -12.0065206772 14.0862044072
O 9.0688555274 -11.0125288715 14.9334707096
H 10.6191808527 -10.831762165 18.2641072012
C 15.482539492 -13.4086076178 14.9855976547
C 15.7104531263 -11.0240209551 15.107933389
C 15.0537488436 -12.1609112671 14.6381053391
C 12.6138497616 -11.1243742984 18.1628718161
C 13.9617882431 -9.3885892686 14.3475980354
C 13.7416389087 -11.8849703251 18.5370292772
C 11.3776919808 -11.4956582722 18.647936043
H 9.2208221852 -13.4721495031 19.2131716121
C 16.6399052586 -13.5748001487 15.7872155246
H 15.3657413011 -13.6886820755 20.3106995241
H 8.0452873871 -9.9621030727 20.3613811597
H 9.5008391609 -5.9671940648 -6.3905610284
C 14.1262438804 -7.4405886261 -3.6986538877
H 14.7242464969 -3.7194366819 -5.9332581263
C 13.1043447527 -5.0773497734 -6.3156109795
N 14.4363336596 -4.6986839481 -6.0748447287
C 12.7073608583 -6.2620949044 -5.582444641
C 13.8423859384 -6.5091220349 -4.6746309579
C 11.3604120457 -6.6507039488 -5.7011122144
C 14.8530575859 -5.5815134128 -5.0496936629
C 12.3043499507 -4.4943015947 -7.2234215222
H 10.921279024 -7.4067202571 -5.0610487302
C 10.9775498007 -4.9552841064 -7.3453080765
C 10.560098478 -5.8901119046 -6.4780559392
O 9.6175904572 -3.5243875492 -4.2133238886
C 15.3897017582 -7.4369029752 -3.1022639645
O 12.758849985 -3.5003607049 -8.1272587125
C 14.7665719043 -2.2330184687 -3.7931142051
H 13.9044020215 -7.9862394527 -6.974176886
O 9.8189728738 -2.9440524272 -8.2388774247
C 10.4303653142 -3.9819808926 -3.2233353694
H 10.080540324 -2.6857627431 -4.4994957881
C 11.5654402925 -3.2122025087 -2.8900743955
C 10.2231170305 -5.1588784648 -2.4115030077
H 11.7952516958 -2.2621210521 -3.4987875248
C 10.0518283542 -4.3349359814 -8.3297854616
C 9.210243396 -6.1263545636 -2.3950189282
H 9.0647283865 -4.8281547174 -8.3276023202
H 13.906169795 -2.8634639079 -4.0863779816
H 15.4095849673 -2.7904812901 -3.0944071895
C 14.8507005254 -8.2843763972 -7.5230391716
H 15.2506499985 -2.0763109959 -4.7192368354
C 15.9007459385 -8.8628114976 -6.8541666025
H 12.0534782295 -3.1514641973 -8.6444438172
C 16.1167836431 -5.6420826593 -4.60085918
C 16.4028486713 -6.5754431461 -3.6468176866
C 8.0628049433 -6.4191021694 -3.1689686306
H 15.6287180783 -8.1289310275 -2.3200220734
C 13.0294932789 -8.4655680316 -3.2132126451
C 13.3916344339 -1.4067542322 -1.9843487175
H 12.2735160017 -8.9271091743 -8.5767532738
C 14.8786670518 -8.1300464014 -8.9432230775
H 12.0101464153 -8.1796728292 -3.5381252287
C 12.4494658511 -3.5426754861 -1.8426787727
H 12.8718802453 -8.3625854272 -2.0790375857
H 12.8200170749 -1.7445651563 -5.6065739083
H 10.9065278189 -5.4337876688 5.6544738029
H 12.0326928666 -8.6899839606 3.5898319813
H 16.4754943756 -3.1472676857 -0.0239453906
C 8.1364398475 -8.7638495546 5.5878278683
O 15.6005941122 -1.5989146341 2.131956947
C 8.5451353175 -1.3834468624 3.8051527657
C 11.65000474 -8.3957098674 2.6006731552
H 15.9598722769 -3.5170331953 4.5439765078
H 13.9895247176 -4.8812613772 1.5648040466
C 12.9838668408 -4.8208513269 5.5608235185
C 15.258622059 -3.9552894818 5.2784276447
H 15.464700838 -6.0250658849 2.6909368867
O 13.5296349025 -2.7056550832 -1.559671503
C 8.9847777855 -8.2170016573 -1.0450810839
C 8.2147735282 -6.6780997287 2.2837058288
H 11.2991552911 -4.0441949152 4.5075205726
O 11.774887197 -6.0271707286 3.9124935675
C 13.2284746759 -5.2489581848 -0.0508518396
C 11.1350849369 -5.3680177953 -1.4750682185
C 14.0399892968 -4.2049249577 4.8311145701
C 11.6385040256 -5.0223477274 4.9077075874
S 11.0372874115 -6.7792203142 -0.3886566134
H 12.1071243311 -2.0268811927 0.165328422
C 9.4735976585 -7.0339296127 -1.4530298471
H 9.1880469766 -3.0411580915 2.6146162869
C 10.5569541636 -6.3247082198 3.4546019914
C 12.3133925299 -4.7461369523 -1.1602217041
O 13.1345001976 -4.7203698029 1.2315371507
C 9.2301698491 -7.6401382726 2.0588371237
H 13.760487765 -3.9218586945 3.8221819495
C 8.4654441183 -5.5858281895 3.0836441269
C 16.5413851409 -6.1084166977 2.8802774309
N 9.6910413179 -5.4196250926 3.6492084368
O 14.2728967676 -5.7255618564 -0.3534254233
C 8.4906139885 -2.6918560542 3.4097625746
C 10.4358173903 -7.4819218205 2.6997848658
H 12.4382471973 -7.9376538942 1.9879833296
C 8.7226870469 -8.9237609043 1.2704172529
H 13.748824592 -1.4701034788 4.1513179874
O 12.2795970743 -5.6017942455 7.7941707566
C 14.5217579728 -5.0225351941 7.3210019668
N 14.9381205962 -5.4367573637 8.611100046
C 9.4914990668 -7.1794284862 10.0463714079
C 10.4295861554 -5.0927615729 10.4315547155
H 11.0715340721 -4.3058688544 10.8474328564
H 12.5141134792 -3.013153328 12.1299647742
C 10.5401817138 -6.4360862858 10.6592206433
C 8.7809518816 -6.1926499421 9.3434477957
C 9.2636265145 -4.7721110821 9.543364332
C 13.219786279 -5.1109660326 6.908299271
H 11.2939552311 -6.9299560672 11.2473789516
H 14.3805422585 -5.2216991925 9.3970319838
H 12.3133427745 -5.6025344703 12.5842733686
C 15.535791748 -4.4956746142 6.5947595737
H 8.1344293324 -8.7896917131 9.5317784533
H 9.3845047751 -4.0879820207 8.6057127843
H 9.1841187457 -7.3854169831 6.8803483922
C 16.3091266101 -8.3249030734 10.574702038
H 14.2257050416 -4.9147418683 11.802755525
O 14.8743490928 -2.56463053 11.9776067146
H 11.7439237992 -8.0332167547 12.7322099076
C 8.4852562699 -8.6614130321 12.3457326771
H 8.5256774669 -4.2305090726 10.0778932718
H 9.9029415116 -1.7167448615 12.1309136069
H 11.4751351625 -5.0781214058 7.6585233429
C 9.2396197347 -8.2607392029 6.3016927148
C 15.794313937 -8.8910060436 9.3098533787
H 16.3134404877 -7.2454574056 10.5633681796
H 14.772454666 -3.1125122374 11.1749569813
C 9.1518228923 -8.6819358293 9.904974613
C 16.5169230294 -8.6582787721 8.0929410604
C 16.2205607598 -4.7726240934 8.7079623236
H 15.7956214119 -8.7732395722 11.4416702196
H 16.4321885587 -4.7786492052 10.8408355122
C 14.47585212 -3.3056110094 13.0473861664
C 14.6895983646 -4.8042536383 12.7874625398
H 11.2055939593 -8.6090328999 6.8992927933
H 15.7545812412 -5.0114460518 12.8920496837
H 13.566161191 -8.811414 10.9118954665
C 16.6486016723 -4.3553806436 7.4513903146
H 7.9150345354 -1.431356873 7.460649719
C 12.9775870515 -3.0020280713 13.0995433161
H 11.1492932969 -3.6057122289 14.1201897102
O 10.1401675341 -8.1443738974 19.6563427289
H 12.8351752926 -1.9420319274 13.4571731402
C 7.9437139891 -1.8109497974 17.7864273221
C 12.4982071318 -8.195230468 20.0936143608
H 14.9652554038 -6.4351021456 18.3714327813
C 12.168823241 -3.9705821327 14.0412116751
H 10.4824550978 -4.5838487291 20.1605453509
C 16.0537752844 -8.6237869097 14.9975465951
C 15.1779692899 -3.3895725798 19.1271571088
C 9.1803178657 -2.5681203036 20.0183114649
H 14.9930867101 -3.108574111 13.9930295147
H 10.5753536406 -6.3895660219 14.0573832851
C 14.7293157993 -1.5599471657 17.6224172895
C 12.4500785925 -5.4266235086 13.645101089
C 16.1302731719 -8.4878180473 19.9197984217
C 12.114476209 -7.9162331501 13.7445756774
C 13.7512306417 -7.7136298806 19.7440085783
H 14.750445096 -4.3150924466 19.6490782815
C 11.5404728218 -6.7062030786 18.4094208107
C 11.6675042034 -6.5625946427 14.2424983989
C 8.0410266008 -3.1379471502 18.1896397773
H 16.4362995937 -6.4806696554 14.650761679
H 11.8091560444 -6.500902014 15.3245819586
C 16.5101991086 -3.0487050646 19.302898803
C 15.7077094733 -7.35417589 14.5013934449
C 13.920856624 -5.5780750139 13.8832199092
H 8.3827334724 -5.8506737373 15.5773190378
H 13.2642412188 -3.1652276134 18.3683240151
H 14.0032054803 -5.0638744494 14.8333911568
C 8.2501909857 -7.6349438096 16.8607803961
N 8.6971577685 -3.4896013261 19.2697777237
H 10.7315602372 -6.153749846 17.8721807401
H 12.4746702283 -3.8289317563 15.1307650047
C 8.1583371652 -6.2628450718 16.6159803333
C 11.3584151601 -7.631591961 19.4083085445
C 14.278354568 -2.6786562328 18.395625181
C 13.5415449498 -8.1309615257 14.0040798379
H 11.5327890932 -8.5880532665 14.3568177017
C 13.9457082895 -6.7589699558 18.6352570106
C 12.8578162385 -6.2306510302 18.0094426463
O 8.7981028967 -8.3881656426 15.8468361502
C 14.4144128241 -7.0618795688 14.0992842046
H 12.9044655957 -5.4098941969 17.2983500343
H 11.891724167 -1.3433914949 17.8755733777
H 16.2544788411 -8.4577834458 18.8129243166
H 10.2565167576 -8.9005915085 20.2004803148
C 14.2850111926 0.393712422 -3.239706997
C 11.6364007143 0.3744205696 -5.8388101971
C 10.9389435008 1.5754835725 -6.2477501536
H 10.0403209062 0.9376654029 -3.6844360291
C 9.7851919592 2.0651501825 -5.5832179992
C 9.5255988343 1.751543118 -4.1914861144
H 9.1436796232 3.6094000504 -7.0096479774
C 8.7987907968 2.5780408915 -3.4078000903
H 11.4577664261 -0.1891046139 -4.9258307444
C 13.9441295835 2.9556353204 -4.1939426453
H 8.8857564324 2.3700874168 -2.3629705503
C 15.170393332 0.966578356 -4.1261707187
H 15.2129452034 4.8985129708 -6.984681338
C 15.0746110556 2.2334305369 -4.634379284
C 12.6650708121 -0.0720459556 -6.5913057303
C 15.7398128436 5.7206260024 -6.4195390875
H 9.3099790183 0.420256845 -8.206002479
C 8.9222971534 3.0989743996 -6.0627627751
C 12.905794862 5.7175617768 -1.7429802366
C 13.3065577071 1.2428911051 -2.6693844544
H 11.1434397994 3.3071380838 -7.7184688705
C 11.4956204447 2.3048814047 -7.3763271569
C 13.1216322777 2.5055105546 -3.2458413882
H 13.7215801799 3.9936498063 -4.6132598575
H 16.2518295501 -0.5886560839 -4.2109547207
O 13.3266829564 -1.2600735235 -6.3113606063
O 16.159758206 0.2224950475 -4.7170534229
C 14.1285117192 -0.9981480069 -3.1003981828
H 15.3617353234 2.9297655191 -6.6143785153
H 13.8669118579 0.0659597813 -8.2992552715
H 12.3198642897 3.1019422989 -2.9979285236
C 15.9700458691 2.7376068177 -5.7687852443
H 11.07684367 4.9600394388 -2.4735754097
C 13.1259811524 0.5804823173 -7.7488789675
H 10.6461727403 -0.9478438946 -8.4179667696
C 8.1698386683 3.8788939241 -5.2104557075
C 12.5161056104 1.7896005423 -8.092802369
H 13.3708850944 4.8682590981 -2.1628882202
C 9.9748294339 -0.2242701327 -8.954860188
H 9.0682713743 6.0817481145 -4.1597716225
C 8.0742467779 3.6123972201 -3.8528686253
H 16.4387305072 2.5887032679 -8.9064944319
C 11.4934164408 5.8514860035 -2.0166647624
H 13.8050243314 6.3027095948 -8.4863159011
C 16.6503135688 5.2685275048 -5.477338378
C 12.6898111645 6.3477115773 3.3952136717
C 16.4545822595 -1.2773905194 1.091938261
C 8.3957078825 2.6333563875 5.2453348614
C 14.8520175877 -0.3019050758 5.5031363708
H 12.9374785836 1.0852305989 5.2992179204
H 10.6582167547 1.8988229371 -1.0842199451
C 12.1926379744 0.0511282471 0.8781808581
H 10.5294048658 5.9536853751 3.8171323823
H 10.687644365 -1.0364998281 -0.3175114348
C 10.3813007238 1.9389683514 2.9123049778
C 11.7095278508 1.8050857471 -0.7553265238
H 9.3703790506 3.9376731394 2.9244099015
H 9.5326120893 0.9323584416 5.6611789414
H 16.1121048829 2.5519204994 0.4197067784
H 15.7949161305 4.1804359745 -0.652046518
H 14.030447552 5.3900711999 4.5706481198
H 16.1999410451 4.7173598353 4.4796973281
C 11.8156532049 -0.9866731772 -0.0761202754
H 12.4808620875 2.1263880715 1.1238031302
C 10.4087276034 1.8937236957 1.3681307278
H 12.315428327 3.5023251637 3.7374710003
C 11.5678960397 5.5099334754 3.9674161103
O 16.223461291 5.0057649181 -0.7241009327
H 9.6099490501 1.1843854152 0.9977458916
C 9.2688880348 0.9511217821 3.4309019008
H 9.5833725332 4.3817494785 5.3494682744
C 9.5875530712 -0.541781438 3.2114803308
C 11.7740827158 1.4578700699 0.774818049
C 15.7182833798 -0.9220588257 3.3175857485
C 9.7033116983 3.3151396521 4.9920299563
H 11.69223027 4.281734113 2.2042259258
H 10.4185672548 -0.7903708294 3.846895688
C 8.7251695049 1.1753331939 4.9182123486
H 9.8889647726 -0.662195404 2.1762667311
H 13.5710156807 6.2800438133 0.3299256032
O 12.7736692377 -0.2807593046 2.0813720044
C 10.1576863514 3.3477177098 3.4862359918
H 11.3761677518 1.5355565012 3.1831806206
H 10.3849874441 2.8707955842 0.9394831453
H 12.26541652 2.7465975046 -0.7832849899
C 11.5118053888 4.1229281538 3.3063569442
H 11.597486193 5.5033102032 5.0508733224
C 12.6044296914 -0.516364993 -1.2373632889
H 8.4004118127 1.1617604992 2.8287257861
C 12.5417056715 0.7866371571 -1.5849912814
C 13.9346142367 6.1780492177 3.8374152547
H 14.0082945133 2.6180731951 5.2642758035
C 14.6867830077 -0.8891484316 4.2564647398
H 10.4858245481 2.9567714317 5.6392136515
C 12.988275063 2.4228137158 9.7213123815
C 13.7939779922 2.9881989869 7.1457472022
C 13.5143930254 3.6973977536 9.4163319252
C 13.872982907 4.0024340986 8.0889767177
C 13.174359899 1.7047159042 7.3739787062
C 12.8460072741 1.6017949734 8.7426397861
C 12.3074981475 1.789171229 10.8120388105
C 11.836271678 0.653896411 10.3991686796
O 12.1707026371 0.3727791582 8.9636183446
H 13.7180946678 4.4157013446 10.2617277173
H 9.1883287421 1.9219868535 8.6039587123
O 9.8106053975 4.2138806667 9.9913550699
C 11.9848989305 2.0310007827 12.1852999
C 8.7465366918 3.4879993028 10.2101172883
O 13.865784319 -0.4651625378 6.4090432684
C 10.9339666966 -0.1788461327 12.2178544946
C 11.2361090107 -0.3988179747 10.8196071754
C 16.2998641632 0.6593569237 7.2514717396
C 8.58456292 2.3001092611 9.4612473742
C 12.9332512581 0.6234291635 6.3270007192
C 14.343097216 5.4253709497 7.8342749998
H 7.9666316848 2.6273662726 6.2498035402
H 11.9084367577 0.1928122948 6.4968573118
C 11.3217818389 1.0294513978 12.8301053618
H 14.0738980153 5.7522647875 6.7701397275
H 15.9455029053 1.6779569824 7.4347173268
H 12.2825506652 3.0137301313 12.5962780036
H 15.8601493807 -0.0411518684 7.9856382845
C 15.7189592465 5.5409435884 8.3125733629
H 16.4043544907 2.9791787384 10.9418914947
H 16.6028257671 0.4582106222 11.5836796634
H 10.9872187011 5.7214737838 12.8380483208
C 16.0884345578 0.1917184077 5.8763790908
H 10.1312849637 4.5541782281 10.8213322319
H 13.7248351445 6.0538760708 8.4222655948
H 15.5937868234 6.1891473704 12.4139495112
H 16.6546997588 3.6660973008 7.8399437861
H 10.9596660841 -1.2549017789 10.1571827701
H 10.2411811665 6.0590023716 7.702729168
O 14.2719214898 3.2961630395 5.8918180424
O 10.2687920608 -1.2404595107 12.8744754298
H 9.0564940334 5.8197283998 19.7498293517
C 11.4936845015 -0.1993782413 16.139941872
C 16.1071152196 -1.216524412 17.7302068447
H 8.2851416163 3.6476472545 14.1135548812
C 10.8856739592 5.4836836479 13.8978849404
H 8.1268809755 4.0468488001 15.8735380215
C 13.8088038928 -0.8484020126 16.7491692875
H 10.1062102082 6.3629021592 18.3945552582
H 11.3412910642 4.5156639103 13.8921564917
H 10.4954856611 -0.1540021632 16.5214327002
C 11.9200071104 0.4543925987 15.0133347319
H 9.7869581721 5.4400464374 14.1086463918
C 14.1717231619 5.8428904836 17.8753779391
C 12.4199761814 -0.8193638195 17.0328558203
H 9.3653261323 4.7665014211 18.3534038604
O 11.2169632703 4.2605914739 16.3750030518
H 13.7527516233 1.1793676229 13.9579655582
C 16.4844892812 2.503014788 17.4883053284
C 9.2298432198 5.7994820428 18.6750557896
H 16.6103404766 0.7728532827 20.2570302786
C 16.6511029908 1.786453385 19.76818445
C 13.3035118389 0.5992154529 14.8205379159
C 15.1694495442 5.5410855963 18.7693374178
H 10.565475073 4.6051499725 15.7582242974
H 8.2114770787 1.4987324529 13.5537294254
O 11.0500183252 1.1291569161 14.1939779401
H 14.7619266778 1.6815501972 18.4525826214
H 16.1622536578 2.6727673088 16.4714757474
C 12.1466000924 5.2590154636 16.6824305874
C 14.1848880571 -0.1347145486 15.6120671052
H 9.2989348378 1.2668215665 18.2722505051
C 8.3170963275 0.6916631211 18.2092663429
C 13.144373543 4.9459367925 17.5362313407
H 13.072524531 3.9778071544 18.0589553832
C 8.3810075417 -0.7824767935 18.6206084158
H 15.232087849 -0.112131409 15.3085802897
C 15.8088450767 1.9450200072 18.5841159538
H 15.287129275 4.5547792443 19.1731592366
H 16.4873628428 -0.3589746973 17.1277304274
H 10.520398243 0.3946314277 19.8150350117
C 8.0570648521 6.3293169656 17.9766699772
C 9.0717064458 -1.204342557 19.7126236926
H 12.7366727574 2.2282644567 20.3280467642
C 9.3217683064 11.7786012863 -4.1815046041
C 9.9515872937 9.4996024989 -4.8080507751
C 11.6251520935 11.3991607348 -5.1643846284
H 12.047488635 10.5414055054 -5.7487005985
C 12.3917301286 11.7708508439 -3.9857094426
H 11.3831708507 12.2112841566 -5.8338172378
H 10.6357152472 8.8014052498 -5.2434317067
C 10.2327597089 10.7977786484 -4.7434465019
C 8.6907312392 9.1028186719 -4.2059805364
C 13.143227809 12.9637203521 -3.7604479557
C 12.7281793879 10.8512677503 -2.9899270359
O 9.5778727442 13.0913953309 -4.3390982275
C 13.5931120932 11.4580435097 -2.1141337694
O 14.2069070511 9.8095614627 -6.2673040629
H 12.3871017468 9.8102286991 -2.9576755362
C 15.8027172509 8.0233142471 -5.6408811531
C 8.7178319706 9.4830580059 -7.9753314453
C 15.3118884904 9.3442706066 -5.5568437098
C 15.9552178344 10.2160512963 -4.6829660771
H 15.5286606798 11.1909412519 -4.6459945855
H 13.6480416258 9.0702005247 -6.3572204835
C 13.9010008562 12.9157451553 -2.5302020228
H 15.0034569856 13.0934347586 -2.745213488
H 13.1175670888 12.1250608683 -7.9447146415
O 8.9747248191 6.9830104857 -7.5705058746
H 9.6713793974 7.0874466432 -8.1985644968
H 12.9453733251 13.829556959 -4.439228341
C 9.9460668104 9.8859325327 -8.5651548329
H 10.0259861333 13.6527090267 -7.3521578421
S 14.1072309447 7.3821088993 -7.7834104325
C 8.131433355 11.3692635519 -3.4533070054
C 7.9768921029 7.9073244655 -3.9597694687
C 7.9909307656 10.0738192581 -3.6490004446
H 9.3821087187 13.4803850845 -3.4669894619
C 15.2328739077 7.0217858026 -6.4406219678
C 15.3954057694 12.7790122219 -7.9014174563
H 15.9283331793 12.0072116448 -7.3726345164
S 8.3182262891 12.1554700589 -8.3861320198
C 8.2635512534 8.2353823073 -7.52372798
C 14.0313914342 12.3971629494 -8.4100055366
H 13.4500553996 13.5654619776 -1.7491335632
C 8.0547899443 6.4721737536 -3.9353458909
H 15.5079934102 13.6290870046 -7.2141901555
C 11.2738945931 9.3787999802 -8.9283143311
H 11.5633958351 8.3851670477 -8.9155624554
H 9.0099832867 6.8391173808 -1.7715961207
C 9.8431256073 11.1768125006 -8.85470001
H 8.2776875229 11.3761320898 2.7154277163
H 14.0667416212 10.9134261501 -1.3160619991
H 14.2006944804 7.3216810053 -1.0350742997
H 8.6010631142 9.6181501533 4.2265738826
C 9.5572296273 8.7144734235 -0.6979174096
C 13.7353053387 11.3875826298 5.1968833538
O 12.2386604746 9.5050479432 5.1289037134
C 12.2894736173 12.549163728 3.064887279
C 15.1196112642 13.2900250922 5.374623701
C 13.5213752958 8.1633470175 2.1247996235
C 11.0923788565 7.0477400154 -1.3610202783
C 9.7685673556 7.5289698648 -1.3653546343
H 10.9845968961 10.8594529552 3.2772983232
C 11.9219927726 11.3170097677 3.613098531
H 15.8731059969 9.9046706247 0.6090489546
H 10.3975332983 10.2488630697 0.6329695524
C 16.3552361822 6.7490450617 4.0518266741
C 12.464748414 7.3876713598 2.532348532
C 15.0837247179 6.9494184991 3.4607357234
C 12.6491176343 10.6972021458 4.5775969201
C 12.1337260767 7.6180763813 -0.6772252133
C 14.0867401056 12.6052862346 4.6565494953
C 15.8271445851 10.2206675403 1.6242507375
C 14.8140400713 8.0494789332 2.6129243264
C 13.3606156213 6.7319270905 -0.6926054811
C 15.81664918 9.0411254554 2.5061170201
C 8.0437629914 11.3438917213 5.2512688161
H 11.3817771714 7.5719667504 2.203279398
N 8.7897511495 10.1697926286 5.0276239836
H 11.584387802 9.1698044555 4.5200685146
C 11.5654458729 13.1737019745 2.0493642491
H 14.9999567133 10.9589345659 1.7784492417
C 13.4806660825 13.1264211498 3.5448979665
H 8.109019741 7.3560054131 1.9577756571
H 10.6274115895 12.7864144888 1.7469954746
H 8.4941223266 9.0822058337 -0.7877277919
S 13.1548784609 9.4742756616 1.0050626818
C 11.8767103492 8.7534031961 0.018210495
C 10.6316488518 9.3020714594 0.0338785542
H 10.4970002614 13.4079917518 5.6387299532
O 16.6519345383 13.3278997381 0.7147024763
C 12.2024453555 10.935303071 9.2526867888
C 13.4596160984 12.3931882182 11.3867909396
C 12.7538766535 10.2758980543 10.4086951247
H 11.6002340299 10.4303312279 8.4622125536
C 12.6034336147 8.8697478562 10.4721774637
H 11.9601690192 8.3166747125 9.7950885765
C 9.2336788911 8.8419546323 8.8933101513
C 9.6589427037 8.0052244592 7.9112014571
C 13.4848328647 10.9942385428 11.3739747245
C 13.3134127993 8.1377495655 11.4032654414
C 12.4669090043 12.3004095113 9.0669258128
H 9.1723703652 8.557153751 9.9746785599
H 11.7341366222 12.4011914335 6.991463927
C 14.4413382306 9.2894156704 6.7072598314
C 15.1886559912 11.6170452368 7.1134906384
C 12.1119745138 12.9581018571 7.8707049408
C 13.0474171658 12.9891761011 10.1274440389
H 13.5705682624 9.0136758146 7.3742844649
H 15.187022792 10.276178082 8.8909924732
C 14.4000948714 13.0798651486 12.1488276716
C 15.5069230132 12.8908094754 6.6485106341
H 8.6860613098 11.7028630075 9.9523637009
C 14.4934248104 10.7981313365 6.2859106813
C 8.4169683975 9.9797338264 8.6573037291
C 8.3681268 10.3435717342 7.3078032471
H 10.7473875211 8.0096917189 12.1643866515
C 7.9970268853 10.8783047173 9.7853651223
O 10.395393809 6.8363550341 8.3279128907
H 7.9272343938 10.3275901833 10.7456837522
C 8.971141363 9.537332451 6.2970583254
H 15.429500446 7.4578011355 9.3106882014
H 15.3419875806 8.971243672 7.2500309873
C 9.6033602404 8.3721942361 6.5842382166
C 14.356783862 10.2547796521 12.207442911
C 14.2451631828 8.836331123 12.2993820924
H 15.9489410652 11.7405077093 9.2999515526
H 12.4090820738 6.5970304822 10.8428198681
O 13.2163421965 6.7909281143 11.3337415288
H 16.0783598204 13.7878932462 8.4636135269
C 15.7310043076 11.1003024455 8.4110410779
C 16.1406191423 6.6280477567 9.1032252535
C 15.3523540881 12.4007217582 12.8813237935
C 15.3425062392 10.9338669168 12.9333540254
C 15.1662721803 8.1344763295 13.0221937554
C 16.4449313986 13.817371385 7.415387063
H 10.0885258676 7.9004870582 5.7562436537
H 8.5857459593 13.1158091433 12.9682032555
H 14.3972047778 8.5560331556 5.8687657812
H 15.8449712615 6.3937050666 14.0739845877
H 9.4367890594 13.9258364708 19.5985409983
C 10.6332960445 11.1924408373 15.006801401
C 12.2218203629 6.4583012234 15.8867057382
C 16.0507036968 13.1961270882 20.2474129658
H 11.5522860551 10.4135287844 13.2514973851
C 8.3387007784 7.1179333505 16.8950103919
C 15.5459466674 13.1927945007 17.6788950517
H 9.4702582075 7.3538387288 13.0825785415
C 10.2929037637 8.1056660634 13.1255948911
H 9.908956677 9.1347639711 13.1979884857
C 9.4037002881 12.0403135284 16.8178269809
C 8.0280400079 11.7781535559 16.96958532
C 15.1831610825 6.6832294211 13.2725642175
C 16.1971817151 8.823197726 13.6261192053
H 9.3434359579 7.1358376964 16.522456309
C 9.7479894925 13.3500979759 16.8680992171
H 10.816739329 12.1993677198 14.7841657838
H 10.827780869 13.4775681459 16.807262588
C 11.8807767135 11.5462309495 19.5740691277
C 13.7880080061 9.6921299149 16.2535092296
H 10.0722273587 9.8673629449 16.8069250603
C 14.7487721636 9.4750832323 17.2095380967
H 16.5320552406 9.9117365264 19.0357552817
H 14.6816452164 13.0432928452 17.1082296857
C 16.2529105378 10.1897528682 13.7260199595
C 13.9663319564 12.5609235671 19.564713978
H 9.6699326129 10.96782276 14.487574078
H 11.4345610999 11.019378935 17.0522666854
H 12.6514122626 10.9214585305 14.3316660844
C 13.1299938006 7.4362468639 16.303412826
C 12.1046682783 10.1965291061 19.7985038255
C 16.1100377849 6.5529742618 19.1399977457
C 10.4175197865 13.6685680901 20.0229166558
C 14.1127234274 7.1277210786 17.2701534509
H 13.058157337 9.8089702408 19.4336167534
C 11.2586578842 7.8209486152 14.2457943044
H 15.4021946697 10.3144799531 17.3797630493
C 10.6323796272 12.1700157122 20.0821651968
C 11.8855262112 8.9434799339 14.8114612791
O 12.7925718494 12.2774950082 18.8870775464
C 14.9217993536 8.1884441938 17.7372029627
C 12.9064259827 8.7044658454 15.7923957734
C 10.4225669154 10.9489812044 16.5174038278
C 15.9035899911 7.8828659007 18.7344601542
H 13.6351929485 10.7575077018 15.913008303
C 11.7421695741 10.3975656792 14.3000331524
C 15.2314562993 12.9638224186 19.0762135907
H 16.3765744463 12.5148729537 17.2932737265
C 11.4584274902 6.6099787552 14.7120836831
H 16.048323236 12.9266130928 13.5430273716
H 14.1191570874 6.388294898 13.501346041
