        3640

H            3.85266   3.68186   3.30423
C            4.05646   4.55401   2.77043
O            5.09616   4.86659   5.70711
O            3.95771   1.29745   5.08092
C            1.52732   0.96120   2.34350
C            4.18691   5.67031   4.94012
C            4.30170   5.69878   3.47721
C            4.11609   4.62265   1.38033
H            3.18659   5.27759   5.15871
C            4.19499   0.64726   6.03526
C            7.82332   1.83881   4.02361
C            1.12107   0.46848   3.56908
H            3.93205   3.68064   0.88590
C            4.51932   5.84130   0.79362
H            1.18982   2.70545   1.05056
C            7.88992   2.51933   1.33732
C            0.59786   2.03780   1.71272
H            0.75029   5.30266   2.05219
H            0.78956   3.40116   3.44265
C            2.66706   0.39993   1.73030
H            5.80466   0.09327   5.40887
C            8.57218   2.93187   3.60590
H            4.23451   6.69256   5.31464
H            6.49980   0.28977   3.59540
H            8.62426   6.67098   3.92360
C            4.78034   5.05364   7.05486
C            7.12110   1.42870   1.84454
C            2.98635   0.30393   6.89970
C            7.11250   1.08515   3.14904
C            4.57695   6.96889   2.87293
C            4.80456   6.97639   1.54883
H            7.67695   1.75232   5.09033
C            8.01819   2.95793   0.00000
H            1.11718   7.44109   3.19073
C            0.56946   6.03701   6.78385
N            3.52711   5.62238   7.22682
C            0.11098   6.65356   5.66159
H            6.49896   1.02674   1.04245
C            2.93522   0.69951   0.31389
H            7.59337   5.16661   0.32422
H            0.30625   1.12710   5.37817
H            0.87819   7.26018   0.43141
H            0.37486   4.91953   6.77857
H            6.91007   3.45181   6.81306
C            8.64541   3.23297   2.27016
C            1.97862   1.12392  11.67083
H            7.57006   5.03492   7.36111
C            4.21661   1.98556  12.32063
C            5.57487   4.63180   8.11056
H            2.62391   1.68776  13.63425
H            8.49533   1.78981  13.09474
H            6.33960   2.24589   9.52520
H            8.77413   7.31698  12.24049
H            0.99849   0.81652  11.86925
C            5.32024   1.86894  14.34007
H            8.31697   4.80948  12.40187
H            6.78588   2.30970  11.21558
C            5.06241   4.62320   9.38984
H            7.55936   3.58301   8.45362
H            2.71966   5.90919  13.00533
C            6.99069   4.10976   7.71163
H            5.29058   4.39129  11.35320
C            1.34465   6.70750   7.70421
C            4.52081   6.35387  14.12739
H            6.91693   4.64630  10.38511
C            5.87244   4.13134  10.47550
C            4.63389   2.02390  10.98756
C            3.68153   1.49815  10.21698
C            0.23699   6.17041  14.10255
C            5.32380   6.89603  12.94826
H            6.34073   6.39542  12.99252
O            1.84191   6.12965   8.81692
H            4.95168   6.41028  12.08732
C            5.90635   2.57925  10.52009
O            5.04426   2.59214  13.29491
C            2.92745   0.61958   8.26123
C            2.03200   0.37166   9.17144
S            4.42509   1.56875   8.56518
H            3.47803   5.47143  10.62819
C            3.83722   5.20963   9.60951
C            5.43143   0.47489  14.35678
C            2.51156   0.86725  10.36653
C            2.89031   1.55664  12.63550
C            3.27936   5.85805  14.00228
C            3.14963   5.77863   8.53649
C            6.99268   5.34028  19.13266
C            3.09140   4.82146  18.69469
C            4.36433   5.45438  18.88626
C            4.90398   5.40448  20.21690
C            2.46170   4.70423  17.44224
C            6.28133   5.09687  20.30476
C            5.12346   5.70366  17.71386
C            4.52254   5.80975  16.44389
C            3.16181   5.22027  16.30816
C            6.46705   5.73817  17.95707
H            2.56983   4.37357  19.57404
H            8.04002   5.23358  19.18147
C            5.19479   6.26011  15.33676
H            2.84555   1.90476  19.87990
H            7.18918   5.93308  17.18901
H            7.16557   1.31399  16.97079
C            6.07588   1.28057  16.58316
C            2.45349   1.84315  20.87808
C            2.85609   6.01118  21.46100
C            4.12098   5.36722  21.39514
H            5.84518   3.39737  15.84948
C            1.00970   2.21783  21.32282
C            5.76674   2.36354  15.62031
H            5.39593   1.35839  17.45705
C            1.04674   4.13812  17.42988
H            0.86961   3.25709  21.23201
C            2.57797   5.25842  15.02356
C            6.77703   4.56413  21.55426
H            2.56662   6.67521  20.66075
H            6.20067   6.58934  15.50051
H            0.90283   3.29978  16.66167
H            0.78258   3.70707  18.44620
C            5.78885   0.06357  15.69098
H            1.90575   0.08810  16.76000
H            7.88626   4.30444  21.81100
H            0.19949   1.59930  20.94858
H            0.24005   4.85742  17.10501
C            3.26324   1.43982  21.94526
H            4.24049   1.00490  21.97742
H            0.11954   6.56412  21.64075
H            1.15156   7.44127  15.58454
C            0.46090   7.37792  14.77766
S            0.97670   4.75165  14.71841
H            3.96416   0.70885  24.64982
C            0.64702   6.52512  22.64733
H            7.15747   1.65341  24.86550
H            5.42195   5.35125  25.61491
H            0.02433   1.94361  25.87238
C            3.58194   4.37085  23.52471
H            6.42066   7.12118  24.76044
C            1.21968   1.94167  22.82017
H            3.52372   3.64333  28.17312
C            2.45842   5.12587  23.63166
C            4.81838   5.30937  27.77432
C            0.82767   1.81271  25.14407
C            5.24541   7.46486  28.85731
H            2.36183   7.40412  25.27781
H            1.42313   7.36405  26.83288
C            8.43252   2.12738  28.40834
H            6.34619   3.77183  23.51958
H            6.35640   1.13537  23.49844
C            4.58015   4.66327  22.57121
C            2.51899   1.40778  23.13900
C            3.80922   0.01081  29.04921
H            8.21917   5.92916  27.69324
C            6.31509   0.04999  25.76321
C            4.41653   3.82682  27.58796
H            2.41440   1.07841  26.44391
C            2.95550   1.08564  24.40129
C            4.89949   6.11176  28.92790
H            4.26800   3.57483  26.49552
H            6.73739   1.91512  26.36344
N            6.50117   1.39168  25.56186
H            6.06486   0.44288  27.86163
H            1.73639   5.03857  24.50132
C            5.71407   7.25605  26.55191
C            8.45810   4.88291  27.93360
C            2.12727   1.36502  25.44065
C            5.28487   5.90430  26.57782
H            3.92704   3.90310  24.53252
H            5.13081   3.16248  28.05288
C            0.39074   2.15858  23.87578
C            7.99610   4.35923  29.15714
C            2.04624   5.90325  22.59696
C            5.95077   4.30600  22.66567
O            6.63412   0.57081  22.83354
H            0.03267   7.39152  25.03818
H            0.33639   5.41441  28.69347
H            2.45981   1.48389  29.18030
H            8.25710   5.54993  23.91820
H            3.87169   0.41031  27.98536
H            8.60708   1.02854  28.52898
H            0.08954   5.83770  23.32717
C            5.12504  12.97754   4.80988
C            4.32954  11.93982   4.87449
C            5.42893  13.18436   3.50802
C            5.32435  13.58490   6.05913
C            4.86810  12.17400   2.87562
C            4.85045  11.72859   1.58027
O            4.01166  11.32197   3.65380
C            3.47792  11.32255   5.75297
C            2.68850  10.05956   5.58522
H            4.26750  10.83600   1.29647
H            2.51933   9.83471   4.49864
C            5.74955  12.50787   0.76711
C            6.37356  13.89654   2.68980
C            6.45701  13.60205   1.35066
H            6.05396   9.66339   5.72447
O            1.40429  10.07108   6.22199
C            7.87472   9.91889   3.46936
H            3.32043   9.28749   5.96230
C            0.79364  13.63208   3.31921
C            6.94501   9.33047   6.29908
O            1.19944  13.94490   2.01031
H            6.03007  14.41796   6.19930
H            7.55794  10.83326   4.03368
C            8.18681  10.08973   2.10975
C            7.99666   8.70583   5.59558
C            1.35912  13.93014   5.76095
C            1.67165  14.15856   4.37578
H            5.82836   8.62427   1.04159
H            4.91799   8.85394   3.09797
H            8.12115  11.11488   1.68601
C            8.10039   8.72583   4.19103
O            7.28496  14.35396   0.54877
O            4.81955   8.06105   3.64149
C            3.75216  11.99717   7.01265
C            1.08706   8.70553   6.36165
H            7.05761  14.52896   3.23982
C            0.26161  14.73031   1.41480
N            5.10475   8.04010   0.71825
C            8.65953   8.97191   1.35757
C            0.15204   8.07853   5.56431
H            1.70115  14.32929   6.72884
H            0.23034   9.34108   1.70382
C            0.16767  13.28862   5.79441
C            0.38500  14.90619   0.05502
O            2.71056  14.94750   4.05847
H            0.14049   9.51992   4.10635
C            4.64305  13.10282   7.14886
C            8.32152  14.94018   1.27820
C            8.46818   7.63725   3.37801
C            8.64172   7.76846   1.98423
H            3.09220  15.21454   4.87236
C            0.03306   7.64621   3.14098
C            7.18555  12.54853   8.49667
H            1.94980  14.85430   9.99913
C            7.77960   8.42770   8.37516
C            1.73489   7.99875   7.43184
C            6.03030  13.06565   9.09066
C            2.35384  11.07315  11.49035
H            5.87656   8.67447  13.96866
H            0.60607  10.89373  10.40792
C            7.16946  11.86657  10.85563
H            5.35545  13.05371  11.18874
H            5.17908  14.90120   8.31174
C            0.25311  12.31245  11.91562
H            3.23579  11.63417  11.17179
C            6.75968   9.06774   7.66279
H            7.29446  12.46757   7.40179
H            7.78676   8.53150   9.47207
C            7.92106  11.83381   9.57145
H            3.91064  11.79286   8.87496
C            4.07056   9.24637  12.80613
H            7.84326  12.39149  11.63915
H            4.12994   8.23921  10.87542
O            3.31493  11.47431   8.25839
H            4.89378   9.59160   7.79693
H            2.52270   8.47475   8.06696
C            5.41255   8.49039  12.98894
C            1.10389  11.69652  10.90840
H            1.63671  10.34032  13.45600
H            6.95438  10.93866  11.25645
C            4.89140  13.79619   8.45087
H            4.51070   9.96152  10.71554
O            5.68037   9.43203   8.35440
C            0.65759  12.53681  13.16447
C            2.37674  11.06949  13.04747
H            1.32857  12.44788  10.10484
C            6.02240  12.63731  10.46858
H            1.63714   9.02142  11.45584
C            2.08037  12.41275  13.55793
C            3.87127  10.62186  13.39485
H            2.35050   9.74804   9.90446
H            6.13814   8.89886  12.25921
H            4.05656  13.77543   9.12528
C            3.91823   9.20100  11.27728
H            4.58387  11.33141  12.93588
C            2.50565   9.66424  10.98777
H            2.63393  13.12576  12.99445
H            3.38351   8.57672  13.25874
H            2.23739  12.62145  14.57730
H            4.85601  12.68632  14.69089
C            5.96713  11.38273  18.03998
C            2.16586   9.43051  18.68473
C            3.47268   9.77151  19.10080
C            5.27236  12.68605  17.84838
C            1.48000  11.47723  19.65182
C            3.70344  10.96783  19.79938
C            2.64109  11.89570  20.18823
H            4.30159   9.01975  18.93343
O            4.99930  11.23627  20.16358
H            4.68603  13.08396  18.65262
C            5.95991  10.74792  19.28448
C            6.68184  10.96078  16.96230
C            6.84539   9.73711  19.54786
C            4.41141  12.46777  16.67648
O            1.90192   8.34038  17.87931
C            7.62630   9.97021  17.17052
C            7.76593   9.48367  18.50984
O            3.06202  12.36220  17.06807
H            5.92978  13.56078  17.63815
C            1.05790  10.35686  19.07894
C            6.84995   9.08262  20.93397
H            3.14627  10.59738  15.41960
C            6.40924  11.68583  15.70447
H            4.66558   9.82329  15.29859
C            4.89867  11.89926  15.41754
H            7.00727  12.59498  15.72096
O            2.97630  14.20162  20.45651
C            7.69492  13.70601  20.83946
H            7.32603  13.46196  19.82811
C            2.76765  13.16310  20.96624
H            2.79000   8.21240  17.39087
C            4.14976  10.63358  14.90964
H            7.55838   9.60567  21.53999
C            8.43928   9.51893  16.18348
H            0.36014  13.29194  15.15013
H            0.23455   9.59054  14.72375
H            5.95839   9.15650  21.53719
H            6.80237  11.20985  14.75783
C            6.91903  14.41453  21.76433
S            0.24498  12.70751  20.27036
H            5.51890  15.10492  20.35714
H            8.24215   9.89347  15.15881
H            6.96702   8.01556  20.82116
H            3.42364  15.26809  17.69606
C            5.79360  15.10950  21.39014
H            3.09347   8.04581  26.74253
C            0.15492  13.03939  24.90292
C            8.57674  13.88840  23.36545
H            2.80803  13.87932  22.76182
C            0.85973   7.97776  23.11638
C            3.12038  10.22904  27.59786
C            2.57305  12.83362  26.37757
O            3.83234  12.86925  27.12566
C            0.50062   9.43992  24.99386
C            6.90924  15.03463  25.38428
C            7.40505  14.51615  23.08824
H            3.22470  10.98116  28.34179
C            5.81723   8.00638  27.74053
O            2.75257  13.05684  22.29312
C            0.89541  14.18318  25.20206
O            6.05538  12.21622  28.91291
H            1.22262  14.56986  28.92514
H            6.86918  12.73468  28.64687
H            7.72998  14.37417  25.81434
C            2.17143   7.93764  26.20132
C            1.55898   9.29286  25.86633
H            7.80445   9.35149  27.39738
C            0.61177  11.78336  25.29622
H            1.92884   7.97062  23.35805
O            8.52235   9.66368  26.83035
H            2.92120   9.30739  28.09014
C            2.15263  14.03972  25.84662
C            1.77426  11.70926  26.05138
C            2.10581  10.42613  26.49269
H            2.70584  14.99668  25.98764
H            6.09067   9.08011  27.77928
H            4.06062  10.22413  27.10087
H            4.19899  13.75936  27.15999
C            0.06684   8.19656  24.32351
O            6.26316   7.76356  25.41113
H            0.52505   8.73763  22.41066
C            5.61944  20.10829   4.72737
C            5.36710  18.82809   5.25644
H            4.60896  18.22595   4.78370
C            4.57646  18.73425   2.17173
H            5.62981  18.43590   2.42664
C            4.07331  19.93642   2.77236
C            3.73745  17.84343   1.55113
C            2.35199  18.15424   1.52518
C            1.88462  19.39644   1.74443
C            4.74609  20.63924   3.76827
C            2.75144  20.38081   2.40144
C            6.35528  20.98172   5.47949
C            4.27962  16.62016   1.02640
H            5.12858  16.24259   1.73323
C            5.71869  18.41659   6.50959
H            1.59747  17.52692   0.95974
C            4.37307  22.03515   3.84076
C            2.36712  21.72598   2.51804
H            3.51481  15.81416   0.89965
H            4.90724  16.63073   5.89562
H            0.87256  19.72047   1.51942
C            7.01165  20.43297   6.59237
H            3.63559  21.68777   6.64855
C            6.52481  19.29577   7.23431
C            6.23942  22.32483   5.21559
C            5.30580  17.05103   6.86216
H            6.24017  16.49111   7.16191
H            8.28846  21.97901   6.54410
C            7.98515  21.22650   7.19500
H            3.15801  20.15198   6.71717
H            1.42970  21.85629   6.11711
C            3.27511  22.59521   3.02799
H            1.41105  22.10519   2.13952
H            7.24312  21.70812   1.07490
H            7.45499  16.86720   1.07661
H            8.22065  19.44692   0.44921
H            1.12513  16.72537   6.13181
C            8.28897  16.32744   1.51710
O            0.98022  17.62648   5.88206
H            0.25789  19.20220   4.09206
C            6.68225  22.12335   0.26539
H            5.77981  21.52597   0.22520
C            1.52959  21.54679   7.15749
C            3.05139  21.06132   7.28136
C            5.22832  22.87499   4.50228
C            0.63102  18.94586  10.93572
H            2.89018  16.06390   9.24850
H            8.21924  19.85087  10.10549
H            1.45330  20.33312  14.08565
C            6.69400  15.66176  13.53095
H            5.78400  17.17757  12.37631
C            7.44775  16.39545  11.48669
C            0.35084  16.80260  11.28046
C            1.25894  16.88839  10.23372
C            8.12266  15.65160  13.57871
C            3.63985  19.67420  10.90634
C            4.56882  20.55386  11.44535
H            5.44394  15.61175  11.63314
H            4.48302  16.98292   7.59794
C            6.15527  16.18073  12.23472
C            3.48653  20.91613   8.74522
O            6.74852  22.44840  13.17024
H            5.64852  19.06964  13.86131
C            1.89781  15.79606   9.47887
C            1.12720  22.61943   8.11804
O            2.27891  18.88222   9.12154
C            7.66249  17.11785  10.41077
H            3.42418  18.84724  11.51203
C            5.85924  22.73664  10.88778
H            3.45414  19.10152  14.03807
H            0.92958  20.68772   7.40379
H            4.92190  20.42687  12.49791
C            3.11736  19.83736   9.60169
O            3.06233  18.33069  14.39410
C            6.95800  19.08028   8.60801
H            1.18137  15.63298   8.62157
C            1.48223  18.27448  10.06961
C            8.55891  16.11272  12.32313
C            4.87702  21.70054  10.63716
H            8.00949  20.47825  14.15308
C            8.37875  21.03749   8.46126
S            6.27724  17.76231   9.60529
H            0.54531  20.00482  10.77694
C            7.75087  20.07503   9.19629
C            4.36501  21.71464   9.40373
C            0.10306  22.13603   8.98660
H            0.06008  18.24133  12.98322
H            7.28564  22.93606  13.70643
H            0.06981  15.76957  11.66814
H            6.15844  15.28401  14.37650
H            0.98513  21.89226  14.69385
C            6.47583  21.31142  18.82704
C            5.16163  16.60198  17.47224
H            3.98534  16.85034  20.82174
C            3.14567  16.75353  16.17899
C            1.84104  20.78230  17.44624
H            2.77497  21.34843  17.27424
C            5.75548  17.63428  16.71439
O            5.16654  21.47768  18.84499
C            3.83831  16.21010  17.22196
C            1.63496  16.51060  15.94917
C            7.03449  18.30135  16.63656
H            6.33058  19.89814  20.42060
O            1.11349  16.23460  17.22083
H            4.94386  22.07408  18.13014
C            1.09091  20.56576  16.28847
C            1.38152  20.44488  18.73408
O            2.11282  20.84813  19.83184
H            1.01509  17.37249  15.68580
H            2.95452  21.24333  19.61101
C            3.71246  17.74181  15.36227
C            7.29194  21.84197  17.82439
H            2.95157  18.56671  21.05498
C            8.24266  17.96703  17.21247
H            5.73213  16.16289  18.30746
H            7.73446  17.15505  19.19257
C            4.98863  18.16833  15.64410
N            5.41248  22.56710  16.44155
H            0.73794  15.65175  19.57948
C            6.75932  22.53963  16.70400
C            4.27831  17.01250  21.85070
C            0.17476  19.79607  18.90442
C            8.40810  20.22256  19.87914
C            6.97491  19.20709  15.51937
H            5.05044  22.86247  15.55549
H            8.29316  18.60119  21.24676
H            4.90240  22.17864  17.14619
C            1.58888  21.02567  14.90285
C            8.35478  16.92191  18.33084
C            7.02010  20.50334  19.79038
O            2.73567  18.71845  21.99039
C            8.66226  21.84996  18.05250
H            2.63127  21.23738  15.03831
C            8.08441  19.83878  15.06369
H            8.03985  15.91253  17.95214
N            5.69223  19.12801  14.88883
H            1.37977  15.67125  15.28517
H            8.00053  22.85263  21.84531
C            6.70321  15.28373  24.01969
C            0.52896  15.49235  24.76722
C            0.30796  22.33554  27.61114
C            7.44772  22.25589  24.78111
C            3.92873  16.39073  28.03913
C            8.62353  19.60395  28.87890
C            7.08747  20.88121  25.46753
H            7.94697  17.62055  28.06263
H            1.75191  18.08429  27.64029
H            2.21452  22.23083  28.17403
C            5.71316  16.12796  23.60349
H            2.76965  20.28507  23.56394
H            4.23728  15.35507  27.98021
O            1.56635  22.80685  27.74625
O            5.61735  21.64504  23.11389
C            3.38383  18.61690  24.98712
C            7.34945  21.86594  28.35033
H            5.81529  16.66468  28.91945
H            2.92946  20.67238  25.39496
H            8.48651  22.43336  24.67837
H            2.11480  19.71509  27.15433
H            0.45105  20.62517  28.92107
H            6.59028  22.16951  27.57459
C            4.78911  16.99777  29.08220
H            1.20824  16.30931  25.02181
C            4.91283  16.83665  24.45633
C            4.04219  17.90270  24.03995
H            8.30133  22.53789  28.19700
H            8.16295  18.40520  25.46437
H            1.56316  19.63388  24.76353
C            6.80086  22.24246  23.34460
C            8.15593  20.41852  26.48870
H            5.01489  18.11078  29.04458
C            3.73630  17.94269  22.66134
H            2.88040  16.39647  28.37471
H            6.75292  19.72874  28.06893
C            7.66510  20.39703  27.98762
C            3.38387  18.13326  26.28850
H            3.11314  19.17809  28.21501
C            5.27473  16.08604  22.24337
C            2.65552  19.88917  24.63976
C            4.11536  17.02609  26.66104
H            7.05418  20.02451  24.76348
H            6.07240  20.79105  25.89623
C            4.99328  16.45114  25.80623
C            2.58131  18.78085  27.35431
H            6.16933  15.36513  27.38551
C            5.99609  15.57125  26.29442
C            5.69179  27.46445   3.49075
H            5.31731  28.01104   4.35667
C            3.32865  27.11485   2.86626
C            4.77983  26.90942   2.62252
H            2.61867  27.27164   1.95940
H            2.79165  26.28694   3.37520
H            3.30157  27.85250   3.64511
C            5.26741  26.02606   1.63526
H            5.17681  23.99493   4.49556
C            6.63775  25.71917   1.52720
C            7.06346  27.33304   3.28958
C            7.57722  26.49086   2.27680
C            7.08895  29.88695   5.10729
H            0.71056  26.69685   5.37151
H            3.12640  23.70552   2.99799
C            0.80503  27.74689   4.99898
C            7.64339  28.62591   5.33531
C            7.94418  27.72072   4.34718
C            1.62495  28.69105   5.68768
C            4.50197  25.12011   0.89298
C            7.04662  24.49123   1.05508
H            1.93256  25.18154   6.47561
H            6.88470  23.02264   5.74262
N            2.42011  28.16538   6.71052
H            1.98769  27.36664   7.16835
C            2.49780  24.50531   7.10679
C            8.12966  28.42170   6.61543
H            6.72481  30.25744   4.13284
H            4.47583  29.25641   1.78555
H            3.09267  23.79445   6.55997
H            8.02478  24.15430   1.29362
S            2.77483  25.37027   0.63452
C            4.78857  29.86739   0.96170
C            1.54427  30.07526   5.28494
C            4.91921  23.94057   0.39335
O            5.78216  29.03106   0.36103
C            0.07779  28.10476   3.86788
C            3.59031  30.20274   0.05131
H            5.53171  26.21913   6.96446
O            7.48362  25.09951   7.32402
C            0.57799  30.43429   4.30970
C            6.21535  23.52658   0.52877
H            6.61030  29.38026   0.55330
H            0.00000  26.26790   2.82207
N            0.37691  24.15304  10.11206
C            7.14630  30.47475   7.40179
H            2.61677  28.86544   7.42764
H            3.21499  25.18662   7.61561
S            4.93141  23.04717   8.24666
C            0.27251  23.83553  12.76141
H            8.25027  24.48671  12.53578
C            7.65187  29.22048   7.71526
O            4.57314  25.27135  12.52094
H            8.02859  29.04628   8.78004
C            1.81106  24.92869  14.25940
C            0.09048  29.85073  13.66166
C            1.22480  30.45659   9.41325
H            2.28130  27.53142  11.64113
O            1.32728  26.13531   9.21480
C            1.24255  29.75121  14.33687
C            6.78279  23.10986  11.96765
H            3.31097  27.23078  14.06577
C            8.58969  26.66917  11.82276
H            2.39353  23.91668  14.27948
H            0.36968  26.31162  10.96149
C            5.48490  26.75344  14.29784
C            0.55845  29.25660   9.28132
C            6.23086  28.12091  14.28990
C            6.72839  24.53988   9.40874
C            7.59345  24.19139  11.69561
C            6.08598  27.11470  11.86622
H            1.12312  23.81431  12.08641
O            5.79435  26.19500   7.91208
H            5.67022  28.87954  13.71631
C            0.45537  24.44012  14.02066
C            0.95834  28.20007  10.11437
C            5.95570  23.41691   9.75552
C            2.64055  29.60524  11.14976
H            3.50067  29.70293  11.76173
C            7.55788  27.75812  13.69244
H            5.65144  28.12240  11.79783
C            5.37070  26.28185  12.91407
H            2.11728  25.51238  13.44360
C            7.64893  24.93691  10.54641
C            7.44234  27.25126  12.38642
C            1.52673  23.91523   8.17450
H            5.95331  26.60030  10.92543
C            2.00007  28.37897  11.01249
O            8.33576  26.06461  10.56064
C            6.66885  25.22715   8.10874
C            1.03621  24.74384   9.17717
C            0.37002  26.79888  10.00739
C            3.02526  25.15565  18.20385
C            3.85962  26.15645  17.41743
H            3.30541  25.18047  19.26052
C            5.38910  26.07113  17.60271
H            3.53802  27.22057  17.66379
H            5.81042  26.95438  17.16877
C            5.75234  27.20017  19.88044
C            1.50238  25.22616  18.05110
C            1.16991  24.80572  16.57724
H            5.72831  25.20800  16.99434
H            5.25517  25.10965  19.44527
C            3.50863  25.91222  15.87555
C            6.17400  28.42784  19.49599
C            5.77993  25.97572  19.05758
H            6.66387  28.52043  18.54457
H            6.85968  25.70334  19.04662
H            1.03729  26.22866  18.19521
C            1.96570  25.62077  15.57914
H            1.17237  24.49310  18.72789
H            3.24768  24.06035  18.00347
C            6.10261  29.56056  20.27568
C            5.28601  27.07370  21.17286
C            5.37962  29.50865  21.46559
H            2.15233  28.09780  20.68853
H            1.45124  23.72990  16.46210
H            1.53020  26.60662  15.55276
H            3.96963  27.76746  15.49412
H            3.98628  24.93627  15.66214
H            6.32924  28.54721  15.28999
C            4.02138  26.90213  14.88347
C            1.11490  29.32365  18.12383
H            2.03540  28.66903  18.18227
H            5.05594  26.07286  21.51293
H            8.25703  30.01659  18.65273
C            5.04689  28.23173  21.95611
C            1.49027  27.60090  21.44140
C            0.06470  28.86556  17.35591
H            6.43162  23.63598  21.76173
C            0.46251  25.45246  21.11707
H            8.12890  28.66324  16.33287
O            8.28072  25.35659  21.06205
H            8.15516  28.73105  21.99503
H            7.29667  24.14514  15.35277
H            5.99454  25.95754  14.88321
H            3.58295  29.91444  15.66687
H            1.53919  28.89374  14.85907
H            8.38934  27.63812  20.72651
C            0.42697  26.77699  20.74018
C            7.67203  23.37427  16.05167
C            1.58393  25.28850  21.97358
C            8.67892  27.81647  21.82597
H            1.17920  28.39823  22.10537
H            4.17009  23.32433  29.38089
H            3.22551  30.34305  23.32339
C            3.59833  26.61554  27.78547
C            3.44216  27.40279  26.62217
C            8.15076  25.57843  22.39988
C            7.27499  23.34836  22.44540
H            3.32662  23.28584  24.17025
C            8.30853  26.99770  24.30803
C            8.27733  27.30339  27.10276
C            1.10986  27.07852  26.94636
H            8.40468  27.38353  28.23086
C            3.25152  26.55284  23.07450
H            1.90911  27.87816  25.12396
C            7.66892  26.20377  26.51979
C            2.56448  26.21485  28.59761
H            0.78603  29.40194  29.07563
S            3.97612  28.02247  23.32424
H            5.80994  23.72365  25.35563
C            2.06428  24.09745  22.56325
C            7.69286  24.52324  23.20407
C            2.19322  26.54442  22.23377
H            7.13598  25.60325  27.20328
H            4.16987  25.41895  24.74271
C            2.99364  24.21476  23.58529
C            1.26758  26.47638  28.19940
C            3.55848  25.46765  23.84474
C            6.91794  23.58895  25.36004
C            2.12788  27.56012  26.16628
C            7.78215  25.96294  25.15509
H            7.31178  23.77197  26.30473
H            4.67170  26.39083  27.87693
C            7.42821  24.74273  24.56293
H            4.35907  27.69375  26.05077
C            8.31271  26.84354  22.91538
H            4.77542  30.26780  24.33949
C            0.59205  30.44375  28.84283
H            1.66167  23.07656  22.35730
H            3.13906  29.22428  29.38740
C            3.56728  35.94186   4.36606
H            6.25876  34.75229   5.34919
C            7.06181  34.61847   6.02518
C            7.51971  33.20126   6.14631
H            4.66211  35.94788   4.28661
H            3.12783  35.05439   3.97852
H            3.39217  35.96499   5.43573
C            6.33472  32.17780   6.03054
H            5.83441  32.17701   5.03775
O            5.10727  35.92305   2.11192
H            4.17628  31.78479   3.02714
H            6.63053  34.91787   7.00961
H            2.58917  33.01185   6.34725
C            1.99834  32.32574   5.73938
H            5.33610  35.43513   1.34432
C            4.59876  32.18315   2.05560
C            5.45285  31.14174   1.48447
O            1.44837  37.18206   5.39077
C            2.94712  37.07695   3.57649
O            3.44868  30.68582   6.69662
C            2.34488  31.03920   5.92573
H            4.05315  31.39532   6.84610
H            2.37708  30.83572   1.73799
C            2.45556  33.65615   1.38880
C            8.29279  35.44875   5.60064
C            1.83111  37.76264   6.59343
C            4.37898  36.92998   1.52040
C            3.42688  32.46089   1.11018
H            1.66625  33.31688   2.06320
C            4.56589  37.23083   0.18157
H            5.20064  33.02541   2.27641
H            2.98345  34.53474   1.77038
C            3.37628  37.58787   2.27887
H            8.34710  32.94777   5.43101
H            5.65549  32.45347   6.83846
H            7.99364  33.10299   7.09363
C            1.83162  37.68748   4.16018
H            7.02883  34.19228   3.50960
H            6.47037  36.29275   0.02457
C            8.72892  35.49204   4.28425
C            8.00704  34.71077   3.21340
H            7.80299  35.23747   2.24731
C            0.91401  32.75634   4.98629
C            2.63018  31.19404   0.74699
H            0.73825  34.81795   5.65753
H            6.14152  31.56324   0.70351
H            3.89244  32.66267   0.16014
C            1.90075  33.96178   0.01895
C            6.88614  30.80178   6.13962
C            0.32758  34.05683   5.02611
H            8.51782  33.77474   2.95820
C            0.25443  31.77577   4.15829
H            6.13684  30.78285   2.20680
H            0.16779  36.57662   7.18981
O            5.30912  38.20078   6.19086
H            2.56922  37.73240  14.54941
H            0.09099  34.99303  10.82234
H            4.11612  31.84073  12.51895
C            0.87482  37.35831   7.53728
C            1.59981  34.68132  14.37956
C            2.87772  31.90310   9.98210
H            5.07715  34.40982  10.28240
C            3.39476  34.43025   9.03943
H            6.83870  31.16386   8.23065
H            1.49814  34.35603   8.01864
H            4.21529  37.32726  13.15279
C            1.55494  32.18496  14.02162
C            0.83702  37.86952   8.79696
C            0.29491  33.07312  12.17402
C            2.25373  33.80316   8.57633
C            4.73740  32.23602  11.70897
H            5.82255  36.69208  13.66079
H            0.98165  33.94867  11.99941
H            0.94888  37.24341  14.07025
H            7.98319  35.34578   8.40567
C            4.23071  33.80336   9.95638
H            5.51514  31.47583  11.51509
C            0.49635  32.09118  13.12731
C            5.25728  37.65190  13.38158
C            1.94799  32.54364   9.02525
C            1.96976  30.93225  14.53713
O            3.84346  35.62464   8.55303
H            5.24037  33.12773  12.05429
H            3.24831  35.98012   7.92682
C            3.94321  32.63824  10.55101
H            0.69695  34.94671  13.84700
N            0.93837  31.60730   8.65923
H            5.63490  37.88821  12.39871
C            2.31637  30.61821  10.24286
C            8.67697  36.13970   7.93295
H            8.66177  37.01188   9.87182
H            8.65289  35.40604  13.39130
H            0.04865  31.97355   8.40035
C            2.17744  33.37424  14.52336
H            0.03961  38.11924  10.43747
C            5.25380  34.25811  19.83373
C            6.14998  33.15473  19.69847
C            5.63017  35.50518  19.27687
C            4.84063  36.62789  19.58228
C            6.05770  31.97359  20.37647
C            3.88590  34.11504  20.22601
C            3.63414  36.52026  20.24211
C            3.16857  35.24119  20.50529
C            6.79782  35.61728  18.37970
C            7.26875  33.36197  18.79008
H            3.44501  33.19459  20.58699
C            7.56050  34.55620  18.13779
C            8.01663  32.20159  18.50650
H            7.04554  36.66560  18.19043
H            5.18760  37.63376  19.22494
H            1.25445  34.19100  20.73805
H            1.11254  35.97145  20.69747
H            1.32322  36.73974  17.00474
C            5.48823  31.89323  21.65417
C            1.16425  37.57070  16.27592
C            1.75675  35.14866  21.11466
C            3.47582  35.57670  15.64252
C            3.99504  34.35068  15.81646
C            2.31457  35.76684  14.92396
H            4.89449  34.38760  16.41132
H            3.92701  36.48928  16.03694
C            3.90413  31.94360  15.64187
H            4.87136  31.77483  16.25085
C            3.21014  30.84591  15.27101
H            3.10139  37.43624  20.58301
H            7.35173  36.82481  21.51625
C            1.73711  37.18323  14.88871
H            5.86902  37.34988  15.95315
H            1.44462  31.52816  18.29827
H            8.21156  34.48120  21.20735
C            0.87929  30.73046  18.71719
C            3.39386  33.19976  15.23059
C            6.48998  30.80412  19.76476
H            8.64863  32.28167  21.93416
H            8.30698  34.54225  17.33362
C            7.60678  30.91805  18.91968
H            0.02802  34.85539  17.08232
H            1.06496  30.82833  19.84932
H            7.87016  31.21910  25.21670
H            5.20667  32.81486  22.14106
C            0.11131  33.05725  28.17553
H            0.49098  31.77868  24.18594
C            6.34138  35.61178  26.59940
H            1.60435  32.68571  23.14647
C            6.00491  36.65220  27.49241
H            6.57434  31.66513  28.06166
H            3.91770  30.61997  28.55461
C            7.82900  34.29701  22.22947
H            5.12356  35.36134  28.85686
C            5.58796  36.39417  28.93525
C            6.51251  37.28832  24.74855
H            0.38837  37.85180  29.07510
C            5.07623  30.71034  22.16691
H            0.92377  31.30907  22.45262
C            4.27008  30.72571  23.46680
O            7.90716  31.32018  24.29397
C            7.02290  34.91350  24.35716
C            6.75492  37.54563  23.40470
H            2.53998  34.55223  22.96528
H            4.13163  31.77898  23.84627
C            8.16529  32.99681  22.67341
C            6.76191  33.29659  26.11424
C            6.60234  35.91674  25.22258
C            0.56443  35.10817  23.55855
H            2.77523  34.32508  28.85925
C            1.19148  32.74440  28.94333
C            7.05198  36.53389  22.50366
C            7.74420  32.60224  23.90601
H            2.24131  36.24849  22.83241
C            1.82187  35.24438  22.65806
C            6.12024  37.95108  27.08648
S            6.66212  31.68764  26.77306
H            0.93248  34.51590  24.43674
C            6.44182  34.28794  26.98692
C            7.21513  33.59169  24.81217
C            0.67270  32.17555  23.18089
H            6.16338  34.01894  28.01004
H            0.15289  36.06699  23.87986
C            1.44231  31.42731  29.29444
C            7.29347  35.26689  23.02357
H            1.19796  34.80689  29.39394
C           13.22732   4.96839   2.85921
C           12.97010   3.20519   1.25078
C           13.66149   3.74029   2.36201
C           14.54271   2.93331   3.11224
C           14.29098   1.20747   1.42126
C           14.88551   1.64393   2.58964
C           14.93537   3.39156   4.35565
H           15.48253   2.73598   5.06929
C           14.75294   4.72457   4.63288
H           11.81676   2.03583   4.82837
C           11.77840   5.26367   0.92327
C           15.89035   0.72193   3.23252
C           13.35194   1.94883   0.78743
C           13.71565   5.48483   4.05718
H           15.17768   5.04711   5.57034
C           12.31834   5.75560   2.14547
H           15.72363   0.69916   4.31630
C           11.21072   1.18488   5.20367
C           10.66583   1.15606   6.51374
H           11.97506   1.04508   2.97477
H           11.09985   5.94429   0.39207
C           12.04043   4.00647   0.51564
H           17.05649   3.31868   2.67481
H           17.06048   1.67439   6.60526
C           10.97727   0.11043   4.31840
H           11.23735   7.60537   1.87636
H            9.78536   7.38547   5.84606
H           11.18009   3.27371   6.79824
C           12.36434   7.48744   3.78005
H           16.70779   2.29618   1.17357
C           15.66903   7.53729   1.99124
H           14.55294   6.84374   6.25417
C           11.86975   6.98064   2.55725
C           13.81579   7.35816   5.63958
O           11.44811   0.28270   3.05364
C           13.26921   6.66320   4.58225
C           10.70642   2.35428   7.29477
C           17.20828   0.68799   7.00067
H            9.16480   3.43194   5.37998
H           14.82032   6.98749   2.41322
H           17.49208   6.92426   3.08371
C           17.33074   1.30018   3.00797
H            9.34979   4.11262   2.01139
O            9.24271   3.76210   4.52866
H            8.82158   6.84172   1.49346
C           17.38691   2.45325   2.06752
C           17.04351   6.92377   2.06228
H           17.19742   5.87899   1.73843
H            9.24143   0.24235  11.07398
H            8.91694   3.54180  14.52546
H            9.14045   6.00585  14.51289
C           17.57307   1.67095  13.66865
H           14.21826   2.19547  13.22930
H           16.36059   3.85206  14.47985
C           15.88360   0.27726   7.66053
H           14.19380   5.35334   8.18549
C            9.55119   1.18515  10.64671
C            9.80585   1.11217   9.23497
H           16.93882   0.71437  11.27018
H           10.68055   4.28264   8.77815
H           10.15802   1.39274  13.12986
C           17.31998   4.38237  11.27936
C           13.78372   3.48861   9.28851
H            9.55554   6.10101  10.06813
C           14.00386   4.93214   9.22822
C            9.82189   5.96590  13.57315
C           14.20920   0.32854   9.32456
C           13.86230   4.88162  11.58715
H           16.25311   4.19698  10.93094
C           13.88121   5.37515  12.93675
C            9.43266   2.24808  12.83756
C           13.50992   3.00556  13.08087
C           10.45716   4.71577  11.54620
C           10.52707   5.95812  10.66433
C            9.40616   4.77015  12.74690
H           12.50757   2.62276  13.35400
C           10.31788   3.46331   9.33511
H           14.36663   6.76486  10.46009
H           13.86651   3.01885   8.32992
O           17.08031   2.57416  12.74526
H           10.66990   3.60622  13.94905
C           15.39073   0.78740   8.83404
S           13.57431   1.02209  10.69032
C           10.13789   3.48649  10.69391
C            9.58989   3.51146  13.60973
H           11.85129   7.10431  11.89860
H           15.82450   1.77793   9.18614
C           10.76564   7.16904  11.47459
C           13.78755   4.28074  13.78544
C           10.23540   2.29499   8.62364
C           14.04651   5.65703  10.39330
C            9.71440   2.36219  11.36308
C            9.73303   7.18972  12.66601
H           13.90791   6.41728  13.32431
C           13.67978   3.49550  11.68428
C           13.62757   2.79550  10.54693
H           11.30687   5.84549   9.82443
H           11.39181   4.58923  12.14619
H            9.80305   7.53155   8.23713
O           17.16393   6.16653   9.68691
H           10.89248   5.90075  13.90935
H           12.80463   2.29705  19.02221
C           13.77647   2.65429  18.56668
C           14.75471   2.80165  19.74709
H           13.63768   3.56952  18.00929
C           11.61474   4.75501  20.47060
H           15.25597   1.79229  17.24245
C           14.27513   1.49437  17.74584
H           15.78263   2.78264  19.35985
C           14.69688   1.61893  20.70067
C           11.75889   5.98565  19.83895
C           11.15035   6.26939  18.64146
C           13.16523   1.24922  16.76714
C           10.89245   3.80884  19.83205
H           14.61170   3.77806  20.25435
C           10.45660   5.25441  17.98079
H           13.63623   1.39531  20.99958
C           16.11727   6.90437  19.57977
C           16.25348   7.09565  18.19711
C           16.95773   6.05224  20.29674
H           12.38742   0.81019  17.37819
O           16.68495   5.88136  21.60699
C           10.33300   4.02837  18.54382
H           12.86764   2.18876  16.23659
C           10.78485   2.50005  20.44009
H           10.11718   5.40223  16.93422
C           14.37493   0.27443  18.58272
H           15.75403   6.06768  21.74800
H           15.16535   7.19281  20.02744
H           16.26830   0.46947  19.78541
C           12.45538   6.95951  20.49854
C           15.21546   0.34807  19.91640
O           15.56924   1.77792  21.81588
C           17.46622   6.65867  17.55781
H            9.81306   2.08514  18.21691
C           13.58283   0.28773  15.64790
C           17.02133   3.37768  15.27688
H           13.43444   0.03270  19.02369
H           16.36070   3.23493  16.11590
C           12.87647   6.75409  21.79590
H           13.73682   4.38517  14.86852
H           16.10059   2.57005  21.59974
H           14.11875   0.77225  14.87510
H            9.92343   0.76758  20.52021
N            9.71746   2.92349  17.74017
C           11.23823   2.31231  21.69190
C           12.16101   4.56998  21.74597
H           11.34554   7.22867  16.79546
O           10.10209   1.41732  19.85753
C           16.63835   7.54021  15.46508
H            8.84543   7.47349  20.42425
C           11.15356   7.53008  17.83706
H            8.79018   3.23517  17.60304
H           12.62594   0.22477  29.01204
O           13.48626   0.25814  25.70694
C           12.54587   1.32376  29.16770
C           15.57383   1.21766  25.34874
H           11.47487   1.45199  29.28882
H           10.89651   4.25545  28.46243
H           11.97616   2.16507  24.15870
C            8.90294   2.64793  27.24088
H           14.84213   0.21698  29.07372
C            9.74403   6.60321  24.70788
H           17.09111   3.01610  24.26944
H           11.22928   1.31050  22.18330
C           14.80000   0.19225  25.82037
O            9.33698   4.51903  25.80318
H            9.39887   1.80871  26.63744
C           11.50900   7.30180  26.77480
O           14.00383   6.25049  24.52209
O           11.36392   3.56258  28.87868
C           12.78051   5.56720  22.51536
C           11.89788   3.35361  22.33680
C           12.19856   3.19344  23.73432
H           15.71329   6.34513  27.01549
C           16.74946   5.99241  26.89895
H           15.02608   2.05906  24.81478
C           16.96607   1.10408  25.28623
C           13.28467   5.30695  23.81190
H           10.75141   5.60954  27.82960
C           17.33512   5.15071  27.83973
H           14.71141   6.58373  23.89980
C           12.97710   4.12273  24.43557
C           10.62791   6.16992  26.93071
H           13.20035   3.84855  25.49918
H           16.65848   4.75281  28.65373
H           12.92707   1.81129  28.16639
C            9.87127   5.83532  25.85734
C            8.96155   4.02564  26.99509
O            8.90637   6.23188  23.71364
H           16.90848   7.61678  24.45888
H           13.26862   7.24066  29.30040
H           11.68137   9.43636   3.42832
C           12.15111   8.80555   4.13033
H           12.91307  12.81401   1.67574
H           10.62850  10.70176   1.29591
H           10.63853  11.01923   3.92636
C           12.64120   9.35838   5.24440
H           13.07682  11.35299   4.92671
C           13.57078   8.65414   5.95198
H           11.01997  13.37046   4.79370
H           15.58614  12.37480   3.18382
C           12.29193  10.81526   5.41333
C           10.87769  11.23947   5.01909
C           12.94263  13.41951   0.78300
H           15.02613  13.62750   5.14819
C           15.85156  12.93408   5.17686
C           16.13900  12.10777   4.10885
C           10.47224  12.67841   5.44722
H           13.61479   8.95712   1.57325
C           13.62224  14.58691   0.51874
H           14.35142  10.44195   1.27619
C           16.71935  14.57168   0.78178
H           10.22575  10.59788   5.67331
C           15.90420  15.13707   1.76020
C           16.76907  12.52460   6.22973
C           14.33996  15.17503   1.73338
C           14.37496   9.41756   0.96011
H           13.99085  14.62556   2.66305
H            9.51495  13.11944   1.45556
H           17.20015   9.91591   0.23912
C           17.25347  11.00138   4.35452
H           16.93776   9.98706   4.28799
C            9.42201  14.16889   1.69690
H           11.19785  14.14132   2.92709
C           15.62244   8.70097   1.23667
C           10.38742  10.93252   0.26356
O            9.10876  12.82392   5.16280
H           14.53714  11.52300   7.03755
H           12.87605  13.03377   6.82445
H            8.82011  12.37088   4.35230
C           10.79470  12.94764   6.93757
C           12.42130  11.01196   6.97936
H           10.59736  13.97999   7.12451
C           16.91912   8.97080   0.76985
C           10.35229  14.76253   2.54904
H           15.37505   9.36558   7.00588
C           14.28438   9.36255   7.13491
C            8.90776   7.90127   6.31134
H           12.39996  15.14193   4.41739
O            8.88303   9.06592   0.00721
H           16.53260  14.18036   7.63137
H           10.02052   8.01904  13.35196
H           10.39460   8.21595   9.87127
H           13.45925  11.95958  10.57432
C           17.02330  13.23362   7.43352
H           13.07283  11.33512  14.59209
O           10.75366   8.38368  10.72510
H           13.95580  10.91080   8.43698
N           16.16620  14.59248  10.62882
H           16.15606  13.89001  11.41745
O           10.43636  11.77970  14.12980
H           11.67228  10.34307   7.57189
H           16.52491   8.24708  11.42068
H            8.89434  11.42070   9.36783
C           13.02521  11.30456  11.38871
H           17.12542   9.73004  12.14537
C           11.40661  11.15700  13.30215
C           16.75748   7.96824  14.14349
C           13.80316  10.75986   7.40522
H           15.61822  10.48863  10.59904
O           17.42771  13.35161  12.71974
C           13.47083   9.67197  13.20321
H           11.23541  12.61578  11.72554
C           12.19730  12.45987   7.34602
C           14.61729   9.01471  14.06263
C           16.24577   9.05564  12.10750
H           14.75086  11.40898  12.66768
H           10.02303  12.32766   7.44529
H           11.01438  10.32630  12.70448
C           15.13116   9.79533  11.31780
H           12.58370  12.92483  12.72149
H           12.80407   8.85852  12.70917
C           12.54140  10.52547  14.11826
H           14.03144   8.75892   8.02952
H           12.50297  12.75239   8.34926
H           14.57860   9.07189  10.69358
H           12.50837  10.48493  10.87242
C           15.79142   8.63491  13.45330
C           14.15732  10.65433  12.17913
C           11.99798  12.09973  12.24934
C            8.95439   7.99743   7.71779
H           15.32504  15.11796  10.74159
H           17.35212  12.90390  13.55130
H           11.54766  10.62446  19.30196
C           12.01948  11.60096  19.53308
C           12.14355  12.48163  18.25975
C           10.79705  12.98506  17.84097
O           15.60654  12.23147  20.86041
C           15.79836  13.50664  20.37029
H           10.30070  12.21244  17.29806
H           15.26398  13.12931  18.29464
C            9.75245  12.52708  20.13437
H           12.68548  12.09255  17.43061
H           13.04182  11.26114  19.83994
H           16.28862  10.78093  17.00942
C            9.90494  13.51859  18.99315
C           11.12410  12.27818  20.67304
H           11.53697  13.31640  20.74534
C           15.53260  13.83076  19.06242
H           12.75292  13.37874  18.61947
O           10.94042  14.05145  16.97104
H           16.14925  10.05627  19.42506
C            9.86230   8.47190  17.79846
H           10.15875   8.41973  15.65593
H           14.28790  15.09436  17.07128
C           17.09371  10.04091  18.90701
C            9.50641   8.79029  16.48848
H           13.40534   8.50175  15.76827
C           17.18299  10.56207  17.64105
H            9.28039  11.60172  19.78356
H           10.25639  14.49487  19.39147
C           14.31664   8.30986  15.23799
O            9.30138   8.26451  20.11996
H           14.24628   7.91470  17.90825
H            8.93978  13.74323  18.52382
C            8.89862  13.08297  21.18605
H           10.60773  10.62897  22.03741
C           11.17289  11.56655  21.97437
C            8.97396   8.72530  18.80389
H           16.81403  13.99165  16.32376
H           10.08539  14.42238  16.81041
H           15.65912  14.58423  15.18220
C           15.34405   7.81543  16.08511
C           15.19238   7.63047  17.43704
H           13.92796   9.11114  21.68724
H           12.79341   7.91106  20.08951
H           10.61234  11.65321  15.06923
H           11.99734   8.19685  18.13039
C           16.21156  14.88288  16.09779
H           12.10937   9.79064  14.91879
N           16.15564  14.42958  21.25038
H           17.43659   9.56427  21.42299
C           15.69825  15.13920  18.63948
H           17.50121  11.31959  15.06322
H           17.20513  12.57533  26.76646
C           13.12062  15.25686  26.32227
C           13.19256   8.10661  28.63758
C           17.41215  11.65092  26.24276
O           11.90505  15.20464  25.54339
C           12.47624   8.05097  27.43390
C            9.27842  13.07775  22.48746
H           16.36415  13.98722  29.40920
O           14.87966  11.34649  28.41466
C           15.97688  12.20401  22.19767
H            9.02435  14.11852  24.32145
C           12.07703  12.94291  29.23718
C           10.47900   7.87918  24.62087
C           11.24862   8.00153  25.66617
H           12.22178  11.35099  22.22848
C           17.33604  12.11636  22.57039
C            9.26009  10.43987  27.61187
S           13.64543   8.13811  22.54494
C           11.06165  12.02281  29.05169
C            9.57889  10.16086  29.00676
O           11.39682  13.17651  26.97154
O           11.96812   9.16496  25.43210
H           15.58305  11.08823  28.97861
C           15.07439  12.20482  23.24570
H           16.72581  10.97993  26.73802
C           10.73697  12.14655  27.78113
H           12.76110  11.49611  25.37399
C           13.50654  10.17826  26.72152
H           11.31732  13.43529  22.92339
H           10.48027   8.49088  23.70952
H           13.98999  12.40538  23.05568
C           13.76116  15.12598  28.73115
C           12.20671  13.64989  28.10338
C           13.08594  14.60759  27.64680
O           14.68976  12.07303  25.65497
C           13.70543  11.09903  25.55709
C           13.91093   9.20455  28.95749
C           14.14112  10.23983  28.02344
C           15.54663  12.04818  24.56276
C            9.89171  11.61002  26.94246
H           13.93314  14.91566  25.74329
H            9.83094  12.02226  25.92030
C           12.73154   9.10962  26.67621
C           10.58990  12.58308  23.02188
C           16.88894  11.86938  24.86347
H           13.96532  10.39799  24.70240
H           10.50388  12.17011  23.98918
H           17.55560  15.21187  22.80430
H           13.18943  18.68705   1.89321
H           13.70999  18.92076   4.75959
N           14.23739  18.73883   1.96909
C           14.65535  19.25032   4.37223
C           14.96054  19.17866   3.06299
H           11.27734  20.50932   3.64170
H           13.21719  21.37123   2.43731
C           10.72978  16.59555   4.24168
C           10.26727  17.80824   4.85161
C           16.30784  19.23780   1.28135
C           16.28450  19.56251   2.63224
C           10.08589  21.88838   2.76558
C           15.03371  18.99364   0.82654
C           15.60452  19.64150   5.30775
O           15.42909  19.65657   6.63000
C           11.04124  21.49361   3.88418
H           10.41967  21.37249   4.72345
H           11.36737  21.27624   1.17989
C           16.79877  20.03393   4.81564
C           17.13335  20.15124   3.52127
C           10.98194  22.18393   1.57914
H            9.50673  18.47307   4.27595
C           12.35512  16.47538   6.03299
C           10.17266  16.11029   3.02401
C           11.81668  15.96617   4.85381
H           14.52361  19.31874   6.87049
H           13.97052  16.18954   1.82173
H           12.95376  21.90050   4.84777
C            9.22101  16.91243   2.37076
H           10.48468  22.20387   7.24294
C           12.29909  22.31708   4.05242
H           13.04062  22.15294   7.31020
C           13.05486  22.42773   2.72181
H           16.40281  16.25040   3.51105
H           15.46439  21.76603   1.42498
C           17.25430  19.60368   0.28626
H           15.00547  22.65670   3.70489
C           10.77226  18.21251   6.06185
C           11.82807  17.56511   6.67478
O           10.20762  19.34288   6.71976
C           15.19358  22.77853   1.56144
H           13.17156  15.81219   6.51356
O            9.18024  20.77531   2.55655
H            9.09934  18.01242   2.45715
H           10.20734  22.48019   0.82893
H           10.85461  19.73069   7.26564
H            9.39608  22.70117   2.94974
H            9.17509  20.23344   3.31824
C           16.74270  15.66109   2.73264
H           17.38386  20.46308   5.54573
H           11.70956  17.53938  14.53734
C           13.25760  18.92505  14.47596
H           14.15378  22.68062  10.17889
C            8.93192  17.29858   9.89900
C           10.28772  22.78924  13.79325
H            9.20490  22.67383  13.80875
H           15.60907  19.41621  11.84567
H           14.95084  21.86875   8.79459
H           10.73488  16.17464  12.57007
H           16.27517  20.92764  11.05532
C           16.89834  16.87597  14.49860
H            9.14025  17.71732   8.90136
H           17.06084  18.71541   8.46584
O           16.51240  22.49155  13.01596
H           12.19333  17.93373   7.64561
C           17.40212  16.45117   9.84020
C           10.06280  16.87507  10.65523
C           17.34653  15.42866  10.74563
C           14.52340  21.32623  12.23127
C           13.20562  21.43032  12.01984
C           10.64503  22.07935   8.36347
H            9.49549  21.75621  10.12716
H           11.11511  21.05233   8.43793
C           13.95768  22.03458   9.29125
C           13.08625  22.85730   8.23428
C           11.03787  22.05860  12.94023
H           10.45391  21.42629  12.27066
H           12.39129  19.50400  11.12343
C            9.31042  22.06429   9.08228
C           13.50980  17.12559  13.29040
H           11.78614  18.34549  13.00888
O           14.83348  18.62465   9.65261
C           12.41160  22.15439  12.89755
C           15.14692  22.24357  13.07860
H           11.00784  16.96532  10.13603
H           11.56966  21.02378  10.53725
C           14.77425  17.43003  13.83490
C           12.55279  20.51583  10.85796
H           16.56930  16.53356   9.09454
C           13.45193  20.65787   9.65873
C           14.65275  19.85020  10.13174
C           15.35884  20.41041  11.33619
O           15.84711  16.62349  13.59820
H           12.98400  20.14152   8.78435
H           13.41095  16.30769  12.61162
C            9.89411  16.27989  11.89464
C           12.43231  17.96232  13.81076
H           17.46879  18.39342  13.13615
C           14.61754  18.67365  14.55244
H            8.89092  15.50813  14.40965
C           12.98482  22.91715  13.94976
S           13.19153  21.40468  18.41083
O           12.40529  19.08484  19.71888
C           11.09352  19.53058  19.75825
C           10.57451  20.68544  19.05397
C           11.45158  21.51323  18.24334
H           14.75808  20.29468  20.82604
C           10.21887  18.77311  20.52316
H           15.25845  16.64432  17.10003
C           16.01671  16.07998  19.56494
H           12.95281  19.75903  19.27254
H           15.96891  22.11540  20.32745
C            9.21793  21.00523  19.04819
H           10.54032  17.94422  21.16840
C           10.87278  22.57656  17.52471
H           10.19089  18.31311  17.20717
C           16.36133  22.30459  21.28845
C           15.53735  19.58856  15.32956
C           16.19586  15.70602  20.92786
C           16.08937  17.60144  19.26661
H           15.06789  20.36492  15.91220
C            8.92845  19.15208  20.63031
C            9.49482  22.68334  17.35233
H           14.01074  22.03841  17.56256
H           12.90147  19.88890  15.01301
H           15.99971  18.89986  16.13436
C            9.31257  18.60396  16.77485
H           15.03556  18.00006  19.23424
H            9.40746  16.69726  18.62202
H           17.27086  22.03185  18.33458
O           16.44149  16.69211  21.87365
C            9.26651  19.56839  15.74401
O           10.40574  20.09551  15.32533
H           17.41036  22.10392  21.12229
H           16.54624  18.12578  20.07027
H           16.63914  17.91147  18.36805
C           14.99480  20.34043  21.87794
C           17.22772  15.98635  15.60829
C           15.34107  15.52360  17.23297
H           16.37032  20.04819  14.76505
H           10.26780  20.94132  14.98414
H            9.20953  16.59802  26.16026
H            9.37594  17.54016  28.95195
C           11.94728  18.86868  23.81302
C            8.89321  18.22093  28.27078
H            8.92209  21.22165  26.55046
C            9.88337  19.65048  24.88980
C            9.67725  18.43464  27.03861
H            9.57612  20.03154  29.04087
C           11.06375  17.38550  25.40312
C           12.95985  18.04650  23.44103
C           15.41757  20.55840  24.54920
C           15.76486  21.35656  22.35316
O           10.73967  22.37990  22.12974
H           10.42117  20.48354  25.38975
H            9.46383  19.95777  23.94013
C           10.10938  17.10129  26.49528
C           10.96581  18.57415  24.74814
C           15.52277  19.42611  27.99733
C           16.97216  16.15562  23.07755
H           13.28948  16.31551  26.55521
C           16.11939  21.41810  23.61694
H           13.68137  16.04985  23.71560
C           12.94029  16.78956  24.03535
C           17.08650  22.28854  24.28880
C           15.06828  19.47879  26.60397
H           17.55815  20.19974  27.75841
H           14.68079  16.33170  27.51442
H           15.15402  18.52527  26.02237
O           13.74325  18.33084  22.37153
N           14.53750  19.64008  24.11702
O           15.70694  20.54764  25.90541
H           10.57718  19.06690  27.22942
H           14.03723  19.76975  26.56486
H           16.12429  15.89842  23.74254
C           14.35688  19.48308  22.76877
O           14.70125  16.07194  28.42348
H           13.02091  18.78282  27.79866
C           11.95945  16.43092  24.93968
H           11.90471  19.92843  23.45298
C           14.59155  19.06772  28.98582
C           16.80753  19.78635  28.44105
O           13.23653  18.71493  28.69756
H           10.66311  16.58092  27.27248
C            8.88800  19.15526  25.93168
H           10.93147  29.59893   2.73578
O           15.34304  28.43290   5.61009
C           15.72727  27.12499   5.40778
C           15.15902  26.13730   6.22793
C           14.48111  28.94929   4.61561
H           13.41578  28.82193   4.98955
C           15.73240  24.87734   6.25399
H           14.53415  28.23237   3.79160
H           10.72765  25.91407   3.58797
H           12.57023  24.91564   6.41937
H           10.78621  26.42143   5.91331
C            9.80980  26.97855   5.78107
C           16.73103  24.62000   5.37316
O           12.87604  30.21594   3.15279
H           14.43447  24.13342   2.97740
C            9.78262  26.47526   3.33942
H           13.27939  27.21910   6.66407
H           11.79881  24.05946   2.16581
C           14.82437  30.35065   4.20600
H           16.13045  23.32978   1.47546
C           14.27896  23.19217   0.43585
C           16.73047  26.80541   4.54508
O           14.57313  27.19040   1.14108
C           15.06259  23.61421   6.88362
C           11.01718  30.52915   2.17568
H           17.12292  23.60040   5.29492
C           13.96453  26.44217   7.06647
H           11.97911  23.37284   4.30585
C           14.46626  23.04257   2.85938
H           10.84257  24.27692   7.32106
C           12.89636  23.33831   0.50563
H           14.67487  23.02020   5.95381
H           12.77744  26.83041   1.45705
C            9.18077  27.48122   6.86803
N           11.88220  27.13196   1.10227
C           12.17815  23.14358   1.74349
H           11.48761  27.63847   1.86963
H            9.43034  25.57389   1.48187
H           15.53719  27.12357   1.32872
C           17.22430  25.55115   4.49527
H           16.68621  30.11434   5.97784
C            9.21112  27.11074   4.49286
H           15.87529  23.10278   7.29450
H           17.19769  27.61020   3.88850
C            8.97374  26.17972   2.28732
H            8.79126  29.91826   1.15977
H           10.48906  30.55133   5.85673
C           14.46396  27.93954   0.00052
H            9.90144  28.20667   0.03793
H            8.89644  23.04767   9.41809
C           13.11264  25.19551   7.34671
H           15.97276  28.51944  11.74711
C            8.81086  27.88519  14.28712
H           11.12232  29.25612   7.68399
H           10.61968  26.27838  10.43153
C           11.60161  30.13917   8.20387
H           14.15103  25.93544  11.07824
H           14.87279  29.68640  10.23561
H           12.36615  27.11600  12.74223
H            9.52343  27.48816   7.92103
H           11.70162  26.46881   8.24928
H           15.87117  27.51248  13.15618
H           13.37399  30.52692  11.84191
C           11.64307  23.14186   8.78219
C           13.94110  24.04953   7.83102
H           11.67274  23.12153   9.85782
H           11.82151  27.23347  11.14477
H           14.79132  24.28560  12.08908
H           11.47949  25.57837  11.78750
C           15.95736  25.46862  10.99512
O           14.92691  26.31688  10.65082
C            9.88621  26.91574  12.30661
C           12.22813  30.13526   9.40621
H           17.46939  27.93606  12.40884
H           12.59830  25.55351   9.41833
C           11.19012  27.97639  14.07534
C           16.82111  23.52458  12.12268
H           14.43790  24.43086   8.78609
C           17.25334  25.58054  10.36553
C           12.08811  25.49266   8.44813
C            9.99105  27.53037  13.57541
O           12.36035  27.79106  13.45757
C           11.06817  24.40776   8.36599
C           16.45771  28.30482  12.68197
H           12.33269  29.21865  10.02201
C           11.01638  26.48361  11.41069
H           16.97064  30.13107  10.82861
H           10.17076  24.64772   9.01042
C           15.83418  24.39924  11.80528
C           16.50413  29.55320  13.49500
H           16.08092  27.64507   8.57787
H           14.23785  26.85243   8.01419
H           15.09081  24.90990  14.62899
C           10.81051  23.68732  14.66610
C           17.18278  27.39945   8.53395
C           14.34612  22.94756  14.00822
C            9.79510  25.86215  19.35940
C           12.08404  25.16304  19.37211
C           11.04092  25.95069  18.76040
O           11.23338  26.78387  17.69446
C            9.53329  25.23191  20.58229
C           11.76904  24.66565  20.52195
H           10.38749  27.20532  17.52897
C           13.44464  25.09965  19.05905
C           14.02379  24.50471  20.14572
C           14.33682  25.52371  17.96004
H           14.13812  26.10268  17.01504
C           15.69090  25.30110  18.15967
C           10.67037  24.55557  21.28206
C           10.19973  28.85363  15.99093
C           15.35816  24.22499  20.42667
H           10.21121  25.01781  16.26009
C            9.77904  24.43041  15.50174
O           12.63884  24.89362  15.37574
H            8.97342  26.48872  19.00502
H           13.02178  28.32604  16.43536
H           12.82471  29.47470  18.53983
C           12.61587  29.13783  15.87649
H           13.81281  27.53617  21.02607
C           16.18449  24.65261  19.31498
H           10.23266  29.25250  16.99457
H           16.14795  27.40874  15.55349
H           15.29721  28.16580  20.48774
C           14.65159  28.14513  21.33714
C           15.11260  23.84935  14.91811
H           14.47677  29.22964  21.49152
H           14.73682  23.84642  15.93602
H           11.89415  25.47114  15.62062
O           16.40711  29.46232  17.86497
S           13.16527  23.87238  21.58798
H            9.78323  27.92708  21.89867
C           12.61386  30.45960  17.94728
H           16.43858  25.65457  17.38351
C           16.03099  23.73345  21.66097
C           16.38910  30.53796  17.00668
C           16.57158  29.44151  14.89433
C            8.97790  23.52822  16.36088
H           16.18969  28.65039  17.48973
C            8.95572  28.48873  15.54112
C           16.98517  28.10768  15.52986
H           13.88847  30.49050  20.00852
H           16.72377  29.42521  21.44815
H           13.39102  29.28623  14.99556
H           16.96800  24.27966  21.89878
C           11.33977  28.61572  15.28866
H           17.48123  27.99085  20.65920
H           11.55897  23.39123  17.27407
H            9.27630  25.08479  14.83403
H           16.12998  23.61409  15.06331
C           12.48057  30.43310  16.58603
O           17.57574  24.43484  19.41646
C           17.39500  28.53522  21.64585
C           12.18350  23.79204  14.70999
H           16.58522  23.11643  24.79578
C           11.99524  27.93496  29.36055
C           13.25560  30.45036  25.17820
C            9.00993  28.08056  24.99707
C            8.85704  28.32728  26.32796
C           14.50122  30.00846  25.75571
C           12.09641  30.26568  25.88483
C           10.68104  23.53624  22.34383
C           16.58339  25.01554  26.73536
O           10.75609  24.00680  23.66381
H           10.21713  29.41462  24.85461
H           10.31833  24.84352  23.76166
H           11.18507  24.03149  28.65830
C           14.57142  25.47987  25.62373
H           15.46066  23.82617  22.57554
H           16.62219  28.25408  29.41687
C           16.83445  29.37420  27.04191
H            9.44284  30.40357  26.53675
C           13.29409  28.27902  28.77022
C           10.81557  28.46871  28.89374
C           12.52599  26.31088  24.68395
C           13.18558  26.98467  23.72364
H           11.31121  25.28273  26.78042
C           15.60800  29.03316  27.67676
C            9.43748  29.48488  27.11013
C           15.17448  24.84018  26.66839
C           13.27348  29.07904  27.60400
C           15.31284  27.47026  22.52656
C           13.00333  24.29516  27.72080
O           12.43544  27.81933  22.97427
C           12.39202  24.99455  26.72794
H           17.04288  24.65072  27.66239
C           14.52121  26.74385  23.52523
C           15.22933  26.11488  24.61539
C           10.82378  29.16440  27.70098
O            9.70677  28.89122  24.24419
C           12.05260  29.55957  27.08783
C           15.64637  28.42898  28.94124
C           12.28545  23.83365  28.81635
H           11.51156  27.41495  22.95660
C           14.35103  24.19991  27.65545
C           16.59487  26.17137  24.58277
C           13.11844  25.55170  25.66431
C           17.26726  25.59150  25.67199
C           16.65749  27.60841  22.63375
C           14.91238  23.33698  28.66815
C           14.43474  29.34642  26.97964
H           11.44224  26.44948  24.80509
C           17.29383  26.97628  23.63192
C           16.88166  29.84688  25.79697
C           15.74220  30.17245  25.11645
H            8.82551  29.75732  27.94663
H           15.90913  23.01177  28.54473
C           11.28488  32.50062   5.44436
C           11.87650  33.73029   5.92727
H           12.45219  34.51390   3.98621
C           12.50895  34.72015   5.06787
C           13.21738  35.76033   5.56195
C           15.17772  32.97617   3.03335
H           15.28152  33.92520   2.44548
H           11.00045  32.26868   4.38475
C           16.03780  32.44352   3.99172
C           12.80326  32.24699   1.98065
C           11.91718  33.02546   1.18438
C           14.00366  32.21483   2.66904
H           13.72173  36.48646   4.86539
H           12.22666  34.03602   0.83316
H           15.71546  37.06842   6.18415
C           10.17738  36.30973   2.50626
H           15.12569  32.86377   6.59048
C           10.61248  32.52150   0.83773
C           16.07265  33.40853   6.80987
H           11.28679  36.41890   2.40035
C           10.93815  31.45960   6.25284
H           17.07879  35.77053   0.56124
C            9.77428  36.30176   3.93030
H           10.06293  35.30633   2.09561
C           17.11623  33.67346   5.94994
H            9.58337  36.93139   1.81972
C            9.92552  37.23882   6.17247
H           14.20409  37.34510   0.77695
H           17.20422  34.32750   3.94951
C           10.29827  37.27445   4.81132
C           17.15624  33.34815   4.42402
O            8.90800  30.90081   1.08304
C           15.96490  31.16532   4.47316
H           15.94167  38.03510   0.92174
C           14.04629  31.00103   3.28620
C           12.17477  31.14833   2.39338
C           10.16096  31.29315   1.35319
C            9.02795  36.20867   6.57412
C           14.85549  38.23136   0.73532
O           17.01268  30.77543   5.38812
O            9.78133  33.26125   0.03125
C           15.28322  37.47279   7.08733
C           13.39024  35.79913   6.98049
C           11.98575  33.77257   7.32576
H           15.91241  37.95355   2.90081
C           10.20678  38.22127   7.07575
H           17.47045  38.22776   6.25192
C            9.03576  37.06971   8.85701
C           15.01134  30.77213  10.52044
C           14.18810  36.79220   7.67184
C           16.28594  30.87764  11.30603
C           10.25701  35.08052  14.30754
C           16.27971  34.04466   8.03672
O           17.07715  36.27933  11.18811
H           11.70260  36.11540  11.50487
C           11.39160  31.45495   7.57576
C           12.86506  36.57423   9.69071
H           15.14241  31.25493   9.52287
C           15.89550  34.29672  13.63009
C           13.65868  31.24005  11.12497
C           16.16637  31.91968  13.55910
C           16.35499  30.76546  12.80291
C           13.73652  37.32675   8.91480
H           14.54764  36.59415  14.31687
H           11.78208  34.87604   9.82174
C           12.65100  32.46753   9.31898
C           11.97873  32.63768   8.10951
C           12.37032  35.44761   9.11536
C           11.28897  32.83760  14.01375
H           15.61341  33.87650   8.88362
H           11.81611  30.81328  13.94128
H           15.63538  35.21889  13.06786
H           13.15720  36.85171  11.98398
H           13.66477  32.24761  11.56388
H           15.72961  33.30681  11.80954
C           15.87232  33.13999  12.87360
C           12.45404  36.87667  11.15371
S           10.81598  32.73569  12.34574
C           12.78311  31.27387   9.92134
H           10.21982  31.65326  11.84669
H           11.92670  37.89656  11.16728
C           12.60300  34.95247   7.74758
O            9.46981  35.02501  13.19641
H           16.76790  31.81475  11.09401
H           13.05270  33.34604   9.82615
C           11.75829  31.68655  14.54950
C            9.76287  38.20490   8.42752
H           17.56401  35.67922   8.38298
C           12.61329  32.84967  17.96945
C           12.78124  34.05714  18.60430
C           16.37174  34.19069  17.78422
C           16.45607  32.98680  17.04087
C           15.94968  35.40770  17.17333
C           15.55564  36.38925  18.00332
H           15.66136  36.21221  19.08784
C           15.75804  35.43709  15.78111
H           16.30272  34.12716  18.88052
C           16.49686  31.73832  17.67264
C           12.28260  35.21128  18.01655
H           12.39574  36.21718  18.50698
C           12.08376  32.78640  16.63653
C           11.65746  35.13616  16.79019
O           13.37938  34.24109  19.82171
C           12.14901  31.59596  15.92310
H           13.32451  35.16458  20.02430
C           11.65205  33.93115  15.98912
H           10.91208  37.09503  16.92547
C           10.88609  36.21661  16.30261
H           16.62611  31.62824  18.79398
C           12.84886  31.60821  18.65672
C           10.13644  36.16097  15.16004
C           16.24614  33.03037  15.66668
H            9.52404  36.98175  14.89593
C           14.81362  37.41399  17.56861
C           14.44765  37.41765  16.22021
C           14.92554  36.45167  15.36653
N           13.37063  31.32868  19.94948
H           15.04013  37.70642  20.45975
H           13.94077  32.09968  20.35870
H           10.29537  37.14482  20.97365
H           12.44314  36.42088  20.92758
C           16.43699  30.61705  15.63320
C           16.03511  34.26907  15.02359
C           11.05556  34.01713  14.74516
C           16.26981  31.85641  14.94510
O            9.92604  36.80249  21.76462
H            8.80756  32.31230  17.77570
C           12.30849  36.05162  21.96783
H           12.66448  37.97766  15.16655
H           17.15942  33.00737  28.22424
C           11.67759  35.17031  24.57137
H            9.07713  35.62554  28.22895
C           10.94814  36.22501  22.47717
C           10.33136  33.73966  28.28958
H           13.11939  37.89250  26.29899
H           15.02068  34.27321  27.95218
H           12.86168  35.50801  27.13127
C           14.78153  36.21923  27.03593
C            9.82728  35.00125  27.74615
C           11.34067  34.73957  25.88088
C           16.95192  37.24416  26.29920
H           11.56749  32.00722  27.88615
C           10.74612  35.88198  23.80201
H           12.62529  32.89591  25.96089
C           11.80537  33.50447  26.46315
H           12.03290  32.08763  23.55069
H           15.08091  30.62247  23.33634
H            9.79374  36.15688  24.24190
C           10.35550  35.48668  26.61867
C           13.33718  35.47977  22.76161
C           16.90664  35.03520  27.40398
C           15.53532  37.28924  26.35234
S           13.23854  31.57109  23.80741
C           11.30967  33.02383  27.57549
C           15.49950  35.13963  27.44038
H           14.28345  35.14075  22.33046
H           13.74427  34.53528  24.73678
H            9.90940  36.41096  26.17936
C           12.97910  35.01441  24.04402
N           13.41369  36.32436  27.35463
O           15.85666  30.81242  23.87663
H           12.97104  37.06036  26.89012
H           11.11653  30.67476  25.46013
H           19.13310   4.29634   2.71122
C           20.48559   6.16398   3.54973
C           23.10226   4.04512   4.87932
C           22.68692   2.92405   4.21228
C           23.37437   2.50803   3.10706
C           24.21557   4.74194   4.48013
C           24.48886   3.20502   2.62446
O           24.48567   5.93633   5.10364
H           22.91626   1.64146   2.62566
C           21.34823   2.28317   4.55520
C           21.38974   2.06794   6.06576
H           20.54959   2.97447   4.29754
H           20.34324   5.27218   4.08325
C           21.17055   6.27675   2.36279
H           20.43570   3.90161   6.10021
H           21.19696   1.35898   3.99015
C           20.20190   1.07931   6.36373
H           22.01855   5.46037   6.05457
H           19.41024   1.31221   5.63079
C           22.40117   4.41493   6.19964
C           19.54054   3.67954   1.89895
C           24.94819   4.26987   3.39612
C           21.24367   3.48580   6.61276
C           21.60023   5.14594   1.62911
C           18.72479   2.66249   1.46223
C           19.21988   6.83943   5.46208
H           22.43717   1.60467   6.34335
C           20.83147   3.95113   1.38675
O           24.99862   2.82806   1.44916
H           25.77719   4.81566   3.01519
H           18.62013   5.98021   5.07908
C           25.55759   6.63578   4.47066
H           25.29754   7.00039   3.45732
H           23.17031   4.41788   6.98682
H           19.81055   6.40599   6.26391
C           20.00741   7.21536   4.23584
H           17.59736   1.67793   4.05243
C           19.17665   1.78059   0.55928
H           18.47060   0.99965   0.28227
H           18.42875   7.56044   5.74760
C           23.48239   6.58717   0.82765
H           18.05724   0.47577   2.88345
H           26.22293   3.89831   5.76649
C           21.27462   3.00124   0.44434
H           24.25856   6.62879   0.08073
C           22.72747   5.34845   0.81935
C           21.58897   7.55167   2.04152
C           20.47604   1.89647   0.06782
C           17.85302   0.30750  11.71866
H           17.67372   6.76507   9.17510
H           18.86139   3.25944   7.51914
C           24.43992   1.08851   8.91180
O           20.97232   2.03960  13.19791
H           25.84548   5.01679  14.25061
C           18.25886   0.54139   8.04971
H           18.99761   6.75647  14.55053
H           17.86076   1.01635   8.96354
H           23.98615   0.19829  12.42013
C           22.36888   7.37541  11.50472
C           24.98487   0.36983  12.85070
C           17.84577   5.48924  10.68001
H           26.11683   0.70494   7.70550
C           18.04809   0.46295  13.19001
H           18.73460   0.87971  11.24705
H           24.08245   5.05224  14.37912
C           24.92012   4.44552  14.05173
H           25.63885   6.68452  12.26452
N           24.60036   2.17287  11.05770
C           19.53666   2.73934   8.26670
H           25.59260   0.49901  12.00179
O           20.29953   3.53978  14.64803
C           25.42685   0.27112   8.35425
C           17.90813   3.63691  12.28485
H           21.24870   1.64032  14.01270
C           19.62392   1.23609   7.77718
C           19.73681   5.00498  11.96395
S           21.38572   5.24643  12.66875
O           24.57044   2.38842   8.80605
C           24.72490   6.37695  11.71856
C           20.21397   3.15039  13.59007
C           24.64454   2.55475  12.32828
C           24.54502   4.34945  10.20867
C           19.23913   5.76770  11.01690
C           23.51929   7.06838  12.43652
H           20.59314   4.56025   8.48718
H           19.08809   2.77659   9.26639
C           23.41103   0.45986   9.56674
C           24.54954   2.99368  10.02562
H           20.30735   0.68442   8.42616
H           24.39688   5.04140   9.38935
C           19.28339   3.91722  12.68069
H           22.52723   0.99897  10.04754
H           23.25019   6.65094  13.41894
C           21.25281   6.66671  11.37348
C           24.69343   4.80653  11.52390
C           24.76357   3.96647  12.60087
C           20.13081   6.73791  10.58142
H           24.84546   6.75933  10.67147
H           21.54954   2.97628   8.72029
C           20.83119   3.52115   8.11067
O           24.82645   1.65692  13.41377
C           19.94643   6.14961  16.38458
C           19.67987   5.82907  17.78318
C           20.33129   4.67635  19.81604
C           20.64320   5.09687  18.57038
H           21.83011   4.17668  16.96406
C           21.95402   4.54983  17.99319
C           22.90872   5.74874  17.88278
C           24.25697   5.10746  17.38558
H           24.02526   4.25405  16.80268
H           22.44925   3.76742  18.53356
H           23.03247   6.32534  18.78283
C           21.33964   4.06472  20.75068
C           25.48604   5.01392  19.72172
C           19.16427   4.98634  20.43247
H           24.63671   5.50306  20.17995
H           20.84050   5.86642  15.82397
C           25.36293   4.78039  18.36612
H           23.25617   1.96512  17.57103
H           22.56164   6.41746  17.05180
H           24.75635   5.88064  16.74768
C           18.88317   6.57885  15.62054
H           22.35871   4.45281  20.53398
C           18.40260   1.46722  17.22846
H           21.38696   1.01205  18.76411
S           24.17215   1.38712  18.37319
H           21.39769   2.94585  20.76796
H           21.12901   4.51014  21.71635
H           19.48615   1.77919  19.81542
C           19.03037   0.80062  19.58483
C           18.82311   4.12009  21.71720
C           17.66223   6.94089  16.20934
C           18.42911   6.05903  18.33924
C           18.16913   5.71858  19.66825
H           24.42721   0.30792  15.37537
C           18.92873   0.49645  18.07119
C           18.17642   1.11201  15.87959
H           17.96410   0.88931  19.97142
H           18.45246   2.77251  18.57505
H           17.87849   3.67839  21.47192
C           21.96820   0.49131  19.56504
C           23.33520   0.55220  19.62318
O           26.20077   0.72878  20.16706
O           18.20781   2.73597  17.67403
H           17.69148   4.17164  15.53973
H           19.44893   3.24641  22.03096
H           24.91487   3.63618  14.77851
C           17.64735   2.02914  14.98157
O           21.11391   1.07302  25.02552
C           18.99257   7.32982  24.12476
C           22.76570   6.93472  26.55133
C           17.65439   2.16251  24.67722
H           20.94627   6.55893  23.79429
H           20.94901   1.24830  28.66284
C           17.81207   7.13802  24.83428
C           23.22155   4.37107  29.35138
C           22.44193   3.27647  29.09527
H           18.56130   4.67508  22.67681
H           24.59816   3.66271  22.13187
C           26.06112   0.13100  26.35232
C           17.80460   6.30043  25.93524
H           19.42184   5.01322  28.25719
C           25.64443   2.30272  27.21459
H           24.17162   4.44125  28.78183
C           22.56649   3.58756  23.71920
C           19.03875   2.10804  24.64120
C           19.78358   1.05062  25.12238
C           25.21129   1.06316  27.01889
C           24.57123   4.59037  22.78831
H           24.24054   0.72240  27.42639
C           20.07024   6.52343  24.47375
H           22.73393   2.89096  24.59666
H           22.67541   2.97157  22.84668
H           21.60300   4.09856  23.73143
C           25.67392   5.46417  22.66368
H           18.82809   3.57915  27.42730
C           24.80298   6.51076  24.67774
H           19.49791   3.02685  24.22024
C           22.77317   5.80098  25.75832
S           21.40855   4.67673  25.93212
C           18.89420   5.42655  26.21576
C           18.67171   4.61912  27.54198
H           22.74805   2.57494  28.30354
C           20.02053   5.58162  25.50498
H           21.35621   1.96736  25.04440
H           24.96913   2.99144  27.64796
C           23.74121   5.58300  24.76045
C           25.82409   6.37224  23.72089
C           23.63915   4.61262  23.76815
C           24.84289   7.49045  25.64271
H           21.90865   7.08230  27.28621
C           17.67626   0.00684  25.78996
C           19.08311   0.00000  25.67353
C           20.22356   9.72579   4.64287
H           20.49236  11.85375   4.78491
C           22.73824  12.70546   2.32134
H           22.99561  13.45336   3.12499
C           21.24768  10.00107   2.15488
C           21.01459  11.12451   2.85858
C           20.57443  10.97997   4.14856
C           21.23598  12.57461   2.30442
H           20.75637  13.24757   2.98605
S           19.74100   9.71590   6.32183
H           23.13062  11.72871   2.69149
C           20.99430   8.70237   2.58376
C           18.56739  10.98378   6.64475
H           24.99311  11.73147   4.08384
O           25.10604   9.45087   3.45136
H           21.92583  10.17457   1.28659
H           20.78508  12.68364   1.30359
C           23.37314  13.12652   1.00270
C           20.36039   8.55604   3.83616
C           25.91206  11.69085   4.69796
H           25.32630  12.24877   1.52338
H           21.92700  13.76065   5.62156
C           25.75625   9.27368   4.68333
H           18.82479  15.05682   3.10520
H           24.79313  14.67538   1.78672
C           23.90265  14.63179   1.09910
H           23.97632  12.58094   6.65818
H           25.77363  12.54142   5.41891
C           18.07007  14.59799   1.18140
H           23.40521   8.69108   1.34196
H           25.08236   8.57007   2.97727
C           25.85636   7.91699   5.27894
C           24.53630  12.19742   0.67899
H           21.84662  14.97055   1.61344
H           18.83470   7.90383   0.83533
C           17.74770   7.91138   1.14476
C           26.09266  10.44561   5.42101
H           24.17659  11.17387   0.62787
H           22.70608  13.13689   0.17654
C           23.44618  13.50266   6.91289
C           21.99767  13.76337   6.68963
C           24.16511  14.72198   7.19092
H           21.29079  13.05381   7.09933
C           21.96177  15.22604   7.12868
H           18.11565  11.18697   3.67596
C           17.64984  11.49217   5.75828
C           22.84978   7.69243   1.33066
H           18.79573  14.21182   0.41216
C           26.36473   8.02017   6.52978
H           26.29716   9.16690  13.15440
C           18.71335  11.60086   7.87303
H           19.27370   7.84901   8.99810
C           20.15576   7.79895   9.65124
H           17.70036   7.72395  13.67708
H           25.95367  11.20989  14.05250
C           17.98496  12.71776   8.28249
H           25.60078  12.29511   8.87625
C           21.55259  15.24708  14.39688
H           25.87198  12.04011  10.66747
H           25.56486  10.69259   9.47653
O           23.30841   9.38297  10.46752
H           20.78557  10.71049  11.09786
H           19.63084  13.36202  14.21872
H           21.39636  10.08989  12.69988
C           23.87043  11.74943  10.11198
H           24.07086   8.05529  12.67123
H           18.63839  10.98803  13.15780
H           23.02696   9.64559  13.14233
O           19.51098  11.09046  13.50623
H           18.26068  13.17170   9.23918
H           19.41524  11.28213   8.67973
H           21.18674  13.34968   9.66860
H           21.39560  13.32411  11.51975
N           22.09135   9.89567  13.39645
O           25.48099  14.63909   7.36039
C           18.50511  14.22501  12.59476
C           25.29456  11.69945   9.76876
C           21.71271  11.32840  10.69406
H           23.72392  14.00470  10.02018
H           21.15440   9.52533   8.90938
C           21.73308  12.83031  10.53327
C           22.95815  10.71242  10.40106
C           19.53206  14.16349  13.51206
C           21.20591   8.63813   9.59478
C           22.32235   8.46223  10.50220
C           23.23823  13.01858  10.30040
C           20.50427  15.23629  13.48975
H           25.73073  14.01021  13.48561
O           20.44448  13.17868  19.24221
H           19.84356  12.77840  19.86066
C           24.75462  10.37056  18.54464
C           24.60334  11.71908  18.20901
C           23.10436   9.60060  16.79296
O           24.57941  11.99876  16.87147
C           24.42697  12.62662  19.25618
C           21.91726   9.62775  17.47826
C           23.15622   9.75742  15.40624
C           20.73901   9.97213  16.85526
C           24.40261   9.28058  17.52501
C           20.71563  10.22793  15.46050
C           19.49602   9.96190  17.55077
C           19.45976   9.53586  18.87743
C           25.01795  10.03278  19.81979
C           21.82320   9.14662  18.79478
C           20.65521   9.02492  19.46774
H           25.23730   9.12488  16.72491
C           24.10812  13.96985  18.99142
H           24.05592  11.29186  16.49062
H           24.11906   9.67496  14.92388
H           22.60748   8.64444  19.33593
H           25.22345  14.31236  17.24687
H           25.22808   8.97292  19.89713
C           24.37289  12.16378  20.64682
C           24.78466  10.84112  20.94354
C           23.85875  12.96871  21.65853
C           23.38284  14.22350  21.31214
C           18.21972   9.57421  19.57319
C           18.38224  10.50869  16.92196
C           21.93979   9.95547  14.78471
C           19.54819  10.75367  14.80888
H           17.98887  12.03289  21.70399
C           24.25568  14.65947  17.62749
C           18.45889  10.98043  15.58852
H           23.47573  14.38352  16.90936
O           18.06917   9.07223  20.90214
H           24.32245   8.36711  18.03955
C           20.34973  14.52062  19.62300
C           23.58689  14.73649  20.03786
O           19.79424  14.81769  20.60902
H           21.45923  14.45786  15.16282
S           20.67576   8.35684  21.06788
S           18.56735  15.09761  17.63187
H           24.83129  10.44601  21.93717
H           21.88149   7.93487  21.43074
H           25.29780  14.17723  26.56725
C           23.77716   9.12030  27.26879
H           25.75995  11.89441  28.43487
C           22.83045  15.11636  22.41403
H           23.86574  11.33650  23.16062
C           26.08169  14.50130  27.27510
C           25.68057  14.10380  28.72338
H           22.29606   9.13688  25.81076
H           25.63607   8.20587  25.52144
C           21.75141  10.77453  26.82107
H           21.85961  13.34192  25.78104
C           23.83435   7.83441  26.51295
C           22.46356  12.88581  23.65662
H           25.50289  14.88224  24.23649
C           22.70975  14.34811  23.70281
H           21.59462  12.59827  22.99263
H           24.25591  12.63208  28.01936
H           20.27655   9.30105  27.51465
C           25.08552  12.67914  28.76727
C           20.66474  10.26260  27.76360
H           18.78605  10.07642  26.01135
H           18.89505  11.16427  28.70317
H           22.17074  11.73445  27.20715
H           23.40282   9.14067  28.34820
C           22.87746   9.80981  26.33375
C           19.23263  11.68803  23.90312
H           24.58810  12.82557  23.71235
C           22.20045  12.49173  25.12712
C           19.52012  11.24541  27.78622
C           18.84777  11.11394  26.38194
H           19.65577  10.83428  23.35144
H           23.50589  10.24044  25.60017
H           19.84286  12.33003  27.82821
C           19.68486  11.85714  25.32961
H           24.78892   9.62068  27.23080
C           24.56293  15.07833  29.21605
C           21.19538  11.37483  25.40904
H           19.71706  12.93444  25.63702
H           19.56210  12.58554  23.46715
H           21.09435  10.10091  28.75813
H           23.19122  12.30459  25.47131
C           23.77633  12.39706  23.06986
H           21.33200  10.55895  24.65482
H           19.03526   7.92120  23.21721
C           17.75151  11.82286  23.86206
O           23.27538  14.79734  24.79559
H           23.73765  15.11723  28.43176
H           17.83145  14.90061  24.97876
C           20.60848  18.34086   5.19500
H           20.84215  21.33355   2.95397
H           22.84256  18.79590   1.63479
C           23.28485  18.79807   2.63972
C           23.82683  17.39461   2.81669
O           23.30621  21.18054   4.08983
C           22.92252  21.93367   2.99938
C           22.29884  19.09577   3.73143
C           22.33118  20.31842   4.46013
C           21.39052  18.13632   4.07783
C           21.63226  21.93056   2.48399
C           21.50640  20.50766   5.52626
C           19.62686  17.36331   5.58863
H           24.13609  19.48399   2.69862
C           21.39920  16.87024   3.17369
H           22.55632  16.35980   0.77541
H           25.21096  16.28217   5.44142
C           20.66430  19.47363   6.02465
H           22.00205  22.58635   5.50167
O           19.94818  22.68825   0.91928
O           25.09240  17.18929   2.78169
H           18.84818  20.19311   2.49897
H           18.19191  21.80190   2.60179
C           18.38536  20.87274   3.16954
C           22.85131  16.23906   2.94347
C           23.94662  22.66041   2.29923
H           21.76981  22.09450   7.17608
C           18.79200  17.61901   6.61555
C           26.04041  16.53447   6.07261
H           19.61708  16.41937   5.08812
H           21.21555  17.21204   2.20138
C           21.24007  22.55902   1.33151
H           17.98417  16.78548   6.74356
H           18.99626  21.10845   4.07134
H           18.27999  19.94638   0.56126
C           22.79234  15.53563   1.55062
H           20.66271  16.15462   3.36038
C           21.40281  21.90585   6.08965
C           19.96612  19.58972   7.24589
H           26.20609  18.42815   5.03104
C           25.35922  22.63770   2.72140
O           26.09474  21.79744   2.38040
H           19.43274  22.21090   1.53589
H           25.77911  16.68785   0.64206
C           26.29293  15.71610   7.13374
H           23.76821  17.83419   6.90122
H           20.29563  22.28285   6.11391
H           23.18143  15.54432   3.70067
H           18.70527  16.40772   2.13022
C           18.21113  15.49155   2.37268
O           25.80528  19.38670  12.47124
H           24.81653  15.72157  14.26678
C           18.96883  18.65726   7.50294
H           25.85436  17.49518  10.62820
H           18.16554  21.38230  11.69451
C           18.40385  15.30159  11.66592
C           22.40264  16.26748  14.43077
C           23.21501  15.72599   7.44787
H           21.16620  15.78145   7.58703
H           19.62910  18.94221  14.48731
C           21.45277  17.19321  12.53941
C           25.46988  22.31987  14.49714
H           23.81171  17.99328  14.37873
C           18.25943  17.49868   9.85581
H           20.06644  20.31620   8.99320
C           19.46508  16.18949  11.57507
C           20.50958  16.18106  12.42709
C           21.41515  18.13822  11.48051
H           20.34401  19.03469  10.01619
H           22.60284  19.93769   9.99436
H           22.52400  17.62886   8.21099
C           19.34934  17.29940  10.72270
C           23.45513  17.19703   7.78072
O           20.07670  20.66455   8.09969
H           24.22965  17.42547   8.50263
H           26.12160  15.41024  10.08090
C           18.10599  18.58159   8.80887
O           23.41490  18.15343  13.54854
O           19.10744  21.55079  11.96183
C           20.40305  18.15842  10.63021
C           17.84360  17.82074  14.08304
S           22.68286  19.40534  11.28050
C           25.31876  21.03446  14.02636
C           22.40723  17.27445  13.55167
H           18.24713  19.51164   9.35798
C           26.11027  20.63756  12.96711
H           24.66250  20.31881  14.48219
C           19.32525  22.86481  12.00403
C           20.22124  17.24363  17.01618
C           21.42080  18.04102  17.21473
C           22.35776  17.53282  18.10268
H           23.20299  18.13278  18.43144
C           22.15047  16.33531  18.88423
C           19.22908  17.36647  16.01823
C           20.09292  16.16513  17.76640
C           18.34587  16.35457  16.26201
O           21.60930  19.20325  16.55414
O           23.13637  21.07467  18.03454
H           23.69532  20.71567  17.29442
C           23.62509  22.26720  18.61887
O           23.07353  16.03505  19.89915
H           19.09927  21.46818  16.56763
H           21.04303  22.13226  18.96046
H           23.58703  20.86138  21.41632
C           18.50190  22.38969  16.42549
C           21.52133  22.20412  19.99274
C           25.41493  22.39169  16.74677
H           25.51462  21.31699  16.77741
C           21.51361  20.85279  20.55479
O           24.60997  22.65796  15.55025
H           24.41506  15.78313  17.74886
C           20.87123  15.60867  18.71328
H           20.96417  19.32561  15.91673
C           22.61400  20.32568  21.19897
C           20.99917  18.73640  21.17612
C           20.49226  19.86961  20.56762
H           19.45480  20.03086  20.21161
H           23.12237  18.23562  21.44563
C           18.93214  18.18477  14.84195
H           25.96044  16.63750  20.17376
C           22.38829  18.97250  21.79061
H           17.82299  22.22662  15.55404
C           22.88066  22.80948  19.68443
H           20.35953  17.90505  21.32558
C           17.83387  22.70230  17.69214
H           26.33129  17.67912  17.90302
H           23.15541  16.43079  15.19857
O           26.07877  16.60953  21.15176
C           24.74049  22.90462  18.04850
H           20.88207  22.89599  20.49567
O           25.46351  16.17688  14.75035
H           25.87647  22.74286  25.90704
C           26.28040  16.09256  27.09833
H           21.80911  15.45468  22.13018
H           25.85245  16.38648  23.51336
H           17.58846  18.81276  22.51888
H           21.89152  22.56851  25.33423
C           19.09305  19.29651  23.96280
O           23.41568  20.03519  29.14341
C           21.35098  21.63466  25.06723
H           19.37304  20.26919  23.50691
H           17.79412  21.79529  25.02407
C           18.14876  18.47421  23.37963
H           21.76472  18.02518  29.08058
H           21.64420  21.16980  24.17158
C           25.07207  16.49331  29.27028
C           22.48378  19.81705  28.14997
C           21.69250  18.68724  28.21442
C           26.34146  15.50688  23.85840
H           23.84538  20.84343  28.97170
O           18.40753  15.53593  25.53237
C           19.39836  17.63528  25.68732
C           17.89021  17.16131  23.83547
C           22.36206  20.70593  27.08315
H           23.37111  15.99106  22.61541
C           18.51774  16.80580  24.97410
H           25.34898  18.87781  28.62476
H           23.01788  21.56185  27.12745
C           25.74424  18.26462  27.76278
N           19.99361  17.34613  26.95887
H           20.28296  16.36763  27.04980
C           21.45202  20.57553  26.08619
C           19.65997  18.95956  25.23618
C           20.66837  19.46752  26.17203
C           25.71209  16.91034  27.98768
H           22.32064  18.97705  22.93614
H           20.30013  21.91404  24.82775
C           20.79639  18.50136  27.22106
O           26.21759  20.15158  26.26141
C           26.23500  18.82020  26.57992
H           17.76441  22.84710  23.63611
H           24.29044  17.18381  29.38255
C           19.42999  25.60398   3.92079
C           19.87096  25.25193   5.18506
H           21.00316  28.30909   1.85722
N           20.24370  26.29224   3.13761
C           21.98962  26.18528   4.74309
C           23.40954  26.42520   5.13027
O           22.35906  27.16302   2.67455
H           24.41402  27.53841   1.49628
H           23.52882  26.72250   6.19118
C           21.49001  26.59182   3.53801
C           21.15771  25.54545   5.61462
C           21.71736  27.63190   1.49830
H           24.08449  25.54085   4.80060
H           23.78693  27.28887   4.51490
S           24.89757  24.01380   0.52703
C           20.30494  29.52709   6.61895
H           19.22118  24.92931   5.95023
C           24.06828  28.24530   0.72520
H           21.20663  26.68873   1.07437
O           20.33372  28.22331   6.58179
C           22.68848  28.27335   0.48736
O           18.18901  25.16616   3.52523
H           17.73430  28.75228   6.85143
H           25.18377  24.15790   3.72042
H           26.04999  28.84227   3.17503
O           25.83717  23.55764   3.56183
C           22.27762  23.22687   0.61700
C           25.62046  29.94590   5.75596
O           25.75376  28.58957   5.99227
H           20.13884  29.65609   3.73106
H           21.98329  29.83613   4.07959
C           20.93063  30.25815   4.22188
C           20.62609  30.41175   5.64784
H           22.76068  30.30252   7.05139
C           23.45035  23.23059   1.15823
O           23.55355  29.77587   6.97012
H           22.63210  24.79285   7.14927
C           21.57562  25.14510   7.05237
H           26.06921  28.76730   0.01473
C           24.45264  30.56920   6.30742
H           25.46560  29.52746   9.02209
C           20.21777  30.30906  13.61666
H           22.95754  26.63469  11.07146
C           18.12685  28.01572   7.58283
H           24.02339  27.55354   9.04625
C           19.51403  27.62509   7.53807
H           19.77011  29.91228   8.80177
C           21.40670  26.14148   8.17069
H           26.04630  27.05015  13.56742
C           17.77550  26.36608   9.35524
C           19.94730  30.35187   7.81697
S           23.16637  27.73720  13.80249
O           20.36673  23.28942  12.36365
C           24.28869  29.61647  12.32464
C           18.12994  23.70149  11.68140
C           21.88883  28.87115  14.34153
C           19.08322  26.04244   9.16075
S           19.83170  24.75007  10.12577
H           22.14605  27.04340   8.07635
C           18.13539  24.76736  10.86242
C           23.45054  27.69336  11.10423
H           20.96216  24.31783   7.36199
H           25.12745  25.12802  13.65130
C           24.99121  30.00145  11.19847
H           21.31537  29.05802  12.24716
C           21.15521  29.39137  13.32682
C           24.92894  29.23331   9.97401
H           21.79670  25.61606   8.99914
C           20.00639  26.58720   8.33763
C           23.61137  28.39948  12.29740
C           24.14469  28.06158   9.99694
C           24.61711  30.39306  13.52983
C           26.23897  23.28092  13.83308
C           25.94690  24.65823  14.17644
H           25.13918  29.78009  14.32743
C           21.90856  28.93822  18.11956
H           22.49263  28.63683  19.00452
C           22.26421  28.50953  16.85343
C           23.40721  27.65405  16.84016
H           20.78316  27.84423  20.05938
C           24.37167  24.68178  19.76332
C           21.06496  28.48755  20.94989
H           23.31179  26.50091  16.59513
H           23.91226  27.69126  17.79923
C           21.05048  30.01530  18.41585
C           25.13830  25.87684  19.88193
C           25.12331  27.16253  20.46853
H           22.57204  24.40480  21.12585
C           24.94650  24.04800  18.73554
C           21.33772  29.86573  20.89450
H           24.05353  27.97701  15.98884
C           23.17640  24.05610  20.27185
C           19.87264  25.90525  17.54293
H           24.35617  27.27120  21.22839
C           20.53145  29.95620  16.04393
H           20.14053  26.34239  16.53886
H           19.20244  26.61863  18.12036
H           26.22216  29.62645  18.00126
C           21.56571  29.02946  15.72162
C           20.94529  30.53748  19.70938
C           19.09106  24.60727  17.48378
H           18.94268  26.66371  21.52798
C           19.91248  30.56243  14.94125
C           18.15890  23.96166  18.25367
H           20.76741  25.86326  18.09112
H           20.90036  25.58011  21.24115
H           25.67877  24.79193  15.21702
C           25.56226  30.25526  20.09728
O           26.11037  24.71010  18.10841
C           25.70660  30.29952  18.65601
C           26.20944  28.04616  20.18228
C           19.25157  23.69494  16.38499
H           19.98687  24.03416  15.59559
O           26.25261  29.28071  20.84967
H           18.41082  28.78199  21.88108
C           26.07129  25.80600  18.96829
H           17.82657  27.75908  14.90083
H           17.61406  28.13540  16.37420
C           24.96127  28.85474  29.37799
H           17.86509  30.03014  25.29641
H           25.88515  23.31501  23.57187
H           20.46279  28.40464  29.16937
H           25.86607  26.73949  27.46527
C           22.36007  24.05881  28.88976
H           19.06037  28.13363  23.58807
C           23.14951  29.74753  28.13349
H           23.68459  23.93157  25.18050
C           23.58919  24.50687  28.69005
H           21.28848  25.65063  23.00550
C           26.03610  27.85299  23.96368
C           21.52746  28.36952  23.26043
C           22.24226  29.04597  28.86670
O           23.69450  26.67513  25.82528
C           23.31428  25.73162  26.86745
H           25.36296  28.71465  23.84606
C           25.86004  25.49904  23.28060
O           20.84745  29.07022  28.62786
C           21.18882  27.68090  22.07568
H           26.04686  25.83439  29.06108
C           20.74601  26.17826  22.13635
C           24.38130  24.57787  24.70054
H           21.24369  25.76983  26.26754
C           21.75128  29.72676  23.25621
H           21.86573  30.27647  24.18975
H           19.25174  26.67520  24.54634
C           21.99192  25.34398  26.97382
H           17.72818  29.16543  27.58900
C           24.29735  25.24785  27.83135
C           25.40554  26.49424  24.12719
H           20.23638  24.39598  28.10370
C           18.79074  27.04549  23.70575
C           24.42036  25.97780  24.92825
C           24.49766  29.56037  28.26334
H           21.81345  27.90350  24.23190
H           24.67765  23.99470  22.52443
H           18.34509  25.52689  25.70112
C           19.25422  26.14629  22.47043
C           21.37298  24.53120  27.94725
C           25.70933  25.73154  27.99854
H           18.75572  25.12093  22.54772
C           25.24719  24.18174  23.50760
C           25.19826  30.33246  27.24731
H           26.32871  25.11234  26.22080
C           21.65592  30.57020  22.09466
H           19.32827  36.27235   4.41331
C           20.11151  35.28558   1.92135
C           20.26312  36.75985   4.03874
C           20.50494  34.15020   1.15866
C           20.82169  35.69201   3.09313
C           21.70676  33.52772   1.43739
C           22.53125  35.21086   4.71950
H           23.60171  35.54840   4.60482
H           22.74522  34.27125   5.27691
O           24.54848  36.86801   2.49241
O           23.56364  33.30840   2.96110
C           24.73802  33.52262   2.32515
C           25.18075  34.77774   1.80755
C           24.31207  36.01420   1.73125
C           22.35149  33.87935   2.54173
C           21.72229  35.95566   5.63540
C           21.88400  34.90222   3.40158
H           20.82504  32.49610   5.43909
C           18.86313  35.83242   1.68222
C           20.59689  31.67229   6.12076
H           24.74658  36.32126   6.29182
C           21.21875  37.24630   5.14100
O           25.31822  33.91111   6.07456
C           25.55072  32.41202   2.15584
H           25.34364  31.44565   2.66125
C           24.35051  31.99574   6.45819
C           25.42527  32.48146   5.78485
O           21.41630  35.37087   6.76696
H           19.89758  37.65958   3.42869
C           22.38623  32.43526   0.66921
C           18.09757  34.39895   6.65196
C           25.82561  36.56000   6.27938
H           23.48370  32.53908   6.88228
H           21.74099  31.58231   0.39353
H           18.02719  32.83758   4.18105
C           19.66644  33.74517   0.10079
H           22.02911  37.80610   4.65120
O           23.60062  36.28788   0.58572
H           23.17220  31.90155   1.19775
H           18.40064  36.65686   2.18204
C           18.01392  35.28655   0.74100
H           25.97969  37.52949   5.85401
H           21.39573  37.72595   7.01838
H           19.07954  34.57498   6.14229
H           19.77851  37.31462   6.66152
C           20.59890  37.91032   6.30537
C           26.34232  34.68776   1.15782
H           20.94411  31.20075   3.66883
C           25.36817  37.57044  13.83026
H           20.30034  30.93749  11.56216
C           25.91794  31.01997  11.60175
H           18.40805  35.68114  13.71265
H           23.72422  30.91320  13.95173
C           20.23869  31.84144   7.50820
C           26.05750  36.45555  13.33532
H           18.44500  37.70002   8.30574
C           25.76638  31.26231  12.98114
H           21.20851  37.33229   9.74314
C           22.03728  36.89020  10.28792
H           18.67309  31.23182  12.25803
C           19.75512  31.20876  12.49246
H           23.59423  34.72016   8.18536
C           19.61784  35.22233  11.37897
C           23.33275  37.37575   9.65603
C           25.37115  37.17639   8.34805
H           22.27917  31.42595  11.38406
H           23.88972  34.96372  11.09963
C           17.62900  34.64119   8.07914
H           24.13542  32.78590  10.28703
H           21.92790  37.10318  11.37458
O           26.33120  36.46994   7.63452
H           18.15933  34.14931   8.84166
H           19.39685  32.53031   7.84588
C           24.30633  36.58796   9.05716
H           19.59501  33.24765  13.29579
C           18.07213  37.08972  11.51435
H           22.83796  32.91942   9.11101
O           26.11710  36.24894  11.95579
H           20.39580  32.90264  10.65394
O           23.13784  34.44975  14.52260
C           18.53607  37.77366  14.01498
H           22.65533  35.19967  14.13022
H           20.14445  37.32738  11.78730
H           25.11845  34.57000   9.07524
H           20.14740  36.28045  14.00211
C           21.06679  34.78791  11.48274
C           20.97557  33.20542  11.53957
H           21.51188  35.20847  12.31837
C           20.38340  32.58283  12.82965
H           21.16176  32.47704  13.55394
H           21.39598  35.12230   9.32506
C           19.36268  36.57639  11.97941
C           23.27133  34.64703  10.22458
C           21.93710  35.34586  10.25306
H           19.29978  35.16488  10.30888
C           23.18203  33.13417  10.17879
H           21.02138  32.24849   8.17055
C           22.31453  32.57297  11.32153
H           23.06652  32.77067  12.14642
H           19.02072  34.51819  11.90494
C           19.17556  36.47422  13.49476
C           24.18528  35.10175   9.06364
H           26.30368  32.02949  13.48094
H           19.43621  33.39977  18.90300
H           21.78197  36.22703  18.72161
C           22.68228  34.21778  18.73158
C           23.36204  33.15494  18.07922
C           24.01684  32.12050  18.85187
C           22.26345  35.38753  18.05226
C           23.31086  33.25104  16.64184
H           22.42181  34.27287  19.83173
C           23.97184  32.11709  20.21597
H           23.54387  32.87892  20.82138
C           20.52987  32.46338  21.18742
C           19.78720  32.43380  18.76843
C           18.83124  37.09080  16.36846
H           20.04695  33.41078  21.37146
H           23.64047  32.39851  15.99950
H           19.11044  36.14767  15.93600
C           22.48761  35.46618  16.69371
H           19.60758  36.71846  18.31621
H           19.37720  32.55637  16.68824
C           19.08987  37.40175  21.40320
C           19.06110  37.46907  17.62608
C           23.06691  34.40641  15.93203
C           21.84468  37.22890  21.40300
C           23.21556  37.10025  21.36690
C           20.39501  31.81918  19.90651
C           24.77925  31.16297  20.81532
C           23.99880  37.95255  20.58292
C           19.79709  31.89549  17.47440
C           24.90296  31.24529  18.12023
C           25.61933  36.91816  16.13782
H           25.46314  35.48184  18.74652
H           25.26076  37.16119  17.08652
C           25.37877  38.08875  20.86256
H           22.18566  36.47929  16.24839
H           24.67101  31.06631  21.91614
H           19.24063  31.39037  15.02735
H           17.97103  37.44211  21.34279
C           26.31277  35.75010  15.62499
C           26.02369  37.21896  21.70295
H           24.86856  31.27531  17.02405
C           21.16953  38.10819  20.53923
C           25.14685  37.80221  15.16020
C           18.47564  38.03495  15.40265
C           19.73946  38.19071  20.49552
C           20.39498  30.65107  17.26131
C           21.27238  31.91794  22.17999
H           22.29694  31.29686  27.33522
H           17.80875  36.03470  23.02793
C           17.64878  36.12837  26.80689
H           23.70498  31.98058  24.70634
N           18.72944  35.69726  22.92313
S           21.38964  36.95544  26.29179
C           21.06265  36.36700  22.23598
C           19.63415  36.45387  22.18522
C           23.06251  35.55338  23.25225
H           25.22915  32.65695  23.54754
H           25.74644  35.62432  23.22467
C           19.07040  36.09058  26.75787
H           18.38942  33.52370  27.11219
O           26.09080  32.53557  23.93447
H           19.56311  35.28189  27.26129
C           24.46211  31.64836  25.37443
H           24.49672  36.88844  26.34608
C           25.84691  31.85645  25.08409
C           23.85679  36.19970  22.27372
C           25.30709  36.28131  22.37299
H           24.04853  35.89266  29.32378
H           23.00531  32.77474  29.26786
H           21.42379  32.44531  23.12948
H           21.85145  35.90947  26.92480
H           26.11750  35.00115  25.93984
C           19.73746  37.09020  26.18231
O           20.98201  34.80985  24.08336
H           23.42992  34.87512  24.08070
C           25.60406  37.07324  26.12476
H           21.56889  34.19892  24.49235
C           21.71340  35.58438  23.21323
H           19.05363  35.26428  23.70782
H           19.51206  32.56076  27.97871
O           20.09482  32.69103  28.74086
C           24.15067  30.89727  26.46845
C           17.71876  33.89480  27.96914
C           18.46463  34.34627  29.25954
N           22.89961  30.59724  26.97024
C           34.11916   4.00805   2.31090
H           30.21453   2.56245   4.56272
C           30.05776   3.49265   5.13242
H           28.16703   4.02944   4.19591
H           33.30129   4.08782   3.10665
H           30.60175   4.30664   4.63623
O           33.16189   1.86119   3.34695
C           28.57980   3.83578   5.17033
C           28.36319   4.02853   1.09039
H           27.81575   1.85835   5.52835
H           33.40645   6.50019   3.07224
N           27.09694   3.96251   1.23922
H           33.54202   3.60249   1.36331
H           27.61188   5.99851   2.12102
C           28.43752   1.63622   1.05740
C           28.13492   6.27216   1.19449
C           27.82417   2.85298   5.99622
O           29.02118   5.20777   0.98675
C           34.40062   1.94325   3.62937
C           34.47198   6.30803   3.20129
H           28.49115   4.81540   5.68078
C           29.08382   2.80440   0.95532
H           30.80397   6.67511   1.54637
H           32.67834   3.66433   5.69413
C           34.33782   6.16562   0.78027
H           29.78290   6.71188   5.75220
H           33.61209   5.53398   5.06501
C           27.07520   1.63724   1.25080
H           32.26247   1.85245   6.09202
C           30.70262   3.33108   6.54471
H           29.83564   1.49540   6.37450
H           31.42596   7.09624   5.10224
H           33.36872   6.54459   1.07281
C           29.02435   0.20496   0.95623
C           34.81880   5.37676   2.05964
C           30.60252   7.42703   5.81059
C           28.89338   7.54806   1.07755
H           30.09442   0.10092   1.20176
C           35.09619   0.86569   4.37901
C           30.59087   2.83625   1.09314
C           31.04984   7.44268   7.18971
C           32.19428   2.89590   6.40383
C           30.28794   7.52981   1.06407
H           30.72327   4.31320   7.05765
C           29.92866   2.22806   7.17191
H           27.44939   6.24637   0.35994
C           34.60406   5.75166   4.66959
H           26.61037   0.68178   1.24175
H           30.97621   1.86873   1.13793
H           31.10445   3.39027   0.29454
H           30.87377   3.33201   2.00769
C           35.04242   7.46413   0.61144
C           28.55118   2.76686   7.32974
O           26.43575   3.12423   6.30706
C           35.14864   2.93383   2.82039
H           26.45154   5.99850   4.47439
H           34.90207   1.67567   1.05718
H           34.38152   0.06636   4.55267
C           26.39651   2.83188   1.39015
O           26.50851   6.62447   7.05220
H           35.15364   4.81938   4.68368
H           28.95646   0.51244   8.97849
H           29.95449   3.84789  14.00541
H           27.70612   3.06869  13.78590
O           27.65462   2.33121  14.42649
H           31.37242   6.59073   7.91893
C           33.98388   7.30238  12.62382
C           32.44235   0.31094  12.00124
H           34.88522   0.99071  14.24251
C           28.38676   1.31350  13.85293
C           32.96996   5.58832  11.46413
H           29.29732   2.62643  12.24101
H           30.05685   1.05845  12.71910
C           33.17249   6.99404  11.50993
H           32.39742   5.06042  10.72454
C           34.47047   6.06477  13.10586
H           28.61923   3.70936   7.84187
C           34.01288   0.50540  13.81839
H           30.73266   7.08064  14.31169
C           27.08033   7.12639   8.28284
C           29.51770   1.94076  13.06836
H           32.76621   4.01112   8.22212
C           31.84525   0.83490  10.79620
H           33.82111   1.94313  12.35112
C           27.31388   5.99022   8.96481
H           27.65104   0.66357  13.26324
C           29.97569   0.94374   9.28654
H           33.62988   1.97584  10.18109
C           32.49921   1.72036   9.91968
H           27.13104   5.03366   8.50707
C           32.00412   2.09504   8.69722
O           28.21903   5.40549  11.12301
C           27.88684   6.37613  10.24854
C           33.45087   0.96856  12.64799
C           32.81038   2.96258   7.78081
H           28.20876   4.49698  10.73440
C           30.42637   2.80895  13.96727
C           33.83825   4.90958  12.43063
H           33.28724   4.37242  13.23505
C           30.65829   1.77740   8.45109
H           33.86966   2.80834   7.77271
H           31.48366   3.02176  13.66483
H           27.94537   2.15090   7.94328
C           30.56456   0.31112  10.43680
H           34.52229   4.19122  11.99163
H           30.91124   3.07476  17.85149
C           31.72341   2.36300  17.53210
H           32.61458   2.56246  18.13571
C           31.86346   2.80870  16.11773
H           29.60976   2.82846  15.94763
H           28.51583   3.44514  17.82501
H           31.90289   3.93025  16.04413
C           30.42779   6.66319  18.09388
C           30.55849   2.35552  15.42159
C           29.26797   6.66259  17.27269
H           29.60903   3.13031  20.11692
C           31.79778   6.93762  16.16967
C           31.71096   6.76312  17.47947
C           29.42082   6.77408  15.91302
C           27.72142   4.00869  19.77041
C           27.63954   3.83155  18.38169
C           28.82816   3.67973  20.59344
C           30.41243   0.80876  15.39508
C           30.32058   6.73052  19.52307
C           31.46516   0.91932  17.78790
H           28.22484   6.53031  17.68282
H           31.88153   0.99013  19.82057
H           32.25225   6.09851  20.09222
H           32.82359   2.45116  15.64783
C           31.35279   6.60739  20.40212
H           32.56430   6.96174  18.15105
C           30.69769   6.92992  15.32849
H           32.77810   7.12404  15.67434
H           27.54442   6.71398  15.58449
C           29.03673   0.41618  14.88568
C           29.27885   7.48868  20.00844
C           30.74082   0.26068  16.75100
H           28.35500   0.52698  15.78912
C           31.66730   0.32756  18.98307
H           26.41948   4.04031  16.64439
H           27.17848   0.59923  20.40564
C           31.43160   7.31046  21.62972
H           31.19125   0.40196  14.71810
C           26.47817   4.18115  17.76199
C           26.77093   5.16780  21.79901
H           34.85028   0.90195  16.23361
O           28.34725   6.75162  15.06932
C           29.06538   4.25300  21.86042
C           26.65609   4.76372  20.45602
H           33.05882   0.13966  21.10645
C           27.39989   0.42157  26.02118
C           27.93377   1.71492  26.29070
H           29.68481   0.15730  28.46696
H           32.86570   6.76311  27.83098
C           34.40945   5.41546  28.89007
H           32.30901   7.17443  22.29415
H           31.73478   1.77347  22.39467
H           31.28916   5.09935  27.76480
H           26.92164   4.53701  27.91409
C           27.04823   2.62187  26.95420
C           27.19627   6.53331  24.19051
C           27.53918   3.85369  27.33771
H           29.22543   0.91654  24.18473
H           30.03583   4.17233  22.47776
C           29.15605   2.16361  25.84631
H           27.43308   7.08274  25.09378
C           33.77929   4.22165  25.79612
C           29.75003   3.27550  26.46457
C           28.20682   5.79816  23.64023
H           31.10037   0.24462  22.90525
H           32.70576   0.81485  23.44235
S           34.01543   2.83629  23.55801
H           29.21900   5.87703  24.15795
H           34.02455   4.39711  29.05811
C           31.73738   4.60921  26.89314
H           34.41353   6.55291  27.15038
C           33.13215   3.31513  24.96951
C           31.66447   1.13411  23.26312
C           28.03833   5.09615  22.41771
C           28.89570   4.05408  27.25278
C           33.09176   4.89263  26.78093
C           31.06467   3.65084  26.10930
C           33.66347   5.99417  27.64225
C           31.11957   1.94338  24.37679
C           31.75512   2.96998  25.11897
H           29.25591   4.96159  27.73255
C           29.84197   1.62778  24.73028
H           34.73468   4.66912  25.52344
H           34.49590   0.14522  26.53054
C           33.38675  12.33319   5.86177
H           31.58661  11.31084   4.92646
C           32.08632  11.78182   5.83261
C           28.51232  13.82141   2.86883
C           28.87946  12.41607   2.47716
H           29.69784  12.08426   1.79832
C           28.05628  11.46597   3.08860
H           29.30621  14.49690   3.40384
H           29.85774   9.37785   4.76403
H           33.78844   8.78535   4.28831
C           30.36376   9.62932   6.86695
H           29.44473  11.40655   6.08762
C           30.26984   8.84295   5.65963
H           28.26549  10.37998   3.14759
C           30.05340  11.05445   6.93697
H           33.84343   8.58659   1.92434
C           31.34408  11.74638   6.98528
C           27.28594  13.49612   3.72174
H           28.20781  14.48830   2.00593
C           34.53101  12.64782   5.00104
H           34.19892  12.48760   2.76498
C           28.21715   8.69739   0.50998
C           27.07456  12.12946   3.77817
O           35.01185  13.42210   7.17532
H           26.56052  14.21315   4.08979
C           33.76200  12.73381   7.07329
H           32.15004   8.30832   0.44123
H           27.02121  11.16834   7.12316
C           31.03447   8.50797   0.51299
O           26.85052   8.69105   0.31075
H           31.70582  14.70249   5.59597
C           28.97834   9.77359   0.04782
C           34.87369  12.81516   3.59182
C           30.35761   9.61122   0.00896
C           34.84854   8.62715   4.26029
C           26.67107  10.27009   6.67016
C           34.91817   8.35691   1.82203
H           26.51320   9.58235   0.26118
H           34.28076  15.27638   3.26436
H           27.98802  14.06014   8.53048
C           34.29108   8.54523  13.15434
C           29.01529  14.06330  14.45917
C           31.86468  12.22000   8.17391
H           32.66611   7.64620  10.86707
C           30.86115   8.71681   7.79294
H           29.37810  11.20670   7.83027
H           27.34764  14.40380  10.92589
O           28.35032   8.09647  11.87137
C           27.56175   8.78878   9.75228
C           26.67552   9.02748   7.33363
H           33.84013   9.41912  12.66375
C           27.13110   9.84868  13.05491
C           33.23884  13.02868  12.53855
H           29.15907  15.06853   9.15513
C           26.70921  14.26497  13.87964
H           32.18654  13.24682  12.23462
O           33.70747  12.20988  10.28930
C           33.72181  13.44330  13.78393
C           27.95683   7.75631  10.59023
H           30.02705  10.08837  11.53922
C           26.89306  11.15258  13.51466
C           29.04816  11.62090  12.64969
C           35.01761   8.59123  14.32637
C           34.09704  12.61521  11.53371
H           31.49175  12.93578   9.89511
O           31.17869  12.17512   9.38760
H           34.68677  13.80400   9.49325
H           33.05932  14.21157   9.94859
H           29.85032  12.31482  12.41532
C           29.17128  10.36126  12.09569
C           33.13048  12.86861   8.27159
C           28.21469   9.40279  12.28049
C           27.92513  12.13915  13.35032
C           33.63903  13.39346   9.51477
H           30.92688   8.92325   8.92910
C           28.06201  15.08464   8.94660
H           27.66570   9.86569   9.89078
C           27.88187  13.50261  13.78786
C           27.10729   8.41287   8.49544
H           29.92925  14.85124  11.11616
O           32.81897  14.12071  14.62186
C           35.04375  13.06768  14.11890
H           29.95707  13.46380  14.49067
H           30.88208  10.91654  14.44103
C           27.85536  10.07762  17.29153
C           28.87851  10.00079  16.18542
C           32.53179  13.22240  20.18667
H           31.79875   9.40801  17.58262
C           30.00026  11.04326  17.85153
C           32.14299  11.30762  18.63913
C           32.49634  10.04858  18.14633
O           30.85492  11.74921  18.56760
C           33.10149  12.07119  19.40944
C           30.02119  10.71267  16.48156
C           31.19938  11.08476  15.57135
C           28.73807  10.62286  18.33828
H           28.49164  10.66982  19.42619
H           31.57100  13.00356  20.68018
C           33.87399   9.58969  18.17700
H           28.98405  13.40047  19.63513
H           33.08915  13.67656  21.05409
H           31.53786  14.16308  16.80290
C           34.37307  11.59909  19.37876
H           30.17936  10.67121  21.36102
H           27.42369   9.12082  17.57841
C           28.42906  13.73149  20.50971
C           32.57455  14.51777  16.94270
C           32.15673  14.44367  19.28520
H           27.12329  10.78410  16.97753
H           34.17000   8.55370  17.92361
C           33.39668  14.61087  15.79642
H           31.12165  14.30707  18.93109
C           33.06354  14.75243  18.17305
H           31.39179  12.17537  15.70527
H           28.33620   8.54369  21.57080
H           28.74300   9.67197  15.17017
H           32.03438  10.36703  15.77406
C           28.89984  15.23470  15.24824
N           34.59844  15.21544  15.89263
C           28.44553  13.08400  21.75212
H           28.41550   7.66009  19.37593
C           30.42820   8.09105  22.03078
H           28.36973  15.11759  18.15062
C           27.68473  14.85602  20.31478
C           34.89268  10.44193  18.81168
C           29.28594   8.06358  21.23955
H           34.55530   7.93760  29.23198
H           34.21436   8.20979  24.03900
H           29.56655   8.49687  25.43542
C           32.08321  11.14772  28.21845
C           29.07074  10.08593  24.62869
C           28.33831  11.34677  24.77149
H           34.10219  10.81167  27.63976
C           33.37044  10.43789  28.34856
C           29.54888  10.72093  22.28985
H           27.88047  11.73647  25.70164
O           29.24679   9.32727  25.75760
H           33.24292  12.65469  27.15439
H           33.28454   9.39506  27.97095
C           29.69765  11.55156  28.36425
O           30.38077   8.65028  23.27876
H           30.32680  14.46989  26.21350
C           27.00391  14.91696  22.65543
N           28.47077  10.95508  28.93653
H           27.02463  13.97141  26.95815
C           33.70500  14.47803  23.78886
C           29.67095   9.85701  23.40607
O           31.22718  14.17743  26.39684
H           33.48004   9.85879  23.62480
H           31.66413  14.02805  23.40538
C           30.83456  10.77647  28.70277
C           28.32264  12.00953  23.61774
C           28.82957  11.92271  22.41937
C           27.70634  13.74315  22.61662
H           32.60874  12.21748  23.09385
O           27.55913  13.21148  23.94112
H           29.10946  13.39224  27.27176
C           33.97282  10.81540  23.99325
C           34.20073  13.19998  24.11558
C           33.54402  12.06309  23.64575
C           31.10413  13.09963  27.17052
C           32.45206  14.83542  23.35525
C           32.23191  12.33903  27.54468
C           29.86797  12.72835  27.65558
H           27.71110  10.75186  28.22082
C           35.13018  10.64920  24.79486
H           33.85602  10.53532  29.31835
H           26.53556  14.26190  29.36903
H           27.99111  18.25681   2.61709
C           32.61652  16.78342   5.30899
H           33.21452  20.50457   3.07439
C           31.59462  19.14665   2.69204
N           32.92661  19.52532   2.93280
C           31.19764  17.96191   3.42520
C           32.33266  17.71488   4.33302
C           29.85069  17.57330   3.30654
C           33.34333  18.64249   3.95795
C           30.79463  19.72970   1.78423
H           29.41155  16.81728   3.94660
C           29.46783  19.26872   1.66234
C           29.05037  18.33389   2.52959
O           28.10787  20.69962   4.79432
C           33.87998  16.78710   5.90538
O           31.24913  20.72364   0.88039
C           33.25685  21.99099   5.21453
H           32.39468  16.23777   2.03347
O           28.30925  21.27995   0.76877
C           28.92064  20.24202   5.78431
H           28.57082  21.53824   4.50815
C           30.05572  21.01180   6.11757
C           28.71339  19.06513   6.59615
H           30.28553  21.96188   5.50886
C           28.54210  19.88907   0.67786
C           27.70052  18.09765   6.61263
H           27.55500  19.39585   0.68005
H           32.39645  21.36054   4.92127
H           33.89986  21.43352   5.91324
C           33.34098  15.93963   1.48461
H           33.74093  22.14769   4.28841
C           34.39102  15.36119   2.15348
H           30.54375  21.07254   0.36320
C           34.60706  18.58192   4.40679
C           34.89312  17.64856   5.36083
C           26.55308  17.80490   5.83868
H           34.11899  16.09507   6.68763
C           31.51977  15.75844   5.79444
C           31.88191  22.81725   7.02330
H           30.76379  15.29690   0.43090
C           33.36894  16.09396   0.06443
H           30.50042  16.04433   5.46952
C           30.93974  20.68133   7.16497
H           31.36216  15.86142   6.92861
H           31.31029  22.47944   3.40107
H           29.39680  18.79022  14.66212
H           30.52297  15.53402  12.59748
H           34.96577  21.07674   8.98370
C           26.62672  15.46016  14.59548
O           34.09087  22.62509  11.13961
C           27.03541  22.84056  12.81280
C           30.14028  15.82829  11.60832
H           34.45015  20.70697  13.55162
H           32.47980  19.34274  10.57245
C           31.47414  19.40315  14.56847
C           33.74890  20.26872  14.28608
H           33.95498  18.19894  11.69859
O           32.01991  21.51835   7.44798
C           27.47505  16.00700   7.96257
C           26.70505  17.54591  11.29135
H           29.78943  20.17981  13.51517
O           30.26516  18.19683  12.92014
C           31.71875  18.97505   8.95680
C           29.62536  18.85599   7.53258
C           32.53026  20.01908  13.83876
C           30.12878  19.20166  13.91536
S           29.52756  17.44478   8.61899
H           30.59740  22.19712   9.17298
C           27.96387  17.19008   7.55462
H           27.67832  21.18285  11.62226
C           29.04723  17.89930  12.46225
C           30.80367  19.47787   7.84743
O           31.62478  19.50363  10.23919
C           27.72045  16.58387  11.06649
H           32.25076  20.30215  12.82983
C           26.95572  18.63818  12.09129
C           35.03166  18.11559  11.88793
N           28.18132  18.80438  12.65686
O           32.76317  18.49844   8.65422
C           26.98089  21.53215  12.41741
C           28.92609  16.74208  11.70743
H           30.92852  16.28635  10.99563
C           27.21296  15.30024  10.27807
H           32.23910  22.75390  13.15897
O           30.76987  18.62221  16.80182
C           33.01203  19.20147  16.32865
N           33.42840  18.78725  17.61875
C           27.98177  17.04458  19.05402
C           28.91986  19.13124  19.43920
H           29.56181  19.91814  19.85508
H           31.00439  21.21085  21.13761
C           29.03046  17.78792  19.66687
C           27.27123  18.03135  18.35110
C           27.75390  19.45189  18.55101
C           31.71006  19.11304  15.91595
H           29.78423  17.29405  20.25503
H           32.87082  19.00231  18.40468
H           30.80362  18.62147  21.59192
C           34.02607  19.72833  15.60241
H           26.62470  15.43431  18.53943
H           27.87478  20.13602  17.61336
H           27.67439  16.83859  15.88800
C           34.79940  15.89910  19.58235
H           32.71598  19.30926  20.81040
O           33.36462  21.65937  20.98526
H           30.23420  16.19079  21.73986
C           26.97553  15.56259  21.35338
H           27.01595  19.99350  19.08554
H           28.39322  22.50726  21.13856
H           29.96541  19.14588  16.66617
C           27.72990  15.96327  15.30934
C           34.28459  15.33300  18.31750
H           34.80372  16.97855  19.57102
H           33.26273  21.11149  20.18261
C           27.64210  15.54207  18.91262
C           35.00720  15.56573  17.10059
C           34.71084  19.45138  17.71561
H           34.28590  15.45077  20.44932
H           34.92246  19.44536  19.84848
C           32.96613  20.91839  22.05503
C           33.17987  19.41975  21.79511
H           29.69587  15.61497  15.90694
H           34.24486  19.21256  21.89970
H           32.05644  15.41259  19.91954
C           35.13888  19.86862  16.45904
H           26.40531  22.79265  16.46830
C           31.46786  21.22198  22.10719
H           29.63957  20.61829  23.12784
O           28.63044  16.07963  28.66399
H           31.32545  22.28197  22.46482
C           26.43399  22.41305  26.79408
C           30.98848  16.02877  29.10126
H           33.45553  17.78890  27.37908
C           30.65910  20.25342  23.04886
H           28.97273  19.64016  29.16819
C           34.54405  15.60022  24.00520
C           33.66824  20.83443  28.13481
C           27.67059  21.65588  29.02596
H           33.48336  21.11543  23.00068
H           29.06563  17.83444  23.06503
C           33.21959  22.66406  26.63007
C           30.94035  18.79738  22.65275
C           34.62055  15.73619  28.92745
C           30.60475  16.30777  22.75222
C           32.24151  16.51037  28.75166
H           33.24072  19.90891  28.65673
C           30.03075  17.51780  27.41707
C           30.15778  17.66141  23.25015
C           26.53130  21.08606  27.19729
H           34.92658  17.74334  23.65841
H           30.29943  17.72310  24.33223
C           35.00047  21.17530  28.31055
C           34.19799  16.86983  23.50904
C           32.41113  18.64593  22.89087
H           26.87301  18.37333  24.58497
H           31.75452  21.05878  27.37597
H           32.49348  19.16013  23.84104
C           26.74047  16.58906  25.86843
N           27.18743  20.73440  28.27743
H           29.22184  18.07025  26.87983
H           30.96495  20.39507  24.13841
C           26.64861  17.96116  25.62363
C           29.84869  16.59241  28.41596
C           32.76863  21.54535  27.40327
C           32.03182  16.09304  23.01173
H           30.02306  15.63595  23.36447
C           32.43598  17.46503  27.64291
C           31.34809  17.99335  27.01709
O           27.28838  15.83584  24.85448
C           32.90469  17.16213  23.10693
H           31.39474  18.81411  26.30600
H           30.38200  22.88061  26.88322
H           34.74475  15.76622  27.82057
H           28.74679  15.32341  29.20813
C           32.77529  24.61772   5.76794
C           30.12668  24.59843   3.16884
C           29.42922  25.79949   2.75990
H           28.53060  25.16167   5.32321
C           28.27547  26.28915   3.42443
C           28.01587  25.97555   4.81616
H           27.63396  27.83340   1.99800
C           27.28907  26.80205   5.59985
H           29.94804  24.03490   4.08182
C           32.43441  27.17964   4.81371
H           27.37603  26.59409   6.64468
C           33.66067  25.19058   4.88148
H           33.70322  29.12252   2.02297
C           33.56489  26.45744   4.37327
C           31.15535  24.15196   2.41634
C           34.23009  29.94463   2.58811
H           27.80025  24.64426   0.80165
C           27.41257  27.32298   2.94489
C           31.39607  29.94157   7.26467
C           31.79683  25.46690   6.33826
H           29.63372  27.53114   1.28918
C           29.98590  26.52889   1.63132
C           31.61191  26.72952   5.76181
H           32.21186  28.21765   4.39439
H           34.74211  23.63535   4.79669
O           31.81696  22.96393   2.69629
O           34.65003  24.44650   4.29060
C           32.61879  23.22586   5.90725
H           33.85201  27.15377   2.39327
H           32.35719  24.28996   0.70839
H           30.81014  27.32595   6.00972
C           34.46032  26.96161   3.23886
H           29.56712  29.18404   6.53407
C           31.61626  24.80449   1.25877
H           29.13645  23.27616   0.58968
C           26.66011  28.10290   3.79719
C           31.00638  26.01361   0.91485
H           31.86116  29.09226   6.84476
C           28.46510  23.99973   0.05279
H           27.55855  30.30575   4.84788
C           26.56452  27.83640   5.15478
H           34.92901  26.81271   0.10115
C           29.98369  30.07549   6.99098
H           32.29530  30.52671   0.52133
C           35.14059  29.49253   3.53031
C           31.18009  30.57172  12.40286
C           34.94486  22.94661  10.09959
C           26.88598  26.85736  14.25298
C           33.34229  23.92210  14.51078
H           31.42775  25.30924  14.30687
H           29.14849  26.12283   7.92343
C           30.68291  24.27513   9.88583
H           29.01968  30.17769  12.82478
H           29.17792  23.18750   8.69014
C           28.87158  26.16297  11.91995
C           30.19980  26.02909   8.25232
H           27.86065  28.16168  11.93206
H           28.02289  25.15636  14.66883
H           34.60238  26.77593   9.42736
H           34.28519  28.40444   8.35560
H           32.52072  29.61408  13.57830
H           34.69022  28.94136  13.48735
C           30.30593  23.23733   8.93153
H           30.97114  26.35039  10.13145
C           28.89900  26.11773  10.37578
H           30.80570  27.72633  12.74512
C           30.05817  29.73394  12.97506
O           34.71374  29.22977   8.28355
H           28.10022  25.40839  10.00539
C           27.75916  25.17513  12.43855
H           28.07365  28.60575  14.35712
C           28.07783  23.68222  12.21913
C           30.26436  25.68187   9.78247
C           34.20856  23.30195  12.32523
C           28.19359  27.53914  13.99968
H           30.18251  28.50574  11.21187
H           28.90884  23.43363  12.85454
C           27.21545  25.39934  13.92586
H           28.37924  23.56181  11.18392
H           32.06129  30.50405   9.33757
O           31.26394  23.94325  11.08902
C           28.64796  27.57172  12.49388
H           29.86644  25.75956  12.19083
H           28.87526  27.09480   9.94713
H           30.75569  26.97060   8.22436
C           30.00208  28.34693  12.31401
H           30.08776  29.72731  14.05852
C           31.09471  23.70764   7.77029
H           26.89069  25.38577  11.83637
C           31.03198  25.01064   7.42266
C           32.42489  30.40205  12.84506
H           32.49857  26.84208  14.27192
C           33.17706  23.33486  13.26411
H           28.97610  27.18078  14.64686
C           31.47855  26.64682  18.72896
C           32.28425  27.21220  16.15340
C           32.00467  27.92140  18.42398
C           32.36326  28.22644  17.09663
C           31.66464  25.92872  16.38163
C           31.33628  25.82580  17.75029
C           30.79777  26.01318  19.81969
C           30.32655  24.87790  19.40682
O           30.66098  24.59678  17.97127
H           32.20837  28.63971  19.26938
H           27.67860  26.14599  17.61161
O           28.30088  28.43789  18.99900
C           30.47517  26.25501  21.19295
C           27.23681  27.71200  19.21777
O           32.35606  23.75884  15.41669
C           29.42424  24.04516  21.22550
C           29.72638  23.82519  19.82726
C           34.79014  24.88336  16.25912
C           27.07484  26.52411  18.46890
C           31.42353  24.84743  15.33465
C           32.83337  29.64938  16.84192
H           26.45691  26.85137  15.25745
H           30.39871  24.41682  15.50451
C           29.81206  25.25346  21.83775
H           32.56417  29.97627  15.77779
H           34.43578  25.90196  16.44237
H           30.77283  27.23773  21.60393
H           34.35042  24.18285  16.99329
C           34.20923  29.76495  17.32022
H           34.89463  27.20318  19.94954
H           35.09310  24.68222  20.59133
H           29.47749  29.94548  21.84570
C           34.57871  24.41572  14.88403
H           28.62156  28.77818  19.82898
H           32.21511  30.27788  17.42991
H           34.08406  30.41315  21.42160
H           35.14498  27.89010  16.84759
H           29.44994  22.96910  19.16483
H           28.73146  30.28301  16.71038
O           32.76220  27.52017  14.89947
O           28.75907  22.98355  21.88212
H           27.54677  30.04373  28.75748
C           29.98396  24.02463  25.14759
C           34.59739  23.00748  26.73786
H           26.77542  27.87165  23.12120
C           29.37595  29.70769  22.90553
H           26.61716  28.27085  24.88119
C           32.29908  23.37560  25.75682
H           28.59649  30.58691  27.40220
H           29.83157  28.73967  22.89980
H           28.98576  24.07000  25.52908
C           30.41028  24.67840  24.02098
H           28.27723  29.66405  23.11629
C           32.66200  30.06690  26.88303
C           30.91025  23.40464  26.04050
H           27.85560  28.99051  27.36105
O           29.70724  28.48460  25.38265
H           32.24303  25.40337  22.96561
C           34.97476  26.72702  26.49595
C           27.72012  30.02349  27.68270
H           35.10062  24.99686  29.26468
C           35.14138  26.01046  28.77583
C           31.79379  24.82322  23.82819
C           33.65973  29.76509  27.77699
H           29.05575  28.82915  24.76587
H           26.70175  25.72274  22.56138
O           29.54029  25.35316  23.20163
H           33.25220  25.90555  27.46023
H           34.65253  26.89677  25.47912
C           30.63688  29.48302  25.69008
C           32.67516  24.08929  24.61972
H           27.78921  25.49083  27.27990
C           26.80737  24.91567  27.21691
C           31.63465  29.16994  26.54388
H           31.56280  28.20181  27.06660
C           26.87128  23.44153  27.62826
H           33.72236  24.11187  24.31623
C           34.29912  26.16902  27.59176
H           33.77740  28.77878  28.18081
H           34.97764  23.86503  26.13538
H           29.01067  24.61864  28.82268
C           26.54734  30.55332  26.98432
C           27.56198  23.01966  28.72027
H           31.22695  26.45227  29.33570
C           27.81204  36.00261   4.82614
C           28.44186  33.72361   4.19960
C           30.11543  35.62317   3.84326
H           30.53776  34.76541   3.25895
C           30.88201  35.99486   5.02194
H           29.87345  36.43529   3.17383
H           29.12599  33.02541   3.76422
C           28.72304  35.02178   4.26420
C           27.18101  33.32682   4.80167
C           31.63350  37.18773   5.24720
C           31.21845  35.07527   6.01772
O           28.06815  37.31540   4.66855
C           32.08339  35.68205   6.89351
O           32.69718  34.03357   2.74034
H           30.87738  34.03423   6.04997
C           34.29299  32.24732   3.36677
C           27.20811  33.70706   1.03232
C           33.80216  33.56828   3.45080
C           34.44549  34.44006   4.32468
H           34.01894  35.41495   4.36165
H           32.13832  33.29421   2.65043
C           32.39128  37.13975   6.47745
H           33.49373  37.31744   6.26243
H           31.60784  36.34907   1.06293
O           27.46500  31.20702   1.43714
H           28.16165  31.31145   0.80908
H           31.43565  38.05356   4.56842
C           28.43634  34.10994   0.44249
H           28.51626  37.87671   1.65549
S           32.59751  31.60611   1.22424
C           26.62171  35.59327   5.55434
C           26.46717  32.13133   5.04788
C           26.48121  34.29782   5.35865
H           27.87238  37.70439   5.54066
C           33.72315  31.24579   2.56703
C           33.88568  37.00302   1.10623
H           34.41861  36.23122   1.63501
S           26.80850  36.37947   0.62152
C           26.75383  32.45939   1.48392
C           32.52167  36.62117   0.59764
H           31.94033  37.78947   7.25851
C           26.54507  30.69618   5.07230
H           33.99827  37.85309   1.79346
C           29.76417  33.60280   0.07933
H           30.05367  32.60917   0.09209
H           27.50026  31.06312   7.23605
C           28.33340  35.40082   0.15295
H           26.76796  35.60014  11.72308
H           32.55702  35.13743   7.69159
H           32.69097  31.54569   7.97257
H           27.09134  33.84215  13.23422
C           28.04751  32.93848   8.30973
C           32.22558  35.61159  14.20453
O           30.72894  33.72905  14.13655
C           30.77975  36.77317  12.07254
C           33.60989  37.51403  14.38227
C           32.01165  32.38735  11.13245
C           29.58265  31.27174   7.64663
C           28.25884  31.75297   7.64229
H           29.47487  35.08346  12.28495
C           30.41227  35.54101  12.62075
H           34.36338  34.12868   9.61670
H           28.88781  34.47287   9.64062
C           34.84551  30.97305  13.05948
C           30.95502  31.61168  11.54000
C           33.57400  31.17342  12.46838
C           31.13939  34.92121  13.58525
C           30.62400  31.84208   8.33042
C           32.57702  36.82929  13.66420
C           34.31742  34.44467  10.63190
C           33.30432  32.27348  11.62057
C           31.85089  30.95593   8.31504
C           34.30692  33.26513  11.51377
C           26.53404  35.56790  14.25892
H           29.87205  31.79597  11.21093
N           27.28003  34.39380  14.03527
H           30.07466  33.39381  13.52772
C           30.05572  37.39771  11.05701
H           33.49023  35.18294  10.78610
C           31.97094  37.35043  12.55255
H           26.59930  31.58001  10.96542
H           29.11769  37.01042  10.75464
H           26.98440  33.30621   8.21992
S           31.64515  33.69828  10.01271
C           30.36699  32.97741   9.02586
C           29.12192  33.52608   9.04153
H           28.98728  37.63200  14.64638
O           35.14221  37.55190   9.72235
C           30.69272  35.15931  18.26034
C           31.94989  36.61719  20.39444
C           31.24415  34.49990  19.41634
H           30.09051  34.65434  17.46986
C           31.09371  33.09375  19.47983
H           30.45044  32.54068  18.80274
C           27.72395  33.06596  17.90096
C           28.14922  32.22923  16.91885
C           31.97511  35.21824  20.38162
C           31.80369  32.36175  20.41091
C           30.95718  36.52441  18.07457
H           27.66265  32.78116  18.98233
H           30.22441  36.62520  15.99911
C           32.93161  33.51342  15.71491
C           33.67893  35.84105  16.12114
C           30.60225  37.18211  16.87835
C           31.53769  37.21318  19.13509
H           32.06084  33.23768  16.38193
H           33.67730  34.50018  17.89864
C           32.89037  37.30387  21.15648
C           33.99720  37.11481  15.65616
H           27.17634  35.92687  18.96001
C           32.98370  35.02214  15.29356
C           26.90724  34.20374  17.66495
C           26.85840  34.56758  16.31545
H           29.23766  32.23370  21.17204
C           26.48730  35.10231  18.79301
O           28.88567  31.06036  17.33556
H           26.41751  34.55159  19.75333
C           27.46142  33.76134  15.30471
H           33.91978  31.68181  18.31834
H           33.83226  33.19525  16.25768
C           28.09364  32.59620  15.59189
C           32.84706  34.47878  21.21509
C           32.73544  33.06034  21.30703
H           34.43922  35.96451  18.30760
H           30.89936  30.82104  19.85047
O           31.70662  31.01493  20.34139
H           34.56864  38.01190  17.47126
C           34.22128  35.32431  17.41869
C           34.63089  30.85205  18.11087
C           33.84263  36.62473  21.88897
C           33.83278  35.15787  21.94100
C           33.65655  32.35848  22.02984
C           34.93521  38.04138  16.42304
H           28.57880  32.12449  14.76389
H           27.07602  37.33981  21.97585
H           32.88748  32.78004  14.87641
H           34.33525  30.61771  23.08163
H           27.92706  38.14984  28.60619
C           29.12357  35.41645  24.01445
C           30.71210  30.68231  24.89435
C           34.54098  37.42013  29.25506
H           30.04256  34.63753  22.25915
C           26.82898  31.34194  25.90266
C           34.03622  37.41680  26.68654
H           27.96053  31.57784  22.09023
C           28.78318  32.32967  22.13324
H           28.39923  33.35877  22.20564
C           27.89398  36.26432  25.82548
C           26.51832  36.00216  25.97723
C           33.67344  30.90723  22.28021
C           34.68746  33.04720  22.63377
H           27.83371  31.35984  25.53010
C           28.23827  37.57410  25.87575
H           29.30701  36.42337  23.79181
H           29.31806  37.70157  25.81491
C           30.37105  35.77024  28.58172
C           32.27828  33.91613  25.26116
H           28.56250  34.09137  25.81457
C           33.23905  33.69909  26.21719
H           35.02233  34.13574  28.04340
H           33.17192  37.26730  26.11588
C           34.74319  34.41376  22.73367
C           32.45661  36.78493  28.57236
H           28.16021  35.19183  23.49522
H           29.92484  35.24338  26.05992
H           31.14169  35.14546  23.33931
C           31.62027  31.66025  25.31106
C           30.59494  34.42053  28.80615
C           34.60031  30.77698  28.14765
C           28.90780  37.89257  29.03057
C           32.60300  31.35173  26.27780
H           31.54843  34.03298  28.44127
C           29.74893  32.04495  23.25344
H           33.89247  34.53848  26.38741
C           29.12266  36.39402  29.08981
C           30.37580  33.16748  23.81911
O           31.28285  36.50150  27.89473
C           33.41207  32.41245  26.74485
C           31.39670  32.92847  24.80004
C           28.91284  35.17299  25.52505
C           34.39387  32.10687  27.74211
H           32.12547  34.98151  24.92066
C           30.23245  34.62157  23.30768
C           33.72173  37.18783  28.08386
H           34.86685  36.73888  26.30092
C           29.94870  30.83398  23.71973
H           34.53860  37.15062  22.55068
H           32.60943  30.61230  22.50899
