3640
# File generated with Atomsk by nikant on 2025-11-07 02:38:21
C  15.95521783  10.21605130  -4.68296608
C  15.80271725  8.02331425  -5.64088115
C  15.31188849  9.34427061  -5.55684371
C  -18.23584994  7.55176184  -4.84935442
C  -18.16269156  9.83282732  -3.98153991
C  -17.57626443  8.53233226  -4.02136159
C  15.23287391  7.02178580  -6.44062197
C  15.73981284  5.72062600  -6.41953909
C  -17.91229011  6.21028979  -4.69795268
C  16.65031357  5.26852750  -5.47733838
C  -18.41248139  3.88075202  -5.13976923
C  -17.68524426  3.52288918  -4.00866928
C  -16.94600734  5.85125345  -3.72270690
C  -16.86532271  4.46704632  -3.31997047
C  -16.14539195  6.81519827  -3.08192035
C  -16.49194007  8.10173701  -3.26826526
S  14.10723094  7.38210890  -7.78341043
O  14.20690705  9.80956146  -6.26730406
C  15.97004587  2.73760682  -5.76878524
C  15.07461106  2.23343054  -4.63437928
C  14.28501119  0.39371242  -3.23970700
C  15.17039333  0.96657836  -4.12617072
C  13.30655771  1.24289111  -2.66938445
C  13.94412958  2.95563532  -4.19394265
C  13.12163228  2.50551055  -3.24584139
C  14.12851172  -0.99814801  -3.10039818
C  13.39163443  -1.40675423  -1.98434872
C  12.54170567  0.78663716  -1.58499128
C  12.60442969  -0.51636499  -1.23736329
C  11.70952785  1.80508575  -0.75532652
C  11.77408272  1.45787007  0.77481805
C  12.19263797  0.05112825  0.87818086
C  11.81565320  -0.98667318  -0.07612028
O  12.77366924  -0.28075930  2.08137200
O  13.52963490  -2.70565508  -1.55967150
N  -16.07016440  3.94137468  -2.29712636
O  -15.04159675  6.46181319  -2.31102448
O  16.15975821  0.22249505  -4.71705342
C  14.76657190  -2.23301847  -3.79311421
C  12.44946585  -3.54267549  -1.84267877
C  10.43036531  -3.98198089  -3.22333537
C  11.56544029  -3.21220251  -2.89007440
C  10.22311703  -5.15887846  -2.41150301
C  12.31339253  -4.74613695  -1.16022170
C  11.13508494  -5.36801780  -1.47506822
O  9.61759046  -3.52438755  -4.21332389
C  9.21024340  -6.12635456  -2.39501893
S  11.03728741  -6.77922031  -0.38865661
C  7.55013242  -7.68953799  -2.93503433
C  8.06280494  -6.41910217  -3.16896863
C  7.80265341  -8.50790604  -1.87391091
C  9.47359766  -7.03392961  -1.45302985
C  8.98477779  -8.21700166  -1.04508108
O  6.99071773  -9.58491644  -1.64725581
C  5.67483905  -9.50202332  -1.81672962
C  3.47149435  -8.99796787  -1.87896630
C  4.72473109  -8.49801793  -1.55977879
C  3.50739301  -10.46063458  -2.31801454
C  4.95590105  -10.72134644  -2.09475575
C  4.96485876  -7.02697790  -1.22692379
C  9.57173303  -9.13936815  -0.06105004
C  8.72268705  -8.92376090  1.27041725
C  9.23016985  -7.64013827  2.05883712
C  10.55695416  -6.32470822  3.45460199
C  10.43581739  -7.48192182  2.69978487
N  9.69104132  -5.41962509  3.64920844
C  8.21477353  -6.67809973  2.28370583
C  8.46544412  -5.58582819  3.08364413
C  11.65000474  -8.39570987  2.60067316
C  13.22847468  -5.24895818  -0.05085184
O  14.27289677  -5.72556186  -0.35342542
O  13.13450020  -4.72036980  1.23153715
O  7.31500602  -4.83730335  3.46359206
O  11.77488720  -6.02717073  3.91249357
C  11.63850403  -5.02234773  4.90770759
C  12.98386684  -4.82085133  5.56082352
C  14.52175797  -5.02253519  7.32100197
C  13.21978628  -5.11096603  6.90829927
C  15.53579175  -4.49567461  6.59475957
C  14.03998930  -4.20492496  4.83111457
C  15.25862206  -3.95528948  5.27842764
N  14.93812060  -5.43675736  8.61110005
C  16.22056076  -4.77262409  8.70796232
C  16.64860167  -4.35538064  7.45139031
C  -18.31551463  -4.42793764  9.89677396
C  -17.10875114  -3.77912033  9.72643544
C  -17.39936078  -3.65824755  7.28082605
C  -16.64923169  -3.44170861  8.43858973
O  -16.37745424  -3.37587320  10.82419134
C  -16.90139560  -3.19833894  5.89520547
O  12.27959707  -5.60179425  7.79417076
C  7.61999568  -3.58644963  3.95945870
C  6.97960808  -1.90413488  5.48949121
C  6.82848168  -3.18954053  5.01871627
C  7.74869401  -0.94308880  4.82542975
C  8.49061399  -2.69185605  3.40976257
C  8.54513532  -1.38344686  3.80515277
O  6.11969211  -1.56604159  6.54260532
C  6.92465611  -1.83231194  7.73912089
C  6.25021212  -1.31938064  9.04084858
C  5.88139024  0.45777363  10.75567579
C  6.45622463  -0.17600208  9.72789457
C  4.68612277  -0.16790168  11.26419896
C  5.13481670  -1.95680796  9.61122542
C  4.39038187  -1.41452748  10.67678416
O  7.62009408  0.48609125  9.10076538
C  7.58100971  1.58199611  9.96064178
C  6.64801964  1.65283455  10.87428378
C  8.58456292  2.30010926  9.46124737
C  8.74653669  3.48799930  10.21011729
C  6.63303565  2.93852755  11.46088467
C  7.71916533  3.82215681  11.17462754
O  9.81060540  4.21388067  9.99135507
O  7.76233515  5.05670816  11.84202634
C  7.07198522  6.03125785  11.08963575
C  5.48156197  7.89308573  11.20832182
C  6.28897366  6.93897014  11.80767362
C  5.52656363  7.89649817  9.84421730
C  7.21632018  6.07551444  9.64836345
C  6.41268199  7.02128965  9.11258590
C  4.87176550  8.93093130  9.07156771
C  4.57663610  10.18240520  6.92437702
C  4.82058611  9.02703607  7.63419329
C  3.99733014  11.24217085  7.68605660
C  4.19200732  9.99377585  9.72392982
C  3.77317150  11.16352673  9.04461258
O  4.64756497  10.22574149  5.51495607
O  4.64609631  -3.14933621  9.02688730
C  3.03105425  -2.01988113  10.98509433
C  3.02333891  -3.37121246  11.54714187
C  3.89800962  -5.25150079  12.78295902
C  4.12372051  -3.89832402  12.19132037
C  2.50889479  -5.48760330  12.16847223
C  2.00198222  -4.35439726  11.55997235
C  9.58755307  -0.54178144  3.21148033
C  9.26888803  0.95112178  3.43090190
C  8.72516950  1.17533319  4.91821235
C  7.45662081  0.43422135  5.16879249
C  10.38130072  1.93896835  2.91230498
C  10.15768635  3.34771771  3.48623599
C  9.70331170  3.31513965  4.99202996
C  8.39570788  2.63335639  5.24533486
C  10.40872760  1.89372370  1.36813073
C  11.51180539  4.12292815  3.30635694
C  11.56789604  5.50993348  3.96741611
C  12.68981116  6.34771158  3.39521367
C  13.52137530  8.16334702  2.12479962
C  12.46474841  7.38767136  2.53234853
C  14.81404007  8.04947893  2.61292433
C  13.93461424  6.17804922  3.83741525
C  15.08372472  6.94941850  3.46073572
C  15.81664918  9.04112546  2.50611702
C  -18.19536393  8.84911844  3.16637574
C  16.35523618  6.74904506  4.05182667
C  -17.99392366  7.86717266  4.11966413
C  -16.93533055  7.96095470  5.01397154
C  -16.52051240  6.70824099  5.52948519
C  -18.39979986  5.62672798  4.65401075
C  -17.24772630  5.52720650  5.32922498
S  13.15487846  9.47427566  1.00506268
C  15.82714459  10.22066754  1.62425074
C  -16.31283506  9.15023256  5.51570983
C  -15.09641544  8.97575058  6.22293859
C  -15.28013074  6.62190928  6.26336187
C  -14.58614143  7.71959194  6.63422367
C  -16.89046054  10.45732007  5.37191125
C  -16.17570760  11.54283171  5.91631196
C  -14.49523475  10.12667741  6.80881263
C  -15.01445146  11.35269124  6.63486763
C  -16.75316387  12.95922769  5.88106059
C  -17.32602381  13.34669243  7.26827007
C  16.44493140  13.81737138  7.41538706
C  15.50692301  12.89080948  6.64851063
C  14.08674011  12.60528623  4.65654950
C  15.11961126  13.29002509  5.37462370
C  13.73530534  11.38758263  5.19688335
C  15.18865599  11.61704524  7.11349064
C  14.49342481  10.79813134  6.28591068
C  15.52260196  -23.71860106  4.81073791
C  14.96059833  -23.25544852  3.64034429
C  13.48066608  13.12642115  3.54489797
C  13.95207411  -23.91306030  2.99359113
C  15.73100431  11.10030245  8.41104108
C  14.44133823  9.28941567  6.70725983
C  12.28947362  12.54916373  3.06488728
C  12.64911763  10.69720215  4.57759692
C  11.92199277  11.31700977  3.61309853
C  13.35497234  -23.38910354  1.78855301
C  12.07428903  -23.91288344  1.42915157
C  11.56544587  13.17370197  2.04936425
C  14.00893863  -22.50364891  0.91203645
C  13.51384926  -22.12896228  -0.31042736
C  11.48541312  -23.28026898  0.27889499
C  12.16801755  -22.44660717  -0.55655844
C  11.43838187  -21.99594072  -1.83573805
C  12.21234294  -20.89292647  -2.46293760
C  13.70400779  -21.32810800  -2.60382218
C  14.32010404  -21.26142730  -1.22683610
C  10.06090571  -21.45714462  -1.67791167
C  9.33389480  -21.37102786  -3.01142615
C  10.08952249  -20.38822276  -3.83731718
C  11.56748881  -20.73135635  -3.87522678
O  7.94547609  -21.09977485  -2.70058459
O  12.23866047  9.50504794  5.12890371
C  11.87671035  8.75340320  0.01821049
C  11.09237886  7.04774002  -1.36102028
C  12.13372608  7.61807638  -0.67722521
C  9.76856736  7.52896986  -1.36535463
C  10.63164885  9.30207146  0.03387855
C  9.55722963  8.71447342  -0.69791741
C  12.90579486  5.71756178  -1.74298024
C  13.36061562  6.73192709  -0.69260548
C  11.49341644  5.85148600  -2.01666476
H  15.52866068  11.19094125  -4.64599459
H  -17.75202872  10.59394226  -3.35011890
H  15.21294520  4.89851297  -6.98468134
H  -17.77971473  2.47284845  -3.63614336
H  -15.90110981  8.78784964  -2.66039839
H  13.80502433  6.30270959  -8.48631590
H  13.64804163  9.07020052  -6.35722048
H  -18.49027553  2.04389259  -6.18557856
H  15.36173532  2.92976552  -6.61437852
H  13.72158018  3.99364981  -4.61325986
H  12.31986429  3.10194230  -2.99792852
H  10.65821675  1.89882294  -1.08421995
H  12.26541652  2.74659750  -0.78328499
H  12.48086209  2.12638807  1.12380313
H  10.68764437  -1.03649983  -0.31751143
H  12.10712433  -2.02688119  0.16532842
H  -15.87350345  4.64143892  -1.58001290
H  -16.50259035  3.14263889  -1.83929393
H  -14.43712538  7.17131868  -2.16155249
H  16.25182955  -0.58865608  -4.21095472
H  15.40958497  -2.79048129  -3.09440719
H  15.25065000  -2.07631100  -4.71923684
H  13.90616979  -2.86346391  -4.08637798
H  11.79525170  -2.26212105  -3.49878752
H  10.08054032  -2.68576274  -4.49949579
H  6.72068936  -7.94183103  -3.56622859
H  7.71581944  -5.79585751  -3.97660595
H  2.67592106  -8.44255385  -1.42062141
H  3.43672112  -10.46335891  -3.38609103
H  2.80050953  -11.17019208  -1.90831911
H  5.48604284  -11.64306479  -2.34947332
H  5.73937528  -6.79853747  -0.50501463
H  4.03372791  -6.59514520  -0.79666208
H  5.27793134  -6.38981903  -2.10642709
H  10.66879228  -9.15547010  0.14748177
H  9.49774651  -10.16386169  -0.47717131
H  8.85736346  -9.82020189  1.91824576
H  7.63132107  -8.81375981  1.07325527
H  7.36408058  -6.72882710  1.62055422
H  11.43897002  -9.37276020  2.10851123
H  12.43824720  -7.93765389  1.98798333
H  12.03269287  -8.68998396  3.58983198
H  13.98952472  -4.88126138  1.56480405
H  10.90652782  -5.43378767  5.65447380
H  11.29915529  -4.04419492  4.50752057
H  13.76048777  -3.92185869  3.82218195
H  15.95987228  -3.51703320  4.54397651
H  14.38054226  -5.22169919  9.39703198
H  16.43218856  -4.77864921  10.84083551
H  -15.71530502  -2.87557004  8.26659109
H  -15.53575840  -2.98067256  10.60335732
H  -17.50514671  -2.33174194  5.68620428
H  -17.03697475  -3.89088489  5.07800165
H  -15.85900849  -2.98662119  6.03065664
H  11.47513516  -5.07812141  7.65852334
H  6.17222545  -3.90519433  5.47453804
H  9.18804698  -3.04115809  2.61461629
H  7.02434455  -2.90701300  7.76976315
H  7.91503454  -1.43135687  7.46064972
H  4.08176328  0.18079272  12.11819808
H  9.18832874  1.92198685  8.60395871
H  5.86589532  3.04719359  12.22073887
H  10.13128496  4.55417823  10.82133223
H  5.05359657  8.65491202  11.81373396
H  6.18073001  6.84230590  12.90848747
H  7.73188348  5.40244796  8.99361573
H  6.37828725  7.05130720  8.01639895
H  5.15019682  8.17450481  6.99185152
H  3.69538020  12.25528538  7.24074250
H  3.93153911  10.04886753  10.82408024
H  3.29169369  12.00302714  9.71395968
H  4.16505321  10.97566266  5.12256982
H  5.20504358  -3.50833361  8.28677003
H  2.39178948  -1.32801464  11.48801765
H  2.55275131  -2.09174122  9.95281651
H  3.83036779  -5.24695893  13.92848884
H  4.63209067  -5.98838360  12.43798628
H  5.09675621  -3.36262791  12.40867487
H  1.86925623  -6.31895148  12.31793181
H  0.96452119  -4.19314360  11.20396488
H  10.41856725  -0.79037083  3.84689569
H  9.88896477  -0.66219540  2.17626673
H  8.40041181  1.16176050  2.82872579
H  9.53261209  0.93235844  5.66117894
H  6.63717666  0.90401269  4.64365357
H  7.18849897  0.56792579  6.20936667
H  11.37616775  1.53555650  3.18318062
H  9.37037905  3.93767314  2.92440990
H  10.48582455  2.95677143  5.63921365
H  9.58337253  4.38174948  5.34946827
H  7.96663168  2.62736627  6.24980354
H  7.55602922  2.82614806  4.55976730
H  9.60994905  1.18438542  0.99774589
H  10.38498744  2.87079558  0.93948315
H  12.31542833  3.50232516  3.73747100
H  11.69223027  4.28173411  2.20422593
H  11.59748619  5.50331020  5.05087332
H  10.52940487  5.95368538  3.81713238
H  11.38177717  7.57196675  2.20327940
H  14.03044755  5.39007120  4.57064812
H  -17.50862216  9.72466465  2.99176206
H  16.19994105  4.71735984  4.47969733
H  -16.95108923  4.66973673  5.85141678
H  14.99995671  10.95893457  1.77844924
H  -18.39928612  10.76902763  1.81469037
H  15.87310600  9.90467062  0.60904895
H  -14.90732692  5.69043897  6.65922470
H  -13.61891288  7.55082659  7.24319723
H  -17.79332899  10.72270241  4.83934761
H  -13.59578626  10.16359195  7.40366994
H  -14.56326764  12.26527451  7.02929056
H  -17.54139518  13.01940140  5.06260233
H  -15.92105463  13.50839346  5.54176039
H  -17.16705504  12.51573741  7.99709121
H  -16.58452639  -24.13590637  7.75235385
H  16.07835982  13.78789325  8.46361353
H  16.36000689  -23.32205277  7.22596521
H  16.39494561  -23.23329104  5.23485753
H  15.33083792  -22.28087675  3.34347067
H  15.18702279  10.27617808  8.89099247
H  -18.46225158  10.63138538  8.07467266
H  15.94894107  11.74050771  9.29995155
H  14.39720478  8.55603316  5.86876578
H  13.57056826  9.01367581  7.37428446
H  15.34198758  8.97124367  7.25003099
H  10.98459690  10.85945296  3.27729832
H  10.62741159  12.78641449  1.74699547
H  15.13960166  -22.24816486  1.17343956
H  10.46618311  -23.71156528  -0.02916117
H  11.34536410  -22.72860273  -2.63314562
H  12.23299400  -19.91080891  -1.95000082
H  14.18806698  -20.55967132  -3.31351808
H  13.77219580  -22.37155806  -2.91562477
H  14.27593390  -20.21288530  -0.78553248
H  15.37938279  -21.41566847  -1.23493786
H  10.12895050  -20.51464840  -1.16577730
H  9.45509886  -22.07310658  -1.06436826
H  9.32547923  -22.36565003  -3.47930094
H  10.00087478  -19.40860299  -3.32687025
H  9.67675306  -20.19456416  -4.81173895
H  12.11147099  -19.91736316  -4.37141616
H  11.72425471  -21.66155345  -4.44492920
H  7.73265097  -20.32569318  -3.24116032
H  11.58438780  9.16980446  4.52006851
H  9.00998329  6.83911738  -1.77159612
H  10.39753330  10.24886307  0.63296955
H  8.49412233  9.08220583  -0.78772779
H  13.37088509  4.86825910  -2.16288822
H  14.20069448  7.32168101  -1.03507430
H  13.57101568  6.28004381  0.32992560
H  11.07684367  4.96003944  -2.47357541
C  -10.32498534  8.77280248  13.66576494
C  -11.27514619  9.36768182  15.80452156
C  -10.74607386  8.37823385  14.89836328
C  -11.46737834  10.68949489  15.34951141
C  -10.66127381  10.07300506  13.22182314
C  -11.19680912  11.04288296  14.01592592
C  -11.72836710  9.07258961  17.10659633
C  -12.04845056  10.06393866  17.97927204
C  -11.88794036  11.69273567  16.21492710
C  -12.14890030  11.38777437  17.59175135
C  -12.48536886  12.42819713  18.48475705
C  -12.37003604  13.72707114  18.07882955
C  -11.97776416  13.06431717  15.74090402
C  -12.17518087  -24.17401881  16.75556005
C  -11.73535885  13.32162750  14.39705079
C  -11.43830026  12.30988865  13.49601132
S  -11.82815231  7.46363823  17.76540932
O  -10.58311157  7.09617469  15.28632531
C  -12.90231906  12.17016465  19.92760123
C  -13.92438869  13.00682525  -8.82607738
C  -15.11399736  13.36386976  -6.72877772
C  -14.11129403  12.70597507  -7.48724547
C  -15.82321646  -23.82407472  -7.27735210
C  -14.68105958  -24.21319824  20.04156621
C  -15.55505224  -23.52449839  -8.69376183
C  -15.54315546  12.85294759  -5.43116304
C  -16.65865474  13.46347511  -4.84746445
C  -16.96295072  -23.26280444  -6.66414952
C  -17.36920633  -23.75552328  -5.43857165
C  -17.89242008  -22.18620536  -7.29492926
C  16.65836605  -21.29017185  -6.18725904
C  15.91034060  -22.28075949  -5.37827939
C  16.60591552  -23.35831244  -4.62864136
O  14.67161259  -22.36281179  -5.66069901
O  -17.04190321  12.95805709  -3.61687889
N  -11.98910922  -22.83232336  16.55420722
O  -11.85615221  -23.65319754  13.82588755
O  -13.38300208  11.69904826  -6.89573105
C  -14.92299270  11.71785274  -4.64158616
C  -16.65916181  13.53863734  -2.41421509
C  -17.65325147  13.64551619  -0.21068758
C  -17.61545751  13.13430453  -1.47036472
C  -16.45827670  -23.85234827  0.16379252
C  -15.50392500  -23.92007598  -2.10795151
C  -15.56282702  -23.60442900  -0.74641735
O  16.65193454  13.32789974  0.71470248
C  -15.97871179  -23.35675223  1.35887799
S  -14.06518905  -22.65525368  -0.44246370
C  -15.59996233  -22.66736032  3.62785003
C  -16.51165323  -23.10008398  2.66318022
C  -14.27366275  -22.23843978  3.31298283
C  -14.80874976  -22.72585102  1.20932923
C  -13.85638975  -22.20010070  1.97991611
O  -13.44601548  -21.63186899  4.28726137
C  -13.17003615  -22.35506535  5.33242475
C  -12.70142636  -24.16043332  6.68333037
C  -13.05884927  -23.74911287  5.34912665
C  -12.41439061  -22.94343020  7.57551522
C  -12.72353916  -21.86046882  6.61266354
C  -13.23300009  13.42789513  4.37393273
C  -12.58392523  -21.64475037  1.51243797
C  -12.61783938  -20.09266446  1.46785367
C  -13.42786275  -19.60080447  0.38219475
C  -13.70993964  -19.17036073  -1.95279257
C  -12.91540340  -19.59220513  -0.89708558
N  -14.96316393  -18.60162838  -1.78082663
C  -14.65305169  -19.01437570  0.60185878
C  -15.34064329  -18.44537589  -0.47116199
C  -11.49958933  -20.11424639  -1.29601878
C  -14.29528987  -23.57674939  -2.97238504
O  -14.53256111  -22.92655480  -3.92672346
O  -13.18115726  13.97677160  -2.81679154
O  -16.64836223  -18.09435014  -0.19072801
O  -13.39411118  -19.35741637  -3.30053771
C  -14.30336437  -18.55369424  -4.06753165
C  -14.18857852  -18.52522630  -5.53043994
C  -13.68571317  -17.24761649  -7.45881389
C  -13.91332347  -17.25511872  -6.13471521
C  -13.97095677  -18.38270815  -8.21402608
C  -14.43381498  -19.66999009  -6.23721538
C  -14.37418106  -19.60135951  -7.62731526
N  -13.38552422  -16.18390227  -8.28940299
C  -13.24486441  -16.75914620  19.84966243
C  -13.59078925  -18.11224922  19.92025334
C  -12.67304436  -16.21762737  18.73288167
C  -12.77621021  -16.96795365  17.54426266
C  -13.67189201  -18.91463036  18.76666917
C  -13.20540217  -18.31970189  17.57016872
O  -12.22711592  -16.46044231  16.40348319
C  -14.07374915  -20.39718878  18.58030933
O  -13.67072683  -16.16295524  -5.36616100
C  -17.14563017  -17.51650115  -1.30344008
C  -17.40321728  -15.51847738  -2.64599588
C  -16.75538196  -16.22525612  -1.57581119
C  -18.33823777  -16.14547663  -3.44333823
C  -17.92081479  -18.18698992  -2.22379849
C  -18.37929604  -17.57044424  -3.34605586
O  -17.08598985  -14.15292033  -2.78565864
C  -15.80177342  -14.16444847  -3.42242538
C  -15.01235135  -12.90145677  -3.25467811
C  -13.36523140  -11.24646947  -4.19777306
C  -14.16073273  -12.28418484  -4.13315734
C  -13.16592311  -10.63910280  -2.94851919
C  -14.73811690  -12.22683854  -1.99500312
C  -13.84722700  -11.12118626  -1.85878462
O  -14.47861335  -12.90203470  -5.35385270
C  -13.62217438  -12.05000074  -6.13203076
C  -13.06134427  -11.03964864  -5.49962511
C  -13.63982972  -12.49541064  -7.42737993
C  -12.74072453  -11.71613550  -8.24053749
C  -12.11671148  -10.32746824  -6.31785281
C  -12.03326634  -10.62195101  -7.65699236
O  -12.43489512  -12.00778128  19.90525772
O  -11.20531550  -9.87004438  -8.45887516
C  -10.16875787  -9.28382113  -7.72944454
C  -8.13798828  -9.46147327  -6.45860752
C  -9.06827045  -10.05511355  -7.31075164
C  -8.31761596  -8.11371602  -5.98364278
C  -10.20130275  -7.89656004  -7.49054671
C  -9.26926661  -7.31157055  -6.63688729
C  -7.76049126  -7.62845396  -4.76596721
C  -7.71801862  -6.01149950  -2.94580016
C  -8.22300774  -6.41576900  -4.15603858
C  -6.66220350  -6.65889897  -2.33286703
C  -6.67359322  -8.25783777  -4.15383651
C  -6.13515184  -7.74862144  -2.97466174
O  -8.28265216  -4.88112133  -2.28788368
O  -15.17534921  -12.74969897  -0.74926213
C  -13.59887807  -10.42781284  -0.55678341
C  -12.45997942  -11.15835273  0.08301018
C  -11.32081247  -12.35743558  1.84798013
C  -12.46787801  -11.58669821  1.46093068
C  -10.56921531  -12.39019363  0.56379684
C  -11.30472177  -11.67547036  -0.51098103
C  16.11378411  -18.47234854  -4.33805801
C  15.98170715  -17.91597913  -5.80636310
C  -18.45721536  -16.57779288  -5.86666451
C  16.35826451  -15.59685725  -4.74736123
C  16.32852443  -18.84724670  -6.94801105
C  15.84753991  -18.05838496  -8.22738302
C  16.55214273  -16.75987383  -8.39620558
C  16.42789040  -15.86709576  -7.18561432
C  15.62888316  -20.21595544  -6.69675190
C  15.91917894  -18.80853986  19.88241716
C  15.17319286  -18.22983783  18.63460249
C  14.60148547  -19.33137189  17.77327789
C  14.64187012  -20.90887511  15.96186020
C  15.28901818  -20.00234979  16.78847430
C  13.26484296  -21.25402747  16.11132473
C  13.24710713  -19.61479268  17.88549604
C  12.57439668  -20.57316261  17.10165429
C  12.62929510  -22.28062177  15.36913959
C  11.35168987  -22.59622293  15.72262774
C  11.25975602  -20.94850364  17.45692287
C  10.66577088  -22.06039942  16.83866323
C  9.44349365  -22.50908346  17.28305181
C  8.55795914  -21.60213620  17.94654898
C  10.40542095  -20.16992917  18.24512962
C  9.04890538  -20.37031881  18.33006081
S  15.52515840  -21.38771642  14.55035985
C  13.17419340  -23.08989722  14.25547214
C  8.90961854  -23.80243016  17.01353520
C  7.57084810  -24.09300604  17.34466873
C  7.15415756  -21.92128262  18.20694220
C  6.72101365  -23.16084009  18.01124014
C  9.74798949  13.35009798  16.86809922
C  9.40370029  12.04031353  16.81782698
C  7.11378909  12.84923243  17.11711029
C  8.02804001  11.77815356  16.96958532
C  10.42256692  10.94898120  16.51740383
C  10.63329604  11.19244084  15.00680140
C  11.74216957  10.39756568  14.30003315
C  11.88552621  8.94347993  14.81146128
C  13.12999380  7.43624686  16.30341283
C  12.90642598  8.70446585  15.79239577
C  12.22182036  6.45830122  15.88670574
C  11.25865788  7.82094862  14.24579430
C  11.45842749  6.60997876  14.71208368
C  13.78800801  9.69212991  16.25350923
C  14.74877216  9.47508323  17.20953810
C  14.11272343  7.12772108  17.27015345
C  14.92179935  8.18844419  17.73720296
C  10.29290376  8.10566606  13.12559489
C  10.88567396  5.48368365  13.89788494
C  14.17172316  5.84289048  17.87537794
C  12.14660009  5.25901546  16.68243059
C  13.14437354  4.94593679  17.53623134
C  15.90358999  7.88286590  18.73446015
C  16.11003778  6.55297426  19.13999775
C  15.16944954  5.54108560  18.76933742
C  -18.37896608  8.83324768  19.16787869
C  -17.29879230  8.52039057  19.93567697
C  -17.89822904  6.21974150  19.83518638
C  -17.04796709  7.20330469  20.28678709
C  -15.86009861  6.97003790  -8.26065521
C  -15.06339581  8.23688303  -7.89746651
C  -16.03471433  9.43214808  -7.61884434
C  -16.58952982  9.73777102  -8.98869586
C  -14.89996742  5.97873828  -8.95633781
C  -13.70170751  5.64338028  -8.04594833
C  -13.03742169  6.91773517  -7.52317381
C  -13.89151063  7.95914845  -6.95205006
O  -12.70812018  4.80705556  -8.64661576
O  11.21696327  4.26059147  16.37500305
C  -18.09953948  -22.06542774  14.86813186
C  -15.97128530  -22.81622925  14.13135040
C  -17.27059487  -22.28233855  13.81252319
C  -15.53477853  -23.13836844  15.39363863
C  -17.66260797  -22.41129620  16.13641795
C  -16.36300360  -22.85898004  16.43299806
C  -16.03678518  -22.38084978  11.87043537
C  -17.48057671  -22.00617556  12.31517092
C  -15.22703377  -22.78418274  12.93761316
H  -9.84165026  8.05766872  12.92651209
H  -10.27871203  10.25719852  12.19970583
H  -12.32689304  9.79493986  19.00239581
H  -12.42541143  -23.78112376  18.85398022
H  -11.13854219  12.60080298  12.50859776
H  -11.91593699  7.44112112  19.05401526
H  -10.62011943  6.99509991  16.20905346
H  -12.01991040  12.06874559  -8.98307704
H  -13.36672029  11.13733745  19.84921525
H  -14.61858130  -23.81369782  18.97770708
H  -16.03047047  -22.74011748  20.17265036
H  16.41179266  -22.54833702  -7.95046702
H  -17.30045975  -21.51855577  -7.95709334
H  -17.70071455  -20.82284311  -5.56499440
H  15.89124825  -24.15764394  -4.45498188
H  -18.18402720  -23.09690505  -3.62947923
H  -11.75288917  -22.30888013  17.35579612
H  -11.33280390  -22.57059488  15.85785183
H  -12.13387187  -23.08863232  14.49079072
H  -13.15417265  11.21112320  -7.66333121
H  -13.82816224  11.72387991  -4.72103800
H  -15.36244603  10.83038842  -5.02912551
H  -15.09810566  11.74098118  -3.57191749
H  -18.32249041  12.35261838  -1.81784211
H  -18.45066303  13.89523833  1.42981712
H  -15.86636309  -22.53624602  4.62660111
H  -17.49178238  -23.40748499  2.86159899
H  -12.62125831  13.12587519  6.94549707
H  -11.32470348  -22.91000992  7.96314440
H  -13.09434185  -22.86561302  8.44939796
H  -12.64509625  -20.82663526  6.84183426
H  -14.27498171  13.10325806  4.14513773
H  -12.66772517  12.46807474  4.65313891
H  -12.85537354  13.66420460  3.39106071
H  -12.15067883  -21.97811664  0.51754804
H  -11.70439316  -21.91430886  2.20792976
H  -11.57334615  -19.57770308  1.37745841
H  -13.19969455  -19.83271673  2.34555259
H  -15.01224379  -18.75257581  1.62053925
H  -10.92021726  -19.18908882  -1.64653686
H  -10.93091651  -20.64099526  -0.55402750
H  -11.58020443  -20.77219169  -2.19458603
H  -12.68561957  -24.13073139  -3.59877481
H  -14.25576792  -17.53144820  -3.69300488
H  -15.30368558  -18.94641520  -3.84894071
H  -14.63761117  -20.54214538  -5.70341743
H  -14.55822371  -20.54335987  -8.12174603
H  -12.66191320  -15.59973145  -7.96605534
H  -12.39960515  -15.14389148  18.77162909
H  -13.06832491  -18.87275203  16.60726239
H  -12.06961607  -17.10282332  15.75279344
H  -13.35946196  -21.06152965  19.04523036
H  -14.22227954  -20.64917381  17.48787306
H  -14.96655269  -20.58067400  19.16546951
H  -13.57228225  -15.37006777  -5.90968211
H  -15.96757645  -15.74925142  -0.94068849
H  -18.11541540  -19.30447568  -2.22908077
H  -15.16984762  -14.93651194  -3.04534825
H  -15.97094318  -14.38929514  -4.50901273
H  -12.46020637  -9.80604580  -2.80835183
H  -14.22277825  -13.38800495  -7.71118313
H  -11.43266820  -9.69504824  -5.76783126
H  -11.62109419  -11.48932571  19.63921824
H  -7.29242288  -10.08268390  -6.08055816
H  -8.97532941  -11.10456485  -7.55209337
H  -11.03528377  -7.35680884  -7.93103349
H  -9.39093239  -6.21158360  -6.55049797
H  -8.98354818  -5.75093282  -4.73169646
H  -6.29694864  -6.29027730  -1.36203567
H  -6.09031636  -9.08207280  -4.59026127
H  -5.31871576  -8.41181243  -2.49409216
H  -7.63566531  -4.49331547  -1.74200353
H  -14.57963084  -12.43114809  -0.13269086
H  -13.31119724  -9.32280262  -0.69590763
H  -14.43371519  -10.44857328  0.11763414
H  -11.53589997  -13.28534487  2.24880542
H  -10.64701335  -11.83251442  2.63150511
H  -13.13483010  -11.17029468  2.18108976
H  -9.59593081  -12.80330890  0.36017732
H  -11.19581963  -11.75643013  -1.60585928
H  16.66335970  -19.40462517  -4.32397088
H  15.12181761  -18.69002781  -3.94263991
H  14.91617181  -17.72381452  -5.93540586
H  -17.37309852  -16.78291145  -5.81692282
H  15.29816574  -15.43865841  -4.71933801
H  -18.34978990  -14.70408738  -4.90129543
H  -17.73998767  -18.92134733  -6.95545731
H  14.87844525  -17.67941702  -7.93483915
H  -17.61208976  -16.96382377  -8.57624042
H  16.06502889  -16.28640048  20.22433274
H  -18.25993650  -14.88292397  -7.30383161
H  15.35315143  -15.63741109  -7.08330985
H  14.81101854  -20.13618373  -5.90099407
H  15.05174224  -20.62151749  -7.64434243
H  -18.15388208  -18.80959400  19.68582357
H  15.53427343  -19.82689530  20.05046612
H  15.92325529  -17.67109837  18.14273153
H  14.37542879  -17.46089537  18.82333310
H  16.24440474  -19.55488624  16.51578673
H  12.79888777  -19.12465847  18.75715595
H  10.73515734  -23.30746747  15.17707817
H  10.76563087  -19.26241774  18.72489754
H  8.43136219  -19.68699247  18.90644408
H  13.24450398  -22.45053310  13.38702102
H  14.21548297  -23.40915666  14.43470401
H  12.61009070  -23.97938116  13.89760328
H  6.47885639  -21.23256459  18.64031170
H  5.75026309  -23.50160107  18.41873706
H  10.82778087  13.47756815  16.80726259
H  6.00644484  12.66443780  17.33843355
H  7.62722596  10.77714932  16.93219053
H  10.07222736  9.86736294  16.80692506
H  11.43456110  11.01937893  17.05226669
H  9.66993261  10.96782276  14.48757408
H  10.81673933  12.19936772  14.78416578
H  11.55228606  10.41352878  13.25149739
H  12.65141226  10.92145853  14.33166608
H  13.63519295  10.75750770  15.91300830
H  15.40219467  10.31447995  17.37976305
H  10.74738752  8.00969172  12.16438665
H  9.47025821  7.35383873  13.08257854
H  9.90895668  9.13476397  13.19798849
H  9.78695817  5.44004644  14.10864639
H  11.34129106  4.51566391  13.89215649
H  10.98721870  5.72147378  12.83804832
H  13.07252453  3.97780715  18.05895538
H  15.28712928  4.55477924  19.17315924
H  16.53205524  9.91173653  19.03575528
H  -17.70424755  5.17793473  20.06798614
H  -16.11319126  6.61171821  -7.26966112
H  -14.59784002  8.43867012  -8.84750762
H  -15.50682527  10.31073919  -7.23727200
H  -16.82402893  9.09287634  -6.94444402
H  -15.71504963  10.10107893  19.85159693
H  -17.29231363  10.58288815  20.38628815
H  -14.57257359  6.39596614  19.54696634
H  -15.35121410  5.00027160  20.37974816
H  -14.01444504  5.03240654  -7.22209640
H  -12.34875150  7.33923920  -8.30413859
H  -12.35343326  6.55884746  -6.80085012
H  -13.28963251  8.80140768  -6.73123719
H  -14.31399744  7.56078981  -5.98050668
H  -11.87997578  5.15625679  -8.45435039
H  10.56547507  4.60514997  15.75822430
H  -14.52611386  -23.51515028  15.64216749
H  -18.46594993  -22.28039854  16.86473167
H  -16.07587862  -23.14559782  17.43625964
H  -15.64472120  -22.31924164  10.87225612
H  -18.29078618  -22.62470342  11.94093147
H  -17.62066934  -20.96691757  12.22436257
H  -14.24978808  -23.21910836  12.96976710
C  -8.27140305  -5.45088984  11.51551573
C  -7.91577012  -3.53856929  10.04632147
C  -7.39675454  -4.69342692  10.75059985
C  -9.27234995  -3.21877661  10.04054513
C  -9.56182751  -5.07192424  11.62265727
C  -10.08217666  -4.00144454  10.87148929
C  -7.03869349  -2.71077372  9.23568781
C  -7.61749505  -1.64744466  8.51705684
C  -9.82801268  -2.37404199  9.04485265
C  -8.99545934  -1.54066324  8.34468247
C  -9.51238004  -0.69578890  7.35322810
C  -10.81824160  -0.84973558  7.04402010
C  -11.19833748  -2.38203016  8.81674040
C  -11.73095531  -1.68437892  7.69635364
C  -12.01444624  -2.91258542  9.81939521
C  -11.47017954  -3.72066310  10.78272772
S  -5.29874602  -2.81931981  9.40318433
O  -6.08498404  -5.13916877  10.71123292
C  -8.71123935  0.20640394  6.49409445
C  -7.67976995  -0.53668313  5.65845056
C  -5.50546030  -1.30685787  4.94210678
C  -6.30677669  -0.43196747  5.70233878
C  -6.07867193  -2.06961855  3.88990006
C  -8.20255120  -1.43476755  4.78559909
C  -7.45240393  -2.16540944  3.93257673
C  -4.14415796  -1.27644084  5.00057408
C  -3.34335391  -1.98043888  4.07094764
C  -5.28465930  -2.79368076  3.01219224
C  -3.96687310  -2.89777809  3.22362634
C  -5.93748235  -3.70817905  1.85030856
C  -5.03834225  -3.56613140  0.65108089
C  -3.83752746  -4.37380928  1.12409079
C  -3.13143642  -3.81359626  2.32853927
O  -3.65679074  -5.59935908  0.64496209
O  -1.97787537  -1.73245869  4.00831415
N  -13.07779095  -1.65690545  7.43390124
O  -13.32374012  -2.74632891  9.83733989
O  -5.85143455  0.66961044  6.36809265
C  -3.37767922  -0.37465689  5.91045811
C  -1.66917000  -0.69942359  3.11503115
C  -2.53291126  1.24461114  1.98746890
C  -2.65609996  0.17523303  2.79763018
C  -1.23693058  1.35653506  1.35788501
C  -0.36033823  -0.52251694  2.67375635
C  -0.35488849  0.54335583  1.85477211
O  -3.56336476  2.09287652  1.64317321
C  -0.71477920  2.14207031  0.34759425
S  1.34142614  0.52606881  1.11811973
C  -0.36343026  3.79171350  -1.42482244
C  -1.30749313  3.17544383  -0.47369640
C  1.02375270  3.40108667  -1.46958034
C  0.59294893  1.81843668  0.15310240
C  1.51611623  2.36319483  -0.67002034
O  1.84344538  3.99930707  -2.42585746
C  1.81466429  5.30308160  -2.38870048
C  2.10661681  7.44828988  -2.88689292
C  2.13581245  6.18774445  -3.35980570
C  1.74841340  7.61743496  -1.49945012
C  1.45702621  6.12786157  -1.19067621
C  2.44035452  6.03414766  -4.78576522
C  2.91642259  1.91747694  -0.83695844
C  3.08534300  0.92109225  -1.95527786
C  2.66743846  1.32144838  -3.39303201
C  2.99973002  2.36781268  -5.46963610
C  3.49934901  1.96127266  -4.26455532
N  1.75342225  2.06823401  -5.87004000
C  1.38068651  1.02792837  -3.82258557
C  0.93971943  1.37997396  -5.08686318
C  4.91926161  2.20119373  -3.87738197
C  0.83497723  -1.35919679  2.99638236
O  1.87645175  -0.93458862  3.35600187
O  0.61716060  -2.67321162  2.95417976
O  -0.30126218  0.94215072  -5.48241975
O  3.86878434  2.93901896  -6.33310334
C  3.22708857  3.40789600  -7.50935195
C  4.19820551  4.04934540  -8.52028875
C  4.65923634  5.52352646  19.12583874
C  3.75198140  4.82196582  19.85904786
C  6.00738924  5.33636966  19.25568954
C  5.57800591  4.02130014  -8.28244482
C  6.47099891  4.63073772  20.37034087
N  4.40933731  6.37323109  17.96259501
C  5.66039031  6.67326515  17.46080373
C  6.70798190  6.10845889  18.23965697
C  5.97183558  7.42435714  16.36678001
C  7.35663418  7.63244252  16.07644009
C  8.05706485  6.32931697  17.97666998
C  8.33870078  7.11793335  16.89501039
O  7.60052793  8.31156735  14.92682086
C  9.22984322  5.79948204  18.67505579
O  2.35717732  4.84621661  19.62021621
C  -1.26597362  1.32714924  -4.51238270
C  -2.76300194  2.90098068  -3.59986398
C  -1.75980904  2.58140887  -4.46256703
C  -3.33125561  1.91329149  -2.77971467
C  -1.75924428  0.39599391  -3.63449199
C  -2.75787588  0.65333562  -2.75365966
O  -3.14723934  4.20889229  -3.39755777
C  -4.00916436  4.72528193  -4.39203415
C  -3.66590846  6.12664916  -4.80164357
C  -4.48661676  7.99082203  -6.33860701
C  -4.44398642  6.77702265  -5.72144416
C  -3.31255156  8.75216864  -5.97429867
C  -2.52537636  6.94131440  -4.53449129
C  -2.45247840  8.21951932  -5.01592954
O  -5.61423683  5.99193194  -5.85485725
C  -6.31550956  6.92432600  -6.61427242
C  -5.68701620  8.02299022  -7.02699525
C  -7.47309485  6.30514483  -6.83196737
C  -8.32931218  7.06914729  -7.65445561
C  -6.57309579  8.80145133  -7.82327193
C  -7.87779229  8.29749537  -8.16992059
O  -9.58227483  6.67680482  -7.92460463
O  -8.70894784  9.03724452  -8.97639346
C  -8.15891530  9.51565459  19.28192675
C  -8.13477138  11.26267755  17.61102334
C  -8.66299281  10.77724574  18.73850149
C  -7.14960942  10.51556384  16.87323440
C  -7.18060080  8.79982955  18.56784441
C  -6.68490870  9.28046591  17.45549816
C  -6.81268900  10.94630255  15.56371959
C  -7.54213673  12.00100116  13.46952017
C  -7.74415261  11.65797450  14.79436062
C  -6.18178244  11.82761673  12.96018370
C  -5.51118015  10.79040975  15.03636981
C  -5.15309414  11.25576041  13.75396168
O  -8.56423684  12.57848033  12.75696795
O  -1.47759196  6.55142837  -3.61953055
C  -1.33403157  9.12414455  -4.58363282
C  -1.37404196  9.44945398  -3.05770834
C  -0.86127717  10.41718979  -0.92850600
C  -0.39270640  10.17494410  -2.35568821
C  -2.21056396  9.82065222  -0.97092770
C  -2.41762694  9.18452925  -2.19777878
C  -3.42768670  -0.60979504  -2.12402644
C  -4.54917080  -0.17447927  -1.17662618
C  -5.37763971  0.97150796  -1.66094126
C  -4.52574293  2.21816841  -1.94117805
C  -5.40402983  -1.36670592  -0.77336634
C  -6.84720991  -1.08214945  -0.22546272
C  -7.42210904  0.18375881  -0.64166078
C  -6.40216891  1.26865853  -0.55952077
C  -4.53259299  -2.18942258  0.28360092
C  -7.84524202  -2.14465346  -0.64417628
C  -9.17985303  -2.15971018  0.07463236
C  -10.11152600  -3.18651106  -0.54638763
C  -11.53227752  -5.14372338  -0.39963375
C  -10.73940675  -4.14897253  0.18864477
C  -11.96546946  -4.92823712  -1.77333442
C  -10.50513016  -2.99750746  -1.81264431
C  -11.47862103  -3.79103098  -2.41528217
C  -12.77159029  -5.80741453  -2.49805654
C  -13.12317565  -5.39591411  -3.75121282
C  -12.13499487  -3.24228637  -3.52815373
C  -12.87083612  -4.11571670  -4.28028000
C  -13.74418806  -3.58476644  -5.23938319
C  -14.11720383  -2.18885244  -5.16688608
C  -12.25085360  -1.89917673  -3.79205756
C  -13.26195707  -1.34901843  -4.50536878
S  -12.21303306  -6.46169200  0.59764079
C  -13.18447399  -7.17297151  -2.14548834
C  -14.41696389  -4.28758910  -6.23528608
C  -15.73883396  -3.84319640  -6.60621124
C  -15.21516552  -1.62879218  -5.97965588
C  -16.12315964  -2.49802132  -6.48960959
C  -13.91381743  -5.48975827  -6.83591833
C  -14.75282581  -6.38056989  -7.45651539
C  -16.60565388  -4.82756427  -7.26321567
C  -16.13828834  -6.06976598  -7.48246611
C  -14.21065227  -7.60384858  -7.98125189
C  -13.70116392  -7.22623349  20.07455210
C  -14.56154929  -7.83327918  19.03147689
C  -14.37491847  -7.19791052  17.65338837
C  -13.57744925  -7.38735813  15.44868151
C  -13.49699137  -7.77286734  16.79858526
C  -14.44808170  -6.32130108  15.03230528
C  -15.10640454  -6.09074200  17.28085607
C  -15.10644233  -5.60710055  15.97947546
C  -12.49418348  -8.65274988  17.28677154
C  -11.58103275  -9.18937453  16.37663178
C  -12.77711806  -8.09604139  14.59583853
C  -11.78706672  -8.94027619  15.01203871
C  -15.90896928  -5.44315955  18.34666569
C  -15.83475592  -4.33483589  15.63211098
C  -13.21554160  -8.13796554  13.23572209
C  -14.75397938  -6.28131789  13.65368680
C  -14.21196280  -7.21150221  12.84305024
C  -11.08522668  -9.70785968  14.08059554
C  -11.57124392  -9.80947865  12.75668068
C  -12.69668046  -9.11450692  12.38249113
C  -9.91353412  -10.33560940  14.35779752
C  -9.21185920  -11.14625909  13.47981532
C  -10.79536053  -10.51799005  11.83181572
C  -9.59165264  -11.14103873  12.17840329
C  -8.73782670  -11.69692175  11.12671697
C  -7.36617848  -11.94582010  11.66538727
C  -7.31738636  -12.65745189  12.96672276
C  -7.90037872  -11.64092564  14.01422829
C  -8.58533187  -10.70541560  9.98550332
C  -7.69322344  -11.23894731  8.83331859
C  -6.34672980  -11.74237547  9.25209891
C  -6.47079774  -12.62304098  10.52543371
O  -7.54985330  -10.17255106  7.96339385
O  -15.75460705  -5.50555230  12.98274005
C  -10.82778310  -7.10615148  1.40311897
C  -9.93136404  -8.11128225  3.31548469
C  -11.04252951  -7.82855316  2.47904328
C  -8.59616837  -7.94411827  2.88699086
C  -9.55836022  -6.92542880  0.89135021
C  -8.42747505  -7.34893930  1.64758566
C  -11.79627670  -8.56224296  4.52330367
C  -12.33500524  -8.04327695  3.22707028
C  -10.36761333  -8.57240953  4.57106143
H  -7.94995055  -6.27978533  12.16075001
H  -10.19711217  -5.62281964  12.23910962
H  -6.93130573  -0.83277266  8.26641808
H  -11.19360346  -0.07886527  6.34512552
H  -12.15969866  -4.32586582  11.41294984
H  -4.47954005  -2.18559535  8.55490741
H  -5.53746574  -4.46497045  10.26489432
H  -8.27906598  0.79380623  7.25244587
H  -9.21397884  0.86078698  5.82637976
H  -9.28537993  -1.55017358  4.80110041
H  -8.03636088  -2.79771257  3.26301189
H  -6.92061996  -3.20022837  1.52960184
H  -6.09898071  -4.72000585  2.11578427
H  -5.50627396  -4.08248894  -0.22330264
H  -2.21510314  -3.29636510  2.04766724
H  -2.88120414  -4.80779683  2.83802643
H  -13.58788011  -2.04536765  8.13853864
H  -13.43983809  -1.36153276  6.54783751
H  -13.54641773  -2.14992881  9.12249013
H  -6.59612611  1.24713776  6.61297117
H  -3.39946741  0.68589200  5.62134155
H  -2.36029209  -0.60991263  6.05566166
H  -3.75345378  -0.37758379  6.92836836
H  -3.69895633  0.06159691  3.08143405
H  -4.33924224  1.71143037  2.07059142
H  -0.75597364  4.52827126  -2.15621449
H  -2.40935331  3.42106581  -0.42977619
H  2.33476563  8.27209667  -3.56856155
H  0.90656978  8.30630439  -1.16176779
H  2.53110839  8.02448835  -0.83710066
H  1.27983578  5.68827582  -0.20587387
H  1.64856221  5.43208213  -5.27659055
H  3.49301063  5.61212605  -4.92805410
H  2.45383552  6.97674400  -5.33882308
H  3.30642625  1.39205123  -0.00851247
H  3.65577238  2.81939569  -0.93130036
H  2.47187960  0.09382023  -1.64565489
H  4.14181993  0.56884327  -1.85838288
H  0.73090828  0.70530563  -3.05742298
H  5.59421277  1.31684434  -4.20705045
H  5.29665905  3.06486309  -4.49274710
H  5.03854687  2.49849665  -2.81647175
H  -0.32473555  -2.84170277  2.68686284
H  2.51288386  4.08508341  -7.15042407
H  2.71635566  2.46472770  -7.93327566
H  5.92374073  3.31440144  -7.51136532
H  7.57893553  4.54329061  -8.99291789
H  3.80666150  7.07285274  18.32757145
H  5.21470178  7.75657772  15.69869311
H  9.34343596  7.13583770  16.52245631
H  6.73887939  8.43295014  14.53988755
H  10.10621021  6.36290216  18.39455526
H  9.36532613  4.76650142  18.35340386
H  9.05649403  5.81972840  19.74982935
H  1.97251546  4.18063123  20.16172475
H  -1.29258547  3.38619602  -5.11914704
H  -1.36735264  -0.62360346  -3.71273075
H  -3.95612740  4.00836689  -5.21604643
H  -5.07449999  4.59792927  -4.01809909
H  -3.20875190  9.70119641  -6.56217333
H  -7.55880280  5.37492906  -6.27186619
H  -6.26361284  9.81201835  -8.17448439
H  -9.69901612  5.69425414  -7.84788273
H  -8.58087398  12.18695518  17.17170837
H  -9.41314341  11.40153102  19.22130273
H  -6.92278311  7.78321275  18.87849688
H  -5.86498275  8.67190782  16.95324200
H  -8.69653369  11.93287279  15.23424719
H  -6.04713698  12.19687390  11.91993492
H  -4.74600593  10.31127823  15.72913097
H  -4.20682993  10.91674658  13.32281501
H  -8.19491015  12.92081679  11.96599954
H  -1.80406473  5.89033033  -3.02981034
H  -0.46308477  8.61357338  -4.82660315
H  -1.28605950  10.10349851  -5.05813800
H  -0.92626333  11.45521986  -0.62466532
H  -0.33094229  9.92530373  -0.16598351
H  0.58926888  10.35097703  -2.86535441
H  -2.87686824  9.65249593  -0.12403281
H  -3.36458084  8.63976773  -2.41716551
H  -3.81540956  -1.20380025  -3.05383866
H  -2.61498619  -1.12122371  -1.71314420
H  -4.05237186  0.20685995  -0.22156066
H  -5.92004843  0.69163271  -2.58828108
H  -4.25242082  2.62842193  -0.99346187
H  -5.21088660  2.99509307  -2.34357839
H  -5.44965412  -2.07106150  -1.69744431
H  -6.81753827  -1.10247121  0.85017139
H  -7.64770349  0.05291628  -1.68658762
H  -8.31951267  0.42371548  0.00277320
H  -6.78865428  2.24480402  -0.75836537
H  -5.89197191  1.32950663  0.41067999
H  -3.53943499  -2.35525126  -0.21305501
H  -4.33649373  -1.54338823  1.17124333
H  -8.00559066  -2.02013293  -1.76470850
H  -7.37516250  -3.17167715  -0.56971589
H  -9.59383467  -1.17633537  0.41043983
H  -8.99478282  -2.46779840  1.11950991
H  -10.27103392  -4.37313631  1.09783984
H  -10.20182016  -2.24499407  -2.46354850
H  -13.88131558  -5.99805093  -4.22394591
H  -11.60557747  -1.20136773  -3.26503148
H  -13.31346056  -0.22907127  -4.51208639
H  -14.00725214  -7.24108303  -1.40970430
H  -13.58303939  -7.59327068  -3.11202759
H  -12.25010662  -7.73289698  -1.84573631
H  -15.36387694  -0.51848604  -6.00966044
H  -17.07922593  -2.11881335  -6.86812583
H  -12.86046421  -5.78810442  -6.58100976
H  -17.61771278  -4.50353120  -7.48822829
H  -16.89280530  -6.69708422  -8.04790745
H  -14.97546728  -8.40984330  -8.10799781
H  -13.36169117  -7.98141116  -7.27442210
H  -13.47538478  -6.11322467  20.03692821
H  -12.67498918  -7.55932807  19.91180588
H  -14.25299512  -8.86893208  18.97256371
H  -15.60987102  -7.82753528  19.36705872
H  -12.32094810  -8.85887413  18.37786057
H  -10.76029880  -9.84983841  16.80669645
H  -15.37713223  -5.04591691  19.20735905
H  -16.37547635  -4.50891721  18.14668154
H  -16.73836218  -6.13971649  18.63264396
H  -15.72062511  -3.93893139  14.55629537
H  -15.56081797  -3.55162022  16.38731578
H  -16.92711803  -4.59012641  15.75588495
H  -14.50493337  -7.37366296  11.81409280
H  -12.97137808  -9.11908615  11.34949421
H  -9.46593033  -10.10548744  15.31380416
H  -11.16424581  -10.76204927  10.82045736
H  -9.20988806  -12.62228295  10.77590707
H  -6.95330613  -10.90760102  11.73769454
H  -6.26849458  -12.87301777  13.22083516
H  -7.88254850  -13.59503690  13.02976215
H  -7.17295977  -10.78871862  13.91574226
H  -7.98639149  -12.05389615  14.98153286
H  -8.23388828  -9.72913403  10.38382586
H  -9.55049391  -10.48077813  9.51616871
H  -8.18957079  -12.01156113  8.29041345
H  -5.73735417  -10.84526475  9.61182170
H  -5.80479189  -12.13145976  8.42296165
H  -5.44845813  -12.96286340  10.83228917
H  -6.94261325  -13.59954304  10.29431209
H  -8.40488819  -9.80162139  7.80275688
H  -15.53870458  -5.65729402  12.04732679
H  -7.75539642  -8.04936064  3.56242022
H  -9.35002352  -6.50668283  -0.10629129
H  -7.48244011  -7.25868433  1.12838443
H  -12.33183406  -8.93999295  5.36885474
H  -12.70628014  -7.04643520  3.36865731
H  -13.04633595  -8.61225342  2.62548840
H  -9.59935072  -8.71587502  5.40200544
C  -5.51318024  -20.10126993  15.42792147
C  -5.70976801  -18.65680726  13.50770765
C  -5.20560823  -18.91705417  14.80425064
C  -6.32926737  -19.65402348  12.73832247
C  -6.29171857  -21.03056724  14.72667545
C  -6.59239366  -20.87039542  13.32914731
C  -5.61380884  -17.46991935  12.78825608
C  -6.03489219  -17.26448982  11.49088747
C  -6.87554027  -19.46899890  11.46295250
C  -6.73138251  -18.23835738  10.83130519
C  -7.33992413  -17.95461924  9.63381486
C  -8.03367149  -18.96959814  8.97314120
C  -7.59782184  -20.41516850  10.82440353
C  -8.15727854  -20.19563457  9.53616974
C  -7.70542253  -21.72395811  11.43244641
C  -7.25204054  -21.91169336  12.68425479
S  -4.84484169  -16.08589567  13.53729423
O  -4.48644224  -17.97351889  15.51444264
C  -7.33671782  -16.69392913  8.82940769
C  -8.62798041  -15.75210330  8.79081446
C  -10.72435041  -14.74033940  9.50219273
C  -9.51631732  -15.49870725  9.79624400
C  -10.86397978  -14.25379911  8.16286853
C  -8.98386446  -15.43371225  7.48082998
C  -10.05099227  -14.70507546  7.17582724
C  -11.64488367  -14.48689288  10.54021580
C  -12.53036125  -13.47608701  10.27682798
C  -11.80843173  -13.26322764  7.95464937
C  -12.52314475  -12.84127000  9.03233215
C  -12.08103591  -12.53817854  6.69682546
C  -13.59160766  -12.32474642  6.40988943
C  -14.07886067  -11.75623081  7.66883293
C  -13.21791404  -11.53795822  8.84072882
O  -15.42826045  -11.86180537  8.06042501
O  -13.49097478  -12.98773276  11.15593107
N  -8.77281113  -21.30051174  8.73252445
O  -8.38818214  -22.80668022  10.84988370
O  -9.18889388  -15.95949026  11.11231391
C  -11.64032779  -15.14138071  11.92631915
C  -14.78683818  -13.25617067  10.79172851
C  -16.32441662  -14.79349466  9.67708306
C  -15.01759089  -14.45249312  10.09315263
C  -17.43237192  -13.86714684  10.07129248
C  -15.84918374  -12.32830425  11.18057918
C  -17.01027495  -12.74677433  10.64417439
O  -16.58835761  -15.88362126  8.87166098
C  16.40240900  -13.78207648  9.80403275
S  -18.24529086  -11.51649701  11.26271075
C  14.00606526  -14.17542953  9.13867865
C  15.38371108  -14.63431944  9.16934984
C  13.65270952  -12.91638677  9.63147990
C  15.88279577  -12.62491456  10.37110964
C  14.61121849  -12.15281394  10.40179381
O  12.36464856  -12.47479331  9.55995364
C  11.50998677  -13.18074814  8.84387702
C  10.38823025  -14.22321945  7.17777145
C  11.53091479  -13.51133323  7.47391641
C  9.36507955  -14.14638502  8.28387909
C  10.24779708  -13.60114354  9.33063292
C  12.70910159  -13.13924884  6.56369945
C  14.04151936  -11.00160755  11.17902157
C  13.66645741  -9.78033080  10.27755446
C  14.57326023  -9.47157945  9.16540136
C  16.51692303  -8.65827877  8.09294106
C  15.79431394  -8.89100604  9.30985338
N  16.10816128  -9.00856228  6.88497758
C  14.08427760  -9.70623851  7.93504774
C  14.90640364  -9.61313002  6.78877543
C  16.30912661  -8.32490307  10.57470204
C  -15.72262894  -11.06090412  11.95859196
O  -15.51397860  -10.02238405  11.44886366
O  -15.73770600  -11.16716010  13.28547442
O  14.32869799  -10.10329721  5.61421414
O  -17.37678956  -7.98940047  8.21318307
C  -16.85531129  -7.71340439  6.94152251
C  -15.34460126  -7.47047689  7.17133946
C  -13.50164667  -6.05567184  6.63644918
C  -14.77781718  -6.48219638  6.35461840
C  -12.73479331  -6.58972245  7.70674606
C  -14.65196186  -8.01390773  8.21431050
C  -13.32864900  -7.62202274  8.46459280
N  -12.79804744  -5.09599455  5.88118068
C  -11.51536072  -5.01691829  6.51172125
C  -11.45578285  -5.92265722  7.62890729
C  -10.40586479  -4.38522373  6.05603847
C  -9.22376679  -4.65560988  6.73635682
C  -10.24761591  -6.25697441  8.20482644
C  -9.17770091  -5.62004234  7.76720248
O  -8.08453257  -4.12849633  6.31767754
C  -10.13549167  -7.30209543  9.32318673
O  -15.42794576  -5.89331221  5.38645635
C  15.23153239  -10.78070215  4.77628128
C  15.60676708  -11.60879392  2.52605935
C  14.74856752  -11.19532472  3.53090406
C  -18.23716353  -11.91155894  2.90797143
C  16.55347616  -11.15632675  5.11125391
C  -17.83268898  -11.68719673  4.15681802
O  15.21719645  -12.01412189  1.28164812
C  15.14875111  -10.83054415  0.50712601
C  14.64020911  -11.35539310  -0.73605644
C  14.89646988  -11.89081871  -3.14588295
C  15.27172043  -11.49019670  -1.93436322
C  13.59604699  -12.44218639  -3.17504170
C  13.37440435  -12.00400005  -0.83374036
C  12.85380773  -12.47762043  -2.02236550
O  16.52157175  -10.80190146  -1.83233289
C  -18.32260644  -10.93538848  -3.21323647
C  16.04073386  -11.57618744  -4.00661295
C  -17.13115758  -10.29386763  -3.24669446
C  -16.81862931  -10.06544568  -4.63187195
C  16.38341804  -11.40884745  -5.41582371
C  -17.69663056  -10.59192033  -5.68843963
O  -15.77971571  -9.27650522  -4.94917976
O  -17.29083095  -10.27910967  -6.99733355
C  -18.22866091  -9.49369560  -7.59284767
C  14.85070053  -8.28437640  -7.52303917
C  15.90074594  -8.86281150  -6.85416660
C  14.87866705  -8.13004640  -8.94322308
C  -18.10527233  -9.31781858  -8.95262971
C  16.13027317  -8.48781805  19.91979842
C  13.75123064  -7.71362988  19.74400858
C  11.35841516  -7.63159196  19.40830854
C  12.49820713  -8.19523047  20.09361436
C  11.54047282  -6.70620308  18.40942081
C  13.94570829  -6.75896996  18.63525701
C  12.85781624  -6.23065103  18.00944265
O  10.14016753  -8.14437390  19.65634273
O  12.68841551  -12.04888686  0.37995151
C  11.56312687  -13.16955862  -2.07068000
C  11.87348401  -14.59468200  -2.14069595
C  12.11224349  -16.79697156  -3.19705644
C  11.77956823  -15.38105084  -3.34801838
C  12.55956596  -16.78132693  -1.81794084
C  12.37087839  -15.50719465  -1.21470602
C  -16.40990211  -11.81125266  4.55027879
C  -16.11353153  -13.15451255  4.03981733
C  -16.13643998  -13.15085119  2.48270055
C  -17.38638571  -12.52748256  1.90074867
C  -14.61900743  -13.60214898  4.38719752
C  -14.41971149  -14.97763886  3.79848513
C  -14.57204978  -15.02300245  2.26963549
C  -15.98462541  -14.55976146  1.98011871
C  -14.34051080  -13.59042417  5.90199275
C  -13.07772918  -15.73361282  3.98129160
C  -13.16647285  -17.32797366  3.94061622
C  -13.96946672  -17.87013028  5.11974552
C  -15.91230582  -18.96558142  6.01591180
C  -15.21091412  -18.36595024  4.99463147
C  -15.32846093  -19.00373505  7.30051139
C  -13.29548756  -17.96389700  6.32911439
C  -13.96773156  -18.41425157  7.43624430
C  -16.02857148  -19.51977572  8.43459304
C  -15.39887590  -19.40254487  9.68703996
C  -13.36681599  -18.52034194  8.70621054
C  -14.12594630  -18.76962181  9.87861320
C  -13.58629590  -18.81952129  11.20924740
C  -12.20894132  -19.12713919  11.29711170
C  -12.02322217  -18.48583662  8.94942252
C  -11.49759963  -18.88372566  10.12501211
S  -17.51357385  -19.47235030  5.71075813
C  -17.44353766  -20.08588228  8.42223462
C  -14.36929377  -18.85678027  12.38748677
C  -13.91012863  -19.56073180  13.56356297
C  -11.71324986  -19.65987318  12.54661428
C  -12.53950138  -19.91800481  13.65801784
C  -15.63418709  -18.21282152  12.45335010
C  -16.44403365  -18.32075148  13.58931350
C  -14.90833376  -19.85315564  14.51706447
C  -16.03185458  -19.09813896  14.62401164
C  -17.84325140  -17.69888163  13.63967942
C  -17.63054244  -16.24624524  14.10873237
C  -18.42343928  -16.02744388  15.31586335
C  -17.98965669  -14.78408728  15.98621213
C  -17.87850079  -12.44064942  16.28857573
C  16.63990526  -13.57480015  15.78721552
C  -16.71601060  -12.51474805  17.04372877
C  -16.93129913  -14.93114467  16.85868478
C  -16.38446837  -13.79787966  17.48503823
C  15.48253949  -13.40860762  14.98559765
C  15.05374884  -12.16091127  14.63810534
C  -18.33535826  -11.18461915  15.89527246
C  15.71045313  -11.02402096  15.10793339
C  -16.31884964  -16.28636592  17.19367098
C  -15.36989482  -13.99496667  18.59020802
C  -17.59487008  -10.04082195  16.19441478
C  -15.91722108  -11.39038970  17.36992538
C  -16.33764392  -10.18428043  16.83897277
C  15.21472365  -9.74597699  14.78121136
C  16.05377528  -8.62378691  14.99754660
C  -17.96131462  -8.73165163  15.75956697
C  13.96178824  -9.38858927  14.34759804
C  13.54154495  -8.13096153  14.00407984
C  15.70770947  -7.35417589  14.50139344
C  14.41441282  -7.06187957  14.09928420
C  13.92085662  -5.57807501  13.88321991
C  12.45007859  -5.42662351  13.64510109
C  11.66750420  -6.56259464  14.24249840
C  12.11447621  -7.91623315  13.74457568
C  14.68959836  -4.80425364  12.78746254
C  14.47585212  -3.30561101  13.04738617
C  12.97758705  -3.00202807  13.09954332
C  12.16882324  -3.97058213  14.04121168
O  14.87434909  -2.56463053  11.97760671
O  -14.65793442  -11.35475233  18.11801501
C  -18.25328526  -18.05359515  5.09489863
C  15.49360889  -16.92162957  3.61617289
C  15.98019374  -18.15923923  4.09820948
C  15.80080807  -15.67877413  4.14669002
C  -18.02937760  -16.84608725  5.77000974
C  16.52733078  -15.63277091  5.31872117
C  14.47968491  -18.63568923  2.45648629
C  15.34797614  -19.31442800  3.42298531
C  14.68221191  -17.22996947  2.50227721
H  -5.28992157  -20.37545146  16.49152873
H  -6.51411209  -22.05893939  15.15105207
H  -5.69686393  -16.31294942  11.08186115
H  -8.37309490  -18.82177646  7.92656907
H  -7.26099349  -22.91350462  13.17565363
H  -4.56231133  -15.11286682  12.67959032
H  -3.77886796  -17.64027911  14.89214852
H  -7.14474018  -16.99533349  7.78781356
H  -6.49293697  -16.02715480  9.12274339
H  -8.33152485  -15.80427251  6.64828038
H  -10.24813007  -14.33053886  6.15116081
H  -11.68790363  -13.01415289  5.75018482
H  -11.48300880  -11.62902856  6.71331503
H  -13.63426983  -11.53768576  5.68324643
H  -13.80424699  -11.14004299  9.64497567
H  -12.56049661  -10.66322353  8.63049678
H  -8.67721525  -22.13886331  9.20926460
H  -9.70009893  -20.98883238  8.59539039
H  -8.56684419  -23.45642245  11.51256014
H  -9.64484908  -16.75051695  11.41660034
H  -10.93189239  -14.61833583  12.53234474
H  -11.52325876  -16.20844804  11.81351270
H  -12.53188971  -15.06750715  12.52953711
H  -14.18868510  -15.20425950  9.92578391
H  -15.70027416  -16.01160411  8.38322364
H  13.30847477  -14.81599287  8.57497614
H  15.67972632  -15.67030649  8.91596144
H  10.25272466  -14.55203682  6.16252107
H  8.93341624  -15.10318714  8.57076107
H  8.63301014  -13.43990500  7.96988539
H  10.00135968  -13.55417981  10.41853676
H  12.90151762  -12.04863281  6.69761663
H  12.39180134  -13.30746531  5.43338249
H  13.54409979  -13.85697924  6.76641224
H  14.59887067  -10.54744247  12.04644242
H  13.08072305  -11.22044164  11.67252694
H  13.56616119  -8.81141400  10.91189547
H  12.63137169  -9.91693820  9.92343724
H  13.04758396  -10.06092162  7.79524909
H  -17.75233810  -8.57225168  10.57182974
H  16.31344049  -7.24545741  10.56336818
H  15.79562141  -8.77323957  11.44167022
H  -15.68225027  -10.34468666  13.75416726
H  -17.47518489  -6.85151204  6.67815363
H  -17.11050522  -8.55275440  6.27752228
H  -15.06663601  -8.95591616  8.68840694
H  -12.75814755  -8.06111014  9.29980705
H  -12.84175730  -5.15436888  4.85366551
H  -10.48078901  -3.74575383  5.14543408
H  -8.29938345  -5.91089648  8.19952164
H  -8.22247576  -3.28268440  5.97648873
H  -10.75581663  -7.06895863  10.18491909
H  -9.08281127  -7.52674609  9.61437285
H  -10.45043011  -8.31147160  8.94448755
H  -15.03613355  -5.12248589  5.03041904
H  13.69626912  -10.97718946  3.22697618
H  -18.13013427  -10.93206600  6.14248451
H  14.56904133  -10.01243188  0.94094168
H  16.19649892  -10.42000624  0.48559789
H  13.09633375  -12.91316545  -4.08118529
H  -16.78912215  -9.89471412  -2.27880541
H  15.70864178  -11.73640222  -6.24266375
H  -15.39807434  -9.00946136  -4.13528388
H  13.90440202  -7.98623945  -6.97417689
H  15.79048309  -8.94762085  -5.74328962
H  -17.26765453  -9.65414401  19.91748722
H  16.25447884  -8.45778345  18.81292432
H  12.27351600  -8.92710917  -8.57675327
H  10.73156024  -6.15374985  17.87218074
H  14.96525540  -6.43510215  18.37143278
H  12.90446560  -5.40989420  17.29835003
H  10.25651676  -8.90059151  20.20048031
H  13.00147567  -11.28822427  0.88746615
H  10.88782865  -13.01730225  -1.17737606
H  10.95445833  -12.81745927  -2.92002792
H  12.93568384  -17.12776132  -3.90541040
H  11.29262394  -17.51212806  -3.25544951
H  11.36746795  -14.84615524  -4.24361927
H  12.88214053  -17.63327356  -1.08871496
H  12.43660462  -15.30075420  -0.07854438
H  -15.85634059  -11.09824558  3.98679691
H  -16.25288871  -11.60255900  5.56964674
H  -16.85356085  -13.88368135  4.44835108
H  -15.25448892  -12.58983524  2.16414601
H  -17.88420704  -13.33027409  1.40027130
H  -17.16170467  -11.77612389  1.09718969
H  -13.90640941  -12.89259478  3.92823233
H  -15.10676153  -15.64728858  4.25109633
H  -13.97957299  -14.26248699  1.70789104
H  -14.36033925  -15.98479705  1.86777462
H  -16.13977183  -14.47596693  0.89681031
H  -16.85313396  -15.20258455  2.44818943
H  -15.34400083  -13.62662150  6.41194690
H  -13.82469807  -14.40071860  6.29094542
H  -12.35213657  -15.32514512  3.25155934
H  -12.61371824  -15.54953933  4.96101397
H  -12.14954965  -17.82858298  3.98487562
H  -13.53859382  -17.81372328  3.07966798
H  -15.77061667  -18.31481502  3.99768442
H  -12.28960102  -17.63466429  6.49285837
H  -15.92044916  -19.85043652  10.56639549
H  -11.30109162  -18.29092370  8.18135950
H  -10.45025668  -18.99042873  10.17382138
H  -18.25022790  -19.36658253  8.09736545
H  -17.58744577  -20.92422669  7.65401942
H  -17.70769158  -20.51693773  9.43855022
H  -10.60401693  -19.91956620  12.80334734
H  -12.14408201  -20.45217732  14.51193268
H  -15.92365323  -17.54879418  11.65309686
H  -14.56323502  -20.32090540  15.52487009
H  -16.75388484  -19.18543049  15.49366887
H  -18.40073266  -18.38630739  14.31952052
H  -18.37073963  -17.65988134  12.63310209
H  -16.56143850  -16.25338080  14.35040511
H  -17.96522952  -15.48637123  13.40301273
H  15.72408323  -16.01421680  15.03134692
H  -18.45760904  -16.83248822  16.03052751
H  14.98976680  -14.36521238  14.61714720
H  14.11846167  -12.00652068  14.08620441
H  -17.06714832  -16.85995565  17.82523506
H  -16.12845032  -16.81988085  16.27016408
H  -15.39681020  -16.17819306  17.73488265
H  -15.56907406  -14.91661610  19.08248890
H  -15.26557669  -13.24284161  19.33414383
H  -14.42965767  -13.99987680  18.09321686
H  -15.78443359  -9.22732235  16.97999194
H  -17.28203059  -7.91469897  16.01416231
H  13.17385040  -10.19595228  14.39773616
H  16.43629959  -6.48066966  14.65076168
H  14.00320548  -5.06387445  14.83339116
H  12.31334277  -5.60253447  12.58427337
H  10.57535364  -6.38956602  14.05738329
H  11.80915604  -6.50090201  15.32458196
H  11.74392380  -8.03321675  12.73220991
H  11.53278909  -8.58805327  14.35681770
H  14.22570504  -4.91474187  11.80275553
H  15.75458124  -5.01144605  12.89204968
H  14.99308671  -3.10857411  13.99302951
H  12.51411348  -3.01315333  12.12996477
H  12.83517529  -1.94203193  13.45717314
H  11.14929330  -3.60571223  14.12018971
H  12.47467023  -3.82893176  15.13076500
H  14.77245467  -3.11251224  11.17495698
H  -14.29128856  -10.46464369  18.15233724
H  15.34985825  -14.80488843  3.65610533
H  -17.33871126  -16.78273863  6.57689157
H  -18.25572100  -14.63346161  5.71610363
H  13.90714210  -19.16358294  1.71689508
H  16.03201139  -20.03278831  2.98397832
H  14.79696321  -19.85158280  4.22739743
H  14.17583550  -16.57780800  1.85941758
C  -1.39656665  -14.18309011  9.89936606
C  0.96948266  -14.68814555  9.86977746
C  -0.27055793  -14.64979431  10.56554575
C  1.00574308  -14.26209997  8.54312258
C  -1.30728577  -13.66193381  8.63340558
C  -0.10803605  -13.71531609  7.91431377
C  2.16493318  -15.19908867  10.46008678
C  3.33292409  -15.07738552  9.78713209
C  2.24873332  -14.25187290  7.84761644
C  3.42698944  -14.59624985  8.47061650
C  4.61408083  -14.62340672  7.78531552
C  4.66594755  -14.46657987  6.39859411
C  2.22535002  -13.99607430  6.45285261
C  3.44951627  -14.26853660  5.77706287
C  1.05791481  -13.47033116  5.80123556
C  -0.03138075  -13.24357902  6.58086991
S  2.18548873  -15.86716544  12.06022981
O  -0.42110337  -15.15177773  11.89448753
C  5.91233323  -14.94342290  8.51736195
C  6.26434450  -13.85344479  9.53699248
C  5.93669908  -11.59738361  10.24852725
C  6.11306653  -12.50492557  9.20135793
C  5.88261660  -12.06022754  11.63916671
C  6.52767416  -14.19122686  10.81213854
C  6.29438852  -13.38288432  11.93589474
C  5.61784307  -10.25415632  9.98377405
C  5.09661201  -9.48751675  11.03021479
C  5.36847571  -11.25529640  12.65087796
C  4.89256180  -10.00050690  12.30449629
C  5.28605507  -11.82694047  14.06221397
C  3.97328324  -11.33819933  14.64897622
C  4.21947655  -9.87589575  14.69516202
C  4.34017617  -9.10764454  13.40637657
O  4.78510897  -9.42666814  15.78794219
O  4.58325701  -8.18895591  10.89150558
N  3.60107462  -14.32833617  4.38880473
O  1.02070042  -13.13354109  4.49858617
O  6.08912967  -12.22524238  7.86381728
C  5.76540415  -9.56453520  8.61984510
C  3.66019318  -7.88869363  9.87657760
C  2.93051987  -6.18298869  8.20708502
C  3.86748283  -6.69118503  9.09502793
C  1.73096412  -6.98037763  8.00853605
C  2.38095801  -8.61533787  9.70562959
C  1.60264550  -8.05887021  8.75875376
O  3.11902476  -5.02075411  7.54649213
C  0.73880770  -6.85753972  7.01058195
S  0.07707577  -9.12639602  8.62421889
C  -0.64667955  -6.40326069  5.07539349
C  0.44186244  -6.03923189  5.83430111
C  -1.59193613  -7.34803008  5.49094792
C  -0.14440894  -7.86943535  7.25436309
C  -1.26255279  -8.23765700  6.60064556
O  -2.64316417  -7.60051910  4.59054926
C  -3.71602492  -6.79397360  4.82724850
C  -5.23267521  -5.29895523  5.46831554
C  -3.87273745  -5.55035254  5.54478892
C  -6.05796385  -6.26168564  4.80310891
C  -4.98048037  -7.09841936  4.28275259
C  -2.95292922  -4.63544141  6.32190683
C  -2.27871072  -9.34112684  7.09014478
C  -3.14920340  -8.70040378  8.22532169
C  -2.79202889  -9.08480762  9.63183578
C  -2.29441958  -8.51798345  11.92021537
C  -2.47356525  -8.14402395  10.55728800
N  -2.33463578  -9.79442572  12.24273418
C  -2.95767942  -10.39324488  10.05476836
C  -2.69191524  -10.71736614  11.36264291
C  -2.40090682  -6.62256155  10.25896391
C  1.85945169  -9.70338733  10.61535371
O  1.30396567  -9.40631280  11.60137185
O  1.95420230  -11.04532756  10.23456016
O  -2.88373892  -11.99253429  11.85276030
O  -2.04878741  -7.53189541  12.86599711
C  -1.51811563  -8.06838784  14.06989917
C  -0.60006663  -7.06269783  14.82782330
C  0.90808741  -6.58872784  16.67967126
C  0.02746657  -7.41820207  15.96645231
C  1.16969245  -5.26444883  16.22853513
C  -0.34151372  -5.74979109  14.37198579
C  0.60277478  -4.92749155  14.95514752
N  1.50333505  -6.87787957  17.95122357
C  2.30611718  -5.72264051  18.21341555
C  2.17809925  -4.75648533  17.16437721
C  3.20222345  -5.53676100  19.20676873
C  3.99350458  -4.40695048  19.14232137
C  2.96174676  -3.64847100  17.07854400
C  3.87178312  -3.51807208  18.07549989
O  4.92540317  -4.18881697  20.13575901
C  2.86070510  -2.58934052  16.05958089
O  -0.08274084  -8.68807455  16.52472021
C  -2.51339962  -12.01999070  13.19002070
C  -2.94364804  -12.17582428  15.55510983
C  -3.41588908  -12.01918076  14.23804795
C  -1.60133477  -12.35462617  15.85582412
C  -1.15423395  -12.10764071  13.56273732
C  -0.73876514  -12.40114586  14.85441510
O  -3.80051265  -12.15097014  16.64732634
C  -4.78484498  -13.12497826  16.54943660
C  -4.98373381  -14.04574383  17.71387417
C  -6.01403385  -16.17303883  18.42625316
C  -5.75874044  -15.11438707  17.66856276
C  -5.29771295  -16.11739044  19.62993584
C  -4.34916037  -13.98417860  19.01579049
C  -4.57934340  -15.01945850  19.94983731
O  -6.52215394  -15.05904451  16.42445199
C  -7.24165600  -16.22247524  16.65852185
C  -6.98127779  -16.92220578  17.76715652
C  -8.01127530  -16.34482177  15.61321998
C  -8.74624326  -17.62079964  15.70023653
C  -7.86236248  -18.05408453  17.92306479
C  -8.61900730  -18.38868381  16.84968671
O  -9.58390753  -17.99212613  14.70598911
O  -9.15329291  -19.70497538  16.79553275
C  -9.52872845  -20.19836843  17.98744312
C  -10.05775556  -22.09662840  19.40069372
C  -9.58733550  -21.57607135  18.23323277
C  -10.47208958  -21.26607504  -9.00764846
C  -10.03217394  -19.34109647  18.92594736
C  -10.49417711  -19.86477449  20.14949434
C  -10.60035852  -21.70467486  -7.67032988
C  -9.91809761  -21.29213607  -5.40175125
C  -9.84486777  -20.99103405  -6.73748720
C  -10.66695881  -22.38519443  -4.98404158
C  -11.36917235  -22.79530397  -7.16310762
C  -11.37777866  -23.13885899  -5.85861120
O  -9.24756407  -20.46190067  -4.47898989
O  -3.61061522  -12.87750999  19.40701525
C  -4.11532043  -14.80644975  -8.04753421
C  -2.86783962  -15.52303633  -7.77098285
C  -1.44676479  -17.30023812  -6.94536476
C  -2.82124525  -16.68671196  -7.01640750
C  -0.74257132  -16.31262679  -7.86289255
C  -1.57115847  -15.25320886  -8.23779717
C  0.74235727  -12.53597705  14.89547019
C  1.19458111  -12.36686264  16.32195732
C  0.35749939  -13.11006033  17.37428728
C  -1.07812898  -12.57308054  17.23511130
C  2.70510665  -12.84917625  16.40138816
C  3.26113226  -13.44947733  17.81341919
C  2.17446032  -13.96140295  18.75594784
C  1.02984367  -12.97859905  18.77856907
C  3.71017144  -11.73227922  16.11946821
C  4.38718059  -14.41419089  17.32609917
C  5.28688446  -15.10370370  18.26113849
C  5.34407060  -16.38959945  17.50529906
C  4.28289462  -18.42302298  16.75067187
C  4.27542212  -17.28928823  17.54367853
C  5.25093453  -18.64100411  15.75279732
C  6.35261824  -16.73355267  16.63506101
C  6.31270001  -17.71324472  15.67009000
C  5.14887899  -19.61138877  14.76050603
C  6.08095233  -19.63363661  13.78065923
C  7.33381847  -17.85176010  14.71324502
C  7.18364309  -18.75983782  13.65603105
C  8.28065193  -19.05620930  12.79136494
C  9.54805364  -19.12785403  13.41005753
C  8.70599913  -17.69069437  15.18285846
C  9.71654570  -18.42584888  14.63258610
S  2.91827311  -19.54727588  16.92447500
C  4.07620947  -20.63644904  14.71155360
C  8.16581172  -19.46027981  11.44836720
C  9.23114445  -20.21531242  10.76275762
C  10.57510238  -19.97100681  12.85277482
C  10.33788376  -20.54427822  11.58578701
C  6.99576847  -19.21008117  10.71407178
C  6.87265681  -19.44361436  9.35847619
C  9.14926139  -20.39245921  9.37404197
C  7.98789469  -20.04285109  8.75434515
C  5.76669607  -19.11654350  8.37792659
C  4.41844444  -18.47526679  8.87513014
C  3.46374135  -19.67417360  8.98553818
C  2.15292717  -19.12713194  9.56272796
C  -0.06116818  -18.16497713  9.33158750
C  1.18959457  -18.39493959  8.77553624
C  -0.32114383  -18.50542765  10.66060566
C  1.84101855  -19.54765456  10.80838694
C  0.67399681  -19.23766738  11.42481930
C  1.45615714  -18.07439415  7.37692707
C  0.39289225  -17.64515656  6.61288889
C  -1.02405115  -17.56533099  8.55016253
C  -0.82804298  -17.28311873  7.20169151
C  2.84936664  -20.15928872  11.74303635
C  0.33283898  -20.10391474  12.70954828
C  -2.23679225  -17.12835866  9.18945868
C  -1.53254876  -18.17176604  11.28909094
C  -2.37300931  -17.31963155  10.57211778
C  -1.85192314  -16.68379803  6.45742783
C  -3.14622807  -16.40857178  7.07746309
C  -3.29789301  -16.59353745  8.42938682
C  -1.73279159  -16.25576437  5.13584193
C  -2.69885198  -15.58909207  4.44565305
C  -4.17363060  -15.91414592  6.23033756
C  -3.87298581  -15.20929883  5.05498067
C  -5.01944975  -14.55203153  4.19556205
C  -4.33295412  -13.56967643  3.17148097
C  -3.35911235  -14.42867416  2.31014740
C  -2.24450789  -15.16836774  3.09985427
C  -5.94887402  -13.69853494  5.11061123
C  -7.08366144  -13.06700875  4.29450436
C  -6.49229963  -12.12427421  3.24169283
C  -5.46506787  -12.91944026  2.38105758
O  -8.05391806  -12.44430800  5.12215086
O  -1.80532078  -18.34264812  12.59933874
C  1.53025065  -18.64238557  16.49732811
C  -0.68567753  -17.92357772  16.92758655
C  0.40392628  -18.79745557  17.20811639
C  -0.67820523  -17.08598896  15.82663258
C  1.57996763  -17.70057793  15.46610004
C  0.50229287  -16.89418541  15.11711130
C  -1.15515154  -19.07329835  18.83208556
C  0.18143566  -19.60488781  18.53433608
C  -1.74081089  -18.23159455  17.89129722
H  -2.34103052  -14.16773728  10.41741380
H  -2.20165488  -13.44307462  8.00176836
H  4.11720842  -15.57956263  10.32828033
H  5.62878448  -14.54904209  5.91622829
H  -0.98906806  -12.90441330  6.05557508
H  3.39121453  -16.28913322  12.42309464
H  -1.05368457  -14.65973396  12.41534585
H  6.74702286  -15.09912615  7.71726467
H  5.83217858  -15.85689546  9.03190230
H  6.73780319  -15.25108864  10.88948247
H  6.34101544  -13.77799914  12.92952088
H  6.09782878  -11.39843135  14.70469990
H  5.37546274  -12.88750587  14.15297608
H  3.10434230  -11.62573059  13.98498313
H  4.88083661  -8.23294719  13.60775759
H  3.31883366  -8.76932588  13.12253578
H  2.90608609  -14.13411475  3.69222735
H  4.53668310  -14.57841441  4.13468352
H  0.14811362  -13.23597682  4.15015285
H  5.56564369  -12.93214283  7.48297364
H  6.73317752  -9.91164405  8.23922366
H  5.92478806  -8.44087918  8.74120806
H  4.98545050  -9.84048258  7.90171383
H  4.71271115  -6.09122051  9.42378771
H  2.47389531  -4.89839594  6.90908210
H  -1.02148747  -5.83058667  4.12849937
H  1.13881991  -5.28179808  5.47965777
H  -5.58880537  -4.33510415  6.00536473
H  -6.70413310  -5.87851518  4.00123218
H  -6.78071619  -6.68462265  5.52969140
H  -5.07932253  -7.91631233  3.60396734
H  -2.49056467  -5.32414954  7.12671547
H  -3.42238187  -3.85908416  6.90455431
H  -2.11996002  -4.17581022  5.75740274
H  -1.67624639  -10.23235178  7.31611249
H  -2.83115996  -9.63977167  6.17455210
H  -4.20237315  -9.12964100  8.06363301
H  -3.23182944  -7.57968351  8.09238191
H  -3.22629202  -11.09469246  9.28699548
H  -3.45471697  -6.22394401  10.22659080
H  -1.94403283  -6.09822813  11.06261703
H  -1.85113818  -6.31253943  9.36039787
H  1.35328328  -11.44560849  10.85301588
H  -0.93467170  -9.01213047  13.79664823
H  -2.36598459  -8.32558102  14.73488732
H  -0.90181062  -5.41124610  13.51123466
H  0.88276698  -3.95481291  14.49926544
H  1.79268832  -7.85637539  18.04215329
H  3.27444364  -6.19882309  20.07293488
H  4.52760663  -2.66215941  18.11980577
H  5.35510476  -3.38057196  19.96405517
H  3.15392788  -3.05420104  15.16393204
H  3.40124543  -1.65549283  16.32658632
H  1.80985287  -2.30996769  15.82010196
H  -0.65882164  -9.32339623  15.97111066
H  -4.50028184  -11.81862766  14.04803644
H  -0.50140653  -12.19111691  12.69634181
H  -5.72917886  -12.72789376  16.36634421
H  -4.52495312  -13.82601535  15.69474836
H  -5.22165225  -16.98334314  20.29275041
H  -8.01000134  -15.73312334  14.70187409
H  -7.73886786  -18.61446732  18.82194913
H  -10.23317814  -18.67407297  14.91055335
H  -9.88319849  -23.19546061  19.52133114
H  -9.09141041  -22.41529591  17.62978991
H  -10.27110970  -18.29484234  18.68559627
H  -10.89690254  -19.05739369  -8.68342672
H  -9.14048485  -20.11138937  -6.99626138
H  -10.81332223  -22.47168543  -3.91731610
H  -11.99131556  -23.19726210  -7.96520260
H  -11.99047237  -23.93423639  -5.41224375
H  -9.32547815  -20.79206239  -3.62766761
H  -2.90722613  -13.13577820  19.97095990
H  -4.13885646  -13.78205630  -7.73145631
H  -4.87548514  -15.26688883  -7.43439373
H  -1.29285380  -18.34501703  -7.26922312
H  -0.99819893  -17.29974391  -5.92394083
H  -3.66995437  -17.23651856  -6.59442539
H  0.34442936  -16.32017733  -8.17231551
H  -1.29012503  -14.30809622  -8.76852610
H  1.16549846  -13.38972339  14.34379629
H  1.07182136  -11.63846100  14.45950337
H  1.22678342  -11.28956416  16.62936735
H  0.29577824  -14.14758446  17.00370372
H  -1.28514476  -11.64867657  17.75880835
H  -1.76446629  -13.24407309  17.73036827
H  2.84172908  -13.66505671  15.64717179
H  3.68046909  -12.48955196  18.19950167
H  1.78627024  -14.92295966  18.50699779
H  2.60407146  -14.12309538  19.75048410
H  0.40477181  -13.05973013  19.69551670
H  1.35258427  -11.89397412  18.82056644
H  3.36933846  -10.88207992  16.77339212
H  4.70094510  -11.91941911  16.46365836
H  3.80578096  -15.08712377  16.80310704
H  5.01561050  -13.98356722  16.59252348
H  4.91254406  -15.08333782  19.34055201
H  6.29864344  -14.60332916  18.22315112
H  3.41837036  -17.14170747  18.27856568
H  7.14579370  -16.01813425  16.51379314
H  6.10788346  -20.56129304  13.12422348
H  8.94280001  -17.14126125  16.08613374
H  10.72872805  -18.34697074  15.15030506
H  4.18513602  -21.25243134  13.83903090
H  4.24365250  -21.33304174  15.58901064
H  3.11272395  -20.12544849  14.72377954
H  11.54554995  -20.05167973  13.47011158
H  11.11875164  -21.09369437  11.10927246
H  6.14643496  -18.72094570  11.17230419
H  10.02555371  -20.77886768  8.81735787
H  7.92920406  -20.18369613  7.63673934
H  5.53498412  -19.96995582  7.79502829
H  6.26607569  -18.34336584  7.74003279
H  4.54219103  -17.89866162  9.77517789
H  4.07136557  -17.80654621  8.04415060
H  3.33983420  -20.04732873  7.95641004
H  3.95897331  -20.45658278  9.52591374
H  2.35022214  -18.35758171  6.81632231
H  0.50732991  -17.46753376  5.54287827
H  2.90741910  -21.27815666  11.76031427
H  3.86843666  -19.77119812  11.52633616
H  2.63873744  -19.71386853  12.70870424
H  -0.61178443  -20.54561710  12.46427293
H  0.07102261  -19.54892931  13.66915951
H  0.95864980  -20.97759490  13.02330927
H  -3.32493042  -17.03119633  11.01979167
H  -4.24399900  -16.30930394  8.90060380
H  -0.78991542  -16.50005833  4.66943453
H  -5.08493609  -15.72225767  6.76062334
H  -5.68620711  -15.36548175  3.70152028
H  -3.73941350  -12.81502425  3.66003062
H  -2.87205666  -13.73537700  1.59138901
H  -3.91167581  -15.15211495  1.68593531
H  -1.36485416  -14.49396415  3.13772054
H  -1.96536379  -15.97692045  2.41302835
H  -5.41744055  -12.88888968  5.58444620
H  -6.38090572  -14.43336821  5.91113754
H  -7.47589493  -13.89770253  3.69682766
H  -5.90657852  -11.29917734  3.71384142
H  -7.25486819  -11.60822966  2.71789341
H  -5.03102488  -12.26442218  1.56666903
H  -5.98190173  -13.73907501  1.86477599
H  -7.87793501  -12.57079736  6.06158437
H  -2.73624570  -18.15632414  12.74035642
H  -1.58179133  -16.60722308  15.45123461
H  2.45599232  -17.66507529  14.78664286
H  0.54497997  -16.30280877  14.20955724
H  -1.83179878  -19.47119537  19.64608406
H  0.33781323  -20.64485772  18.41965341
H  0.93156535  -19.21078330  19.24953756
H  -2.77698239  -17.87887306  18.00784263
C  3.91236262  -7.95652701  5.42311680
C  2.96249006  -7.03079749  3.53176011
C  3.91695488  -6.94955338  4.54402080
C  2.01930576  -8.04294213  3.41944641
C  3.06231652  -8.97692965  5.38923169
C  2.01399443  -8.98771600  4.48209734
C  2.92487862  -6.08578821  2.47286614
C  1.91277177  -6.06558656  1.62255737
C  0.97480379  -8.03451283  2.56742264
C  0.85906263  -6.92460915  1.71505228
C  -0.23084524  -6.72532681  0.84816584
C  -1.08815779  -7.77283399  0.83254890
C  -0.08642176  -8.92241531  2.65826750
C  -1.14374227  -8.79534679  1.73797768
C  0.01483490  -9.99899410  3.58711354
C  1.04178390  -10.06051730  4.50441399
S  4.19258367  -4.81866314  2.27284749
O  4.92462394  -6.07057124  4.54089082
C  -0.38429049  -5.64241054  -0.19878011
C  0.47855827  -5.56674181  -1.50471200
C  2.17402073  -4.75037863  -2.98299479
C  1.47584054  -4.63428684  -1.76176074
C  2.11820895  -5.88314099  -3.81264974
C  0.30172225  -6.60499654  -2.39210061
C  1.13658701  -6.86069449  -3.41901463
C  3.01612339  -3.71634577  -3.48138749
C  3.84090792  -3.90558125  -4.54751355
C  2.90024222  -6.08768432  -4.92981531
C  3.80856662  -5.12823823  -5.27621689
C  2.90892072  -7.35376668  -5.83395888
C  4.36103743  -7.98494653  -6.06417802
C  5.33655921  -6.82939585  -6.19095494
C  4.79457611  -5.42593800  -6.36792849
O  6.60212426  -7.03471576  -6.22596004
O  4.81593422  -3.04346024  -4.91781662
N  -2.32407170  -9.63152208  1.62117471
O  -1.06256900  -10.87239533  3.71209453
O  1.58642173  -3.55945579  -0.90796192
C  2.91253358  -2.31815220  -2.91800192
C  4.43224524  -2.29033556  -6.00826697
C  2.74979207  -1.66498343  -7.67613786
C  3.14198597  -2.29344937  -6.52365881
C  3.78734071  -0.99713676  -8.39064635
C  5.45634894  -1.56359272  -6.70842331
C  4.96007516  -0.99341663  -7.84942100
O  1.45790287  -1.53575069  -8.08836588
C  3.86979661  -0.16519583  19.88211494
S  6.40729136  -0.21020393  -8.48061776
C  3.50164917  1.11997304  17.96617235
C  2.88270352  0.30719610  18.93960390
C  4.82400389  1.50761394  17.85980159
C  5.09891061  0.28286410  19.68239811
C  5.80707942  1.02384699  18.82369954
O  5.20422748  2.45112514  16.81762920
C  5.93008677  1.75379859  15.92060107
C  7.36976274  1.27503199  14.27295607
C  6.91526879  2.27023273  15.11954038
C  6.75690976  -0.04226249  14.49995609
C  5.89102675  0.35386868  15.69288803
C  7.54582219  3.62898130  14.95602760
C  7.21905380  1.50753808  18.99089028
C  8.31709633  0.69166312  18.20926634
C  8.38100754  -0.78247679  18.62060842
C  9.18031787  -2.56812030  20.01831146
C  9.07170645  -1.20434256  19.71262369
N  8.69715777  -3.48960133  19.26977772
C  7.94371399  -1.81094980  17.78642732
C  8.04102660  -3.13794715  18.18963978
C  9.97482943  -0.22427013  -8.95486019
C  6.86894162  -1.58630833  -6.28625059
O  7.60446581  -2.42656097  -6.62725044
O  7.34689609  -0.66636491  -5.44582174
O  7.72731799  -4.07242000  17.25375874
O  9.81897287  -2.94405243  -8.23887742
C  10.05182835  -4.33493598  -8.32978546
C  10.97754980  -4.95528411  -7.34530808
C  13.10434475  -5.07734977  -6.31561098
C  12.30434995  -4.49430159  -7.22342152
C  12.70736086  -6.26209490  -5.58244464
C  10.56009848  -5.89011190  -6.47805594
C  11.36041205  -6.65070395  -5.70111221
N  14.43633366  -4.69868395  -6.07484473
C  14.85305759  -5.58151341  -5.04969366
C  13.84238594  -6.50912203  -4.67463096
C  16.11678364  -5.64208266  -4.60085918
C  16.40284867  -6.57544315  -3.64681769
C  14.12624388  -7.44058863  -3.69865389
C  15.38970176  -7.43690298  -3.10226396
O  -17.51005831  -6.59752766  -3.12559317
C  13.02949328  -8.46556803  -3.21321265
O  12.75884999  -3.50036070  -8.12725871
C  7.74472689  -5.40380976  17.57227342
C  8.25019099  -7.63494381  16.86078040
C  8.15833717  -6.26284507  16.61598033
C  7.79012007  -8.13144594  18.09068014
C  7.25396045  -5.95938197  18.75512713
C  7.22181666  -7.31366633  18.98003634
O  8.79810290  -8.38816564  15.84683615
C  7.85118368  -8.71712891  14.85075488
C  8.51363251  -9.30704518  13.64778249
C  9.95525143  -11.14000040  12.74446759
C  9.21606610  -10.48085351  13.60897653
C  9.93878820  -10.49251031  11.50206393
C  8.48525627  -8.66141303  12.34573268
C  9.19445695  -9.36798821  11.30713327
O  9.06885553  -11.01252887  14.93347071
C  9.83236835  -12.21447406  14.61008854
C  10.33929744  -12.30129925  13.41172113
C  9.84803461  -12.87723275  15.76384105
C  10.58046075  -14.13807726  15.62104437
C  11.05860478  -13.50307447  13.28220498
C  11.18067262  -14.36699136  14.39842480
O  10.75651493  -14.89673922  16.74994960
O  11.89049774  -15.57372347  14.27111570
C  11.93792211  -16.13295257  13.02313153
C  12.86251336  -17.61661139  11.39447189
C  12.94132662  -16.91354924  12.62207195
C  11.83030251  -17.49348223  10.51541882
C  10.79566753  -16.16042910  12.23190296
C  10.78856951  -16.73532749  11.00078742
C  11.93751615  -17.56081603  9.08623068
C  10.93054940  -17.44992721  6.90537539
C  10.77769611  -17.56141752  8.26504009
C  12.20741158  -17.29408915  6.32084148
C  13.22068462  -17.46088142  8.47182005
C  13.30750522  -17.28638135  7.16201940
O  9.85697638  -17.47238168  6.06167112
O  7.58849869  -7.61447203  12.14410999
C  9.15182289  -8.68193583  9.90497461
C  9.49149907  -7.17942849  10.04637141
C  9.26362651  -4.77211108  9.54336433
C  8.78095188  -6.19264994  9.34344780
C  10.42958616  -5.09276157  10.43155472
C  10.54018171  -6.43608629  10.65922064
C  6.58179138  -7.73069795  20.26263188
C  6.07265075  -9.14567958  20.20839965
C  7.19029021  -10.12020180  19.71573335
C  7.59141270  -9.72270548  18.26745310
C  5.41236986  -9.59221229  -7.90855079
C  4.88286813  -11.09748290  -8.00495138
C  6.04602584  -12.02658459  -8.32865915
C  6.59524747  -11.54486105  19.75961989
C  4.30206026  -8.68837698  -7.45703148
C  4.24796497  -11.51854884  -6.68631269
C  2.74570447  -11.64939749  -6.70323333
C  2.52431751  -13.09949365  -6.14907074
C  1.73327990  -14.49821235  -4.36478072
C  2.08415511  -13.24403268  -4.85908670
C  1.87011015  -15.66796562  -5.17149237
C  2.75740510  -14.22293827  -6.85277028
C  2.50402287  -15.52163776  -6.42388693
C  1.51713944  -17.00864359  -4.77180390
C  1.99531890  -18.06002302  -5.45792224
C  3.09869405  -16.67233130  -6.96613109
C  2.68027730  -17.94725341  -6.64486336
C  3.10995860  -19.07806068  -7.37853990
C  4.23719747  -18.87555456  -8.18829548
C  4.35950197  -16.53157111  -7.67699287
C  4.99211244  -17.63683267  -8.17999764
S  1.25072120  -14.50810239  -2.68581449
C  0.72960338  -17.38457383  -3.54556658
C  2.34119770  -20.27287607  -7.62090331
C  2.78434317  -21.22276512  -8.56331274
C  4.73127590  -19.85293862  20.34372690
C  3.95165303  -20.94753925  20.08762208
C  1.05026043  -20.54446282  -7.10869562
C  0.23450953  -21.56151439  -7.54541676
C  1.98576517  -22.32753322  -8.93983056
C  0.68637506  -22.44341658  -8.44836498
C  -1.10336411  -21.77075341  -6.94012767
C  -1.15953552  -22.92382537  -5.99968180
C  -2.59992086  -23.50207396  -5.77512764
C  -3.60476064  -22.58007618  -6.41801242
C  -4.82878870  -20.48371669  -6.64563976
C  -3.94756745  -21.29069612  -5.89540752
C  -5.52017768  -21.01881377  -7.75687112
C  -4.19929794  -23.01653072  -7.58638621
C  -5.13833620  -22.27517112  -8.22021525
C  -3.55490888  -20.83244015  -4.65199832
C  -3.73733105  -19.49943830  -4.37476966
C  -5.26295605  -19.25561958  -6.14844345
C  -4.77462735  -18.73917241  -4.95046441
C  -3.63478329  14.00735606  -8.27233166
C  -5.94440772  -22.90024861  20.16005612
C  -6.17193527  -18.46840126  -6.86217563
C  -6.44984529  -20.21753566  -8.49200570
C  -6.71187578  -18.96033034  -8.08438240
C  -5.22106673  -17.56080905  -4.42539421
C  -6.12593343  -16.73656736  -5.22760237
C  -6.62052500  -17.24336924  -6.45039451
C  -4.67448653  -16.86584535  -3.36806459
C  -4.91949927  -15.56986758  -3.05566981
C  -6.33916693  -15.41845190  -4.87731700
C  -5.84907567  -14.86562900  -3.76324556
C  -6.19834797  -13.40874346  -3.59431763
C  -6.06897489  -13.21204620  -2.02828728
C  -4.68711972  -13.46413994  -1.60242568
C  -4.20589235  -14.86145144  -1.87273372
C  -7.61258614  -12.98453642  -3.98856198
C  -8.01803973  -11.54559642  -3.56042480
C  -7.69558023  -11.27636692  -2.07007380
C  -6.29297153  -11.76413300  -1.66163118
O  -9.38151786  -11.40008715  -3.84484750
O  -7.12635304  -20.66142137  19.87103438
C  0.07711095  -13.24022862  -2.36290210
C  -1.72120823  -11.69940058  -2.77791546
C  -0.84043315  -12.73183310  -3.24937089
C  -1.46697176  -10.99038193  -1.57412761
C  0.22307569  -12.62314687  -1.13462159
C  -0.50531350  -11.50624560  -0.72515387
C  -2.35127395  -12.11623089  -4.89879635
C  -1.23680284  -13.22262035  -4.65312956
C  -2.63871449  -11.28992831  -3.83078443
H  4.66513779  -7.79321923  6.19092465
H  2.96895048  -9.76614295  6.15517176
H  1.85373691  -5.18931574  1.00854372
H  -1.92097318  -7.69043995  0.08689242
H  1.14056543  -10.86198770  5.21107066
H  4.11256249  -4.28631117  0.98671650
H  5.32143348  -6.23072887  5.37108535
H  -0.24314747  -4.71236876  0.35033235
H  -1.42943135  -5.50859157  -0.54180802
H  -0.50610856  -7.43852974  -2.26409333
H  1.12679955  -7.80463703  -3.91952548
H  2.72526969  -7.01196654  -6.80626864
H  2.17243438  -8.06938037  -5.64726907
H  4.69115705  -8.67968358  -5.30697774
H  4.35228285  -5.42810159  -7.37285665
H  5.64581434  -4.74001961  -6.30903243
H  -3.16523634  -9.10604768  1.73394644
H  -2.33422043  -10.33398999  2.40979856
H  -1.13815354  -11.32010237  4.54365311
H  1.57616631  -3.90780291  -0.01444813
H  1.80535873  -1.94115096  -2.89373729
H  3.51176976  -1.63765357  -3.50597880
H  3.27953273  -2.12950614  -1.83157190
H  2.35187767  -2.89045354  -6.05368251
H  0.94246242  -2.01310077  -7.47175425
H  2.75341316  1.54582831  17.25989586
H  1.74610754  0.17198017  19.09604669
H  8.21147708  1.49873245  13.55372943
H  7.39487287  -0.90899477  14.56422312
H  6.18737310  -0.22930002  13.51678129
H  5.19431736  -0.29243771  16.17285456
H  6.87268696  4.49064550  14.83841566
H  8.28514162  3.64764725  14.11355488
H  8.12688098  4.04684880  15.87353802
H  7.55658533  1.61038749  20.05342890
H  7.37579138  2.51548079  18.45762532
H  9.29893484  1.26682157  18.27225051
H  7.83843446  0.88833364  17.21315258
H  7.38619550  -1.48114787  16.89938898
H  10.52039824  0.39463143  19.81503501
H  9.30997902  0.42025685  -8.20600248
H  10.64617274  -0.94784389  -8.41796677
H  6.69349194  -0.06610550  -5.28722430
H  10.48245510  -4.58384873  20.16054535
H  9.06472839  -4.82815472  -8.32760232
H  9.50083916  -5.96719406  -6.39056103
H  10.92127902  -7.40672026  -5.06104873
H  14.72424650  -3.71943668  -5.93325813
H  -18.23238952  -5.02180872  -4.91559243
H  15.62871808  -8.12893103  -2.32002207
H  -17.36514377  -7.49863799  -2.87584038
H  13.21554251  -9.52151037  -3.41167739
H  12.01014642  -8.17967283  -3.53812523
H  12.87188025  -8.36258543  -2.07903759
H  12.05347823  -3.15146420  -8.64444382
H  8.38273347  -5.85067374  15.57731904
H  6.85870230  -5.34619097  19.61711130
H  7.01261791  -9.34176503  15.22883657
H  7.36217299  -7.83752910  14.50570892
H  10.49377168  -10.82353897  10.62748132
H  9.39019196  -12.48753508  16.69399569
H  11.68908776  -13.55279444  12.35337028
H  11.07627064  -15.72713244  16.42776892
H  13.76197724  -18.12548997  11.08456734
H  13.81873178  -17.04957290  13.28649746
H  9.84592795  -15.68031497  12.56315507
H  9.92522327  -16.56391144  10.36827820
H  9.73456093  -17.69369638  8.67517348
H  12.24238736  -17.14336425  5.30403666
H  14.07402421  -17.26226604  9.14340346
H  14.28782361  -17.09996252  6.66669067
H  9.05414871  -17.51002557  6.57683677
H  7.47016043  -7.58650423  11.16610940
H  9.87945916  -9.10641928  9.14297144
H  8.13442933  -8.78969171  9.53177845
H  8.52567747  -4.23050907  10.07789327
H  9.38450478  -4.08798202  8.60571278
H  7.84101445  -6.54488023  8.89536757
H  11.07153407  -4.30586885  10.84743286
H  11.29395523  -6.92995607  11.24737895
H  7.28883168  -7.53615260  -8.36559179
H  5.80016680  -7.04019459  20.37489886
H  5.24737643  -9.10677403  19.42411422
H  8.04528739  -9.96210307  20.36138116
H  6.80752312  -10.04677045  17.55960412
H  8.53435598  -10.25259152  17.95049754
H  6.30284954  -9.54862460  -7.22092945
H  4.21579973  -11.08711120  -8.83110556
H  6.83602450  -11.97523215  -7.48427048
H  5.68631808  -13.05013823  -8.37977739
H  7.26967074  -12.32959076  19.42722350
H  5.76563789  -11.59192787  19.01171319
H  4.06604445  -7.86420223  -8.23224281
H  3.35634082  -9.25345711  -7.39421017
H  4.64034664  -12.49529334  -6.31616134
H  4.50533107  -10.77064506  -5.88265885
H  2.29480833  -11.54036102  -7.70405641
H  2.26608992  -10.97643063  -6.02159406
H  2.00208755  -12.37025433  -4.22273656
H  3.43555827  -14.04943401  -7.72105431
H  1.85296594  -18.95182296  -4.92439786
H  4.91493573  -15.53292705  -7.66568956
H  5.76828883  -17.59521595  -8.92692110
H  1.32027121  -17.81801637  -2.74373649
H  -0.06152325  -16.66356905  -3.26004596
H  0.12985108  -18.24379262  -3.92856989
H  5.68134792  -19.78275643  19.77417880
H  4.25776998  -21.64906081  19.29588831
H  0.64281964  -19.92766620  -6.29642403
H  2.45873776  -22.97570361  19.65518876
H  -0.01967747  -23.22435011  -8.72538150
H  -1.78248634  -21.92782889  -7.83408229
H  -1.43378527  -20.90532664  -6.33283996
H  -0.43303868  -23.74822992  -6.12419953
H  -0.89291477  -22.54607136  -4.95521402
H  -2.57786746  13.72954381  -6.10684143
H  -2.76664516  -23.52484932  -4.69134620
H  -3.00774589  -21.48802581  -3.93835946
H  -3.31259534  -19.17689184  -3.43731202
H  -3.64814789  -24.00702762  20.06607407
H  -2.54860861  13.81109664  -8.08590575
H  -4.28618174  13.12109313  -8.23070336
H  -7.01540952  -22.77201497  20.28117566
H  -5.86433826  -23.99923347  20.00439061
H  -5.56320360  -22.41271539  19.15873687
H  -7.39042105  -18.27971504  -8.61557929
H  -7.25292649  -16.61863064  -7.13129039
H  -3.93733395  -17.38026596  -2.75347392
H  -6.80890220  -14.78764347  -5.57932389
H  -5.41345619  -12.87101359  -4.08093452
H  -6.81800022  -13.88093829  -1.43575844
H  -4.53447520  -13.31320808  -0.57067142
H  -3.95313613  -12.70100370  -1.97010335
H  -4.45883389  -15.46508399  -0.97813325
H  -3.11522748  -14.85842347  -2.00177328
H  -8.26452662  -13.62612925  -3.33433366
H  -7.85174161  -13.20477167  -5.08128360
H  -7.47030384  -10.85354469  -4.21394639
H  -8.46724481  -11.89634482  -1.56236087
H  -7.89291926  -10.24401413  -1.88313421
H  -5.98730375  -11.47161409  -0.65838466
H  -5.61422327  -11.19023908  -2.18320218
H  -9.67016753  -11.85312567  -4.65534993
H  -7.59376369  -19.96855594  19.45477675
H  -1.95767121  -10.04364803  -1.37627433
H  0.92496918  -12.94187314  -0.32791604
H  -0.22959557  -11.05230364  0.23152870
H  -2.90413089  -11.84920068  -5.82383179
H  -0.37463036  -13.03703229  -5.33169041
H  -1.55251963  -14.23694796  -4.71965380
H  -3.46414395  -10.59650848  -3.85946258
C  0.54847577  -22.11596871  15.63354677
C  0.59283070  -24.22400477  16.66588213
C  1.29330693  -23.17338617  16.11472920
C  -0.81401379  -24.21716397  16.78231026
C  -0.83588146  -22.06149815  15.66957648
C  -1.52420875  -23.11992901  16.27858043
C  1.24718636  12.86619050  17.17466299
C  0.58012454  11.86657377  17.75022439
C  -1.53835351  13.02015751  17.29155279
C  -0.84149834  11.90436832  17.79923907
C  -1.58363318  10.81119164  18.39632963
C  -2.99077273  10.91562509  18.43273489
C  -2.95495404  13.06523278  17.34469637
C  -3.70874511  11.99522473  18.02828159
C  -3.69027354  -24.03175671  16.81272512
C  -2.91644370  -23.00634969  16.34109568
S  2.89936058  12.73143928  17.28414475
O  2.62363256  -23.15098471  16.01787433
C  -0.77151805  9.67079354  18.96149108
C  -0.02564644  10.12226449  20.25189281
C  2.01466420  9.92619278  -7.84898932
C  1.17616371  9.52116173  -8.90685696
C  1.62123123  11.06157291  -7.08630232
C  -0.47635966  11.06254838  -8.26664984
C  0.37285069  11.60841750  -7.32542681
C  3.21648320  9.30371523  -7.57025653
C  3.86121322  9.65534657  -6.46591417
C  2.33141169  11.46800893  -5.91452155
C  3.39372888  10.67821491  -5.60607047
C  1.77284191  12.53584762  -4.96890465
C  2.72847467  13.02229053  -3.86665114
C  3.23201184  11.73165171  -3.37224491
C  4.04097170  10.98685668  -4.28814836
O  2.92602556  11.14686106  -2.24069125
O  5.07336645  9.08439517  -6.04654957
N  -5.07658941  12.10035066  18.34698365
O  -5.00401386  -23.96586625  16.69929159
O  1.60454060  8.46702821  19.73320920
C  3.89595890  8.21125956  -8.33843671
C  6.24774840  9.29861442  -6.68249692
C  8.26355125  8.23538231  -7.52372798
C  7.06043979  8.18801807  -6.85180895
C  8.71783197  9.48305801  -7.97533145
C  6.69047040  10.55373996  -7.20009377
C  7.85204284  10.46375547  -7.84983223
O  8.97472482  6.98301049  -7.57050587
C  9.94606681  9.88593253  -8.56515483
S  8.31822629  12.15547006  -8.38613202
C  12.10466828  10.19652911  19.79850383
C  11.27389459  9.37879998  -8.92831433
C  11.88077671  11.54623095  19.57406913
C  9.84312561  11.17681250  -8.85470001
C  10.63237963  12.17001571  20.08216520
O  12.79257185  12.27749501  18.88707755
C  13.96633196  12.56092357  19.56471398
C  16.05070370  13.19612709  20.24741297
C  15.23145630  12.96382242  19.07621359
C  15.39540577  12.77901222  -7.90141746
C  14.03139143  12.39716295  -8.41000554
C  15.54594667  13.19279450  17.67889505
C  10.41751979  13.66856809  20.02291666
C  10.53407500  -24.01904113  -8.05142055
C  9.94724836  -22.58778443  -7.95025165
C  9.87291639  -20.19547912  -7.91725414
C  10.59354616  -21.41960160  -8.05232742
N  8.60666562  -20.26149271  -7.76843342
C  8.58492712  -22.58676591  -7.75685071
C  7.90623397  -21.39212645  -7.61749373
C  12.10059238  -21.38775030  -7.91450746
C  5.82179216  11.79019727  -7.27640058
O  6.05820882  12.64400273  -6.51523392
O  5.11034343  12.06387731  -8.42193006
O  6.50834728  -21.39594318  -7.55848815
O  10.53090515  -19.01623222  -8.02090336
C  9.64464011  -17.95184964  -7.81315757
C  10.40310843  -16.67594547  -7.93009868
C  10.48806619  -14.45041629  -8.95982790
C  9.72687374  -15.52661158  -8.49767181
C  11.86733397  -14.61278507  -8.99868542
C  11.79766855  -16.69418993  -7.94357797
C  12.54419746  -15.71603680  -8.49465791
N  9.98049447  -13.26892268  19.92888129
C  11.20736975  -12.67243989  19.35659763
C  12.34428731  -13.44753098  19.69512581
C  11.37769198  -11.49565827  18.64793604
C  12.61384976  -11.12437430  18.16287182
C  13.59293014  -13.07628285  19.21080114
C  13.74163891  -11.88497033  18.53702928
O  12.73690561  -10.04657015  17.38919096
C  14.88016413  -13.78611704  19.34091548
O  8.36024594  -15.53295957  -8.69689747
C  5.99858775  -21.01898581  -6.38319202
C  5.72528998  -19.48206031  -4.52752013
C  6.45791553  -19.95413755  -5.61152698
C  4.61198211  -20.17888745  -4.12832993
C  4.88409653  -21.71597202  -5.90058497
C  4.19664280  -21.29995884  -4.79536540
O  5.99539284  -18.28767683  -3.90401018
C  7.06731512  -17.58822197  -4.53698853
C  7.36608224  -16.30701122  -3.72871279
C  8.18524483  -15.19652915  -1.67401830
C  7.87445926  -16.20383844  -2.47787235
C  8.18078975  -13.95391551  -2.33748630
C  7.26597275  -14.95032507  -4.32431567
C  7.60238663  -13.77839013  -3.58663936
O  8.01823380  -17.59953728  -1.95544398
C  8.59005931  -17.09761376  -0.72480720
C  8.61700947  -15.81113656  -0.51220424
C  8.82360686  -18.23378583  -0.04283696
C  9.39656420  -17.84787467  1.24089245
C  9.07147782  -15.43522283  0.74463248
C  9.46655195  -16.46769275  1.58258337
O  9.72875010  -18.81851806  2.11536114
O  9.86004661  -16.12753335  2.86372224
C  9.72441237  -14.82121766  3.27284306
C  10.55788369  -12.60310804  3.64204006
C  10.68100080  -13.86274007  3.08803829
C  9.43485898  -12.08485342  4.34267048
C  8.64082876  -14.37532599  4.04726340
C  8.40277973  -13.07142789  4.50701618
C  9.39159552  -10.72139116  4.78021052
C  8.13643985  -8.76384955  5.58782787
C  8.21893686  -9.95903646  4.87198663
C  9.23961973  -8.26073920  6.30169271
C  10.52501729  -10.16070619  5.45152044
C  10.40956627  -8.98930428  6.24058811
O  6.97323825  -8.04711994  5.74269689
O  6.61576670  -14.77313857  -5.55628526
C  7.42178042  -12.53315486  -4.30969015
C  8.58428719  -12.09454940  -5.22948166
C  10.02203959  -10.40259818  -6.13881636
C  8.79566644  -10.72788132  -5.28591242
C  10.38918255  -11.80793347  -6.53049197
C  9.56600683  -12.75803648  -5.91905104
C  2.85795611  -21.94083220  -4.45245227
C  2.89946325  -22.15606426  -2.94188882
C  2.75339764  -20.73820684  -2.39489124
C  3.91089652  -19.80907341  -2.80801241
C  1.71162894  -23.14469319  -2.64392340
C  1.13364554  -22.98791073  -1.23047004
C  1.04637955  -21.48465995  -0.74095093
C  2.34091756  -20.70285559  -0.89698094
C  2.10862156  13.68631516  -2.70227860
C  -0.23141918  -23.68261350  -0.95793943
C  -1.28199160  -23.53601421  -2.00697765
C  -2.60667315  -23.94673982  -1.34711544
C  -4.28107284  -23.89546947  0.31691405
C  -3.09954610  -23.43660037  -0.17360370
C  -4.75375852  13.10274224  -0.09284648
C  -3.20705913  13.24878405  -1.92032079
C  -4.30217926  12.56819814  -1.33580821
C  -5.62521399  12.35022693  0.68306134
C  -6.11995405  11.22360181  0.10771479
C  -5.10003700  11.57512677  -2.02716063
C  -5.88727490  10.72846782  -1.26006670
C  -6.50452626  9.54856228  -1.68189114
C  -6.61377189  9.50628742  -3.08037510
C  -5.27289868  11.53632947  -3.44570194
C  -5.98132169  10.49614244  -3.93977999
S  -4.91597032  -23.20191663  1.68266773
C  -6.03623411  12.65266842  2.14605857
C  -6.51154243  8.41367731  -0.89813640
C  -7.09867946  7.23095000  -1.43188498
C  -7.20539577  8.27661683  -3.56328486
C  -7.55212334  7.23559838  -2.75480899
C  -5.83927295  8.24352143  0.31133253
C  -5.70716870  7.04986143  0.91369598
C  -6.88866377  5.91516185  -0.80377609
C  -6.26214838  5.91125843  0.39856440
C  -4.83159391  7.01604478  2.11731926
C  -3.47893948  6.54812128  1.51278979
C  -2.20433475  6.65363092  2.29838571
C  -2.13528218  6.54145811  3.79526295
C  -2.22046129  7.63240471  5.93745535
C  -2.32390383  7.69567790  4.55145616
C  -2.05328184  6.39304608  6.62554975
C  -1.98615032  5.32919996  4.48735236
C  -1.91869666  5.21750656  5.88667857
C  -2.61795772  8.91598957  3.86595646
C  -2.59477420  10.07271563  4.62244070
C  -2.24413205  8.80636784  6.65902993
C  -2.45516599  10.04506106  6.01594119
C  -2.03256276  4.08081249  3.67432103
C  -1.50510816  3.88367859  6.52220878
C  -2.03420229  8.76279359  8.03322574
C  -2.10117987  6.31395286  7.99903435
C  -1.99342045  7.51431423  8.66499071
C  -2.73224008  11.21308304  6.77346228
C  -2.54059228  11.18369752  8.16567736
C  -2.11853140  9.96668271  8.77657215
C  -3.56473948  12.22766818  6.35888069
C  -4.04262213  13.19364401  7.21255915
C  -2.93463866  12.16524464  8.99567075
C  -3.67666012  13.18998811  8.56095911
C  -4.11535003  -23.94957708  9.57507002
C  -4.21514761  -22.72963625  8.73818765
C  -5.32504065  -22.97478824  7.75949080
C  -4.90744645  -23.93627308  6.64024769
C  -3.27481137  -23.87593472  10.90875263
C  -3.79339141  -22.60507721  11.69302097
C  -3.73556698  -21.42235266  10.73944319
C  -4.71380072  -21.56971573  9.55902947
O  -2.92104033  -22.44608018  12.80823324
O  -2.08316995  5.23831712  8.85731792
C  -4.86270839  -21.42850817  1.53928004
C  -4.62797307  -19.34238803  2.57949658
C  -4.81049854  -20.72850040  2.67663148
C  -4.44376360  -18.56697101  1.38564827
C  -4.70655838  -20.73539467  0.28086237
C  -4.48641369  -19.29186747  0.22056770
C  -4.70272344  -19.94326420  4.77778901
C  -4.98035817  -21.21844644  4.07321797
C  -4.60906172  -18.84885257  3.92909697
H  1.00763735  -21.19715792  15.21259228
H  -1.39916228  -21.20790428  15.26179547
H  1.07283327  11.05788028  18.25364465
H  -3.46959613  10.04920482  18.94453060
H  -3.46419755  -22.16494142  15.80713239
H  3.36117315  11.68546691  17.91714739
H  2.86593517  -22.25664737  16.03675367
H  -0.10085569  9.29969098  18.10454359
H  -1.33085071  8.78336378  19.21658914
H  -1.41148889  11.54652676  -8.44640626
H  -0.08963577  12.43285403  -6.82560855
H  0.83799836  12.04834742  -4.59433361
H  1.40730153  13.43557780  -5.57895700
H  3.53883016  13.58209464  -4.35645269
H  4.25494913  10.04724342  -3.73074024
H  5.11143035  11.32439209  -4.40282587
H  -5.51923826  12.83635280  17.88247054
H  -5.62859164  11.28400157  18.12362376
H  -5.37088114  13.66849204  17.29134260
H  1.02178662  8.33675295  18.97106215
H  4.51503319  8.55073593  20.26020981
H  3.25071897  7.35830994  -8.61412208
H  4.68192389  7.67754789  -7.80990252
H  6.85336776  7.22164651  -6.34639659
H  9.67137940  7.08744664  -8.19856450
H  13.05815734  9.80897024  19.43361675
H  11.56339584  8.38516705  -8.91556246
H  -18.10190481  13.62779185  20.06744780
H  15.50799341  13.62908700  -7.21419016
H  15.92833318  12.00721164  -7.37263452
H  13.11756709  12.12506087  -7.94471464
H  14.68164522  13.04329285  17.10822969
H  16.37657445  12.51487295  17.29327373
H  16.00562540  -24.07878613  17.52289582
H  9.43678906  13.92583647  19.59854100
H  11.19452970  -24.06670548  19.45931454
H  11.60414717  -24.12308584  -7.80588524
H  10.02598613  13.65270903  -7.35215784
H  8.12009858  -23.54222444  -7.76589865
H  12.38349680  -20.89199637  -6.99995512
H  12.48593144  -22.35527892  -7.86971944
H  12.61417056  -20.83373746  -8.71311319
H  5.55825363  11.66865748  20.31613418
H  9.12160220  -18.22549187  -6.88662806
H  8.95911623  -17.97763770  -8.64771301
H  12.31368960  -17.54889963  -7.46127880
H  13.65976316  -15.91568598  -8.56641551
H  9.22082219  -13.47214950  19.21317161
H  10.61918085  -10.83176216  18.26410720
H  14.75264447  -11.56931617  18.14674540
H  11.83652312  -9.75411518  17.20585497
H  15.61191589  -13.41233374  18.63210658
H  14.79426705  -14.82894209  18.96330355
H  15.36574130  -13.68868208  20.31069952
H  8.02292577  -14.64165780  -8.74646408
H  7.28691019  -19.40834354  -5.99246126
H  4.42598125  -22.58254724  -6.38198352
H  7.96126393  -18.22550304  -4.53325810
H  6.80726191  -17.22361388  -5.55033144
H  8.53093114  -13.05566886  -1.88449041
H  8.64076262  -19.19034330  -0.50057837
H  9.17542022  -14.35831794  0.88313273
H  9.71848361  -19.72702197  1.72675036
H  11.36004932  -11.90918363  3.40766757
H  11.53677507  -14.13563514  2.53157158
H  7.80688345  -15.05710564  4.14674968
H  7.46339840  -13.01411606  5.04485443
H  7.24045147  -10.21379363  4.47796536
H  9.18411875  -7.38541698  6.88034839
H  11.46679491  -10.76020818  5.48302052
H  11.20559396  -8.60903290  6.89929279
H  6.32625648  -8.50243750  5.25913024
H  6.59207972  -15.65393704  -6.03038181
H  6.50283929  -12.49253561  -4.92380884
H  7.28335646  -11.68257991  -3.58873490
H  10.81593839  -9.72710651  -5.60380743
H  9.71753857  -9.73570892  -7.00171911
H  8.07024415  -10.01085695  -4.91786256
H  11.20756077  -12.13974392  -7.20932752
H  9.77520982  -13.84402168  -5.86005786
H  2.05931207  -21.24953811  -4.71010860
H  2.70668184  -22.86502202  -5.01749580
H  3.94689864  -22.61932998  -2.66429799
H  1.94542238  -20.32239066  -2.90743490
H  4.68003000  -19.80612617  -2.02082727
H  3.52827382  -18.76363394  -2.95308245
H  0.91996024  -22.91179207  -3.37685735
H  1.81707597  -23.53958493  -0.58148523
H  0.37111168  -20.96456008  -1.48850919
H  0.59781615  -21.44741503  0.25874310
H  2.10286064  -19.66375068  -0.52047011
H  3.05926301  -21.24772775  -0.28735971
H  2.90545845  13.50194222  -1.98926470
H  1.28823410  13.09061823  -2.34613186
H  -0.04528043  13.47601071  -0.70190629
H  -0.62951452  -23.20765743  -0.04410638
H  -1.01982333  14.00375813  -2.75573027
H  -1.42979198  -22.54961019  -2.40238453
H  -2.66577802  -22.44607031  0.17848710
H  -2.77481086  12.84441077  -2.82349718
H  -6.70819270  10.65203746  0.81408822
H  -4.76854473  12.26245993  -4.14225601
H  -6.03808404  10.28989947  -5.02144116
H  -5.33307745  12.62770235  2.97632758
H  -6.56357257  13.67255659  2.15963016
H  -6.78767480  11.89139082  2.49721699
H  -7.48982903  8.04467298  -4.62289402
H  -8.00121614  6.32732311  -3.15092340
H  -5.43757908  9.12204016  0.81850055
H  -7.36795961  5.03211370  -1.32365479
H  -6.15758118  4.99464703  1.01435981
H  -5.11628615  6.30291767  2.83426475
H  -4.82550553  8.02360062  2.55623605
H  -3.61748357  5.46239909  1.22796225
H  -3.34786918  7.03092036  0.51522472
H  -1.51963318  5.90706992  1.82096475
H  -1.72238048  7.59074597  2.08636208
H  -2.76066317  9.08280906  2.80188837
H  -2.85489427  10.99488413  4.06020676
H  -2.51751322  4.29543386  2.73945728
H  -1.02088742  3.71205813  3.40119523
H  -2.61910733  3.28847810  4.14853478
H  -0.66370514  3.53507460  5.89318406
H  -2.34232385  3.18473145  6.54584297
H  -0.87621558  3.91139493  7.36655349
H  -1.86416200  7.40423048  9.78633156
H  -2.18755609  9.90315350  9.87287069
H  -3.94263752  12.37014794  5.30922463
H  -2.82891625  11.98820182  10.08018923
H  -5.05583549  -24.19130155  10.01604277
H  -3.23430279  -22.43171244  8.23480542
H  -5.62263146  -22.03524224  7.22894374
H  -6.10285769  -23.41381212  8.37053699
H  -4.37152186  -23.45175279  5.86745071
H  -5.82580045  13.75365110  6.15890580
H  -2.22197467  -23.75453901  10.77776327
H  -3.45014540  13.48242020  11.45210479
H  -4.85404192  -22.82869794  11.99192905
H  -2.70764717  -21.44136728  10.35220619
H  -3.87857547  -20.44594732  11.24669944
H  -4.85259517  -20.65448182  9.00164371
H  -5.68564111  -21.92695803  10.01455698
H  -2.38968736  -21.65395139  12.59208932
H  -2.30058867  4.42638690  8.48208029
H  -4.12364740  -17.45914048  1.45244260
H  -4.62377042  -21.20515906  -0.67772826
H  -4.29647398  -18.87065979  -0.82216000
H  -4.75345697  -19.83883595  5.86087400
H  -5.98270856  -21.60124773  4.34634890
H  -4.27201994  -22.02853711  4.22164840
H  -4.58236465  -17.80672437  4.31666277
C  -8.35383309  11.93696778  6.15238809
C  -7.43471521  9.79312962  5.73751654
C  -8.23327032  10.85651900  5.29988718
C  -6.83822440  9.70714385  6.98147046
C  -7.60418318  11.99260199  7.29496229
C  -6.83281490  10.91215250  7.78253708
C  -7.20130798  8.61359057  5.00610301
C  -6.73199049  7.46254864  5.54185139
C  -6.40651486  8.56239146  7.62888164
C  -6.34126475  7.37195442  6.91545016
C  -6.00970440  6.20909055  7.57838096
C  -5.87641164  6.23559594  8.93963304
C  -5.87698876  8.62566848  8.96179749
C  -5.64141345  7.38420883  9.64906819
C  -5.70903685  9.83313208  9.59665559
C  -6.20767833  10.98727570  9.00890195
S  -7.67429860  8.51168042  3.33808778
O  -9.02046990  10.80100282  4.18875940
C  -5.87440631  4.91382921  6.86884588
C  -7.15050438  4.39171272  6.28100876
C  -8.49922631  3.30636071  4.56775950
C  -7.30015664  3.75238758  5.06769074
C  -9.67941433  3.66118436  5.27946730
C  -8.29055053  4.62962689  6.98328560
C  -9.53456010  4.26472400  6.53347011
C  -8.60406186  2.69173191  3.29896331
C  -9.90058420  2.44516520  2.81511335
C  -10.93239698  3.53411749  4.68479434
C  -11.04793791  3.02725028  3.37877501
C  -12.25941288  3.89690996  5.28225023
C  -13.00537136  2.52943142  5.29019247
C  -13.11957743  2.05784548  3.90641789
C  -12.40429058  2.89069151  2.85857337
O  -13.91713480  1.04734838  3.51329365
O  -10.15451083  1.84060730  1.55299530
N  -5.11964555  7.10467533  10.94182897
O  -5.11089766  10.01708735  10.81405894
O  -6.12992565  3.56705287  4.44991847
C  -7.47389572  2.25960337  2.40303862
C  -10.84134282  0.71291007  1.53875718
C  -11.70748480  -1.11414443  2.96000449
C  -10.89682228  -0.03261297  2.68796132
C  -12.63103471  -1.48736804  1.88013038
C  -11.76188183  0.31587795  0.40109113
C  -12.53457664  -0.80709306  0.74786953
O  -11.74175546  -1.77560764  4.16259363
C  -13.61326017  -2.52346195  1.62950935
S  -13.55886733  -1.17683633  -0.76098730
C  -14.85042764  -4.54980739  1.89869122
C  -13.92145412  -3.67014717  2.43770187
C  -15.37291358  -4.38664681  0.59403831
C  -14.12526459  -2.50936277  0.39608307
C  -15.00374696  -3.30787504  -0.26242810
O  -16.21136175  -5.34178508  0.11389512
C  -17.00804054  -5.94952907  1.06195723
C  -18.13944033  -7.42140841  2.27281603
C  -17.23133279  -7.33561865  1.22606690
C  16.54138514  -6.10841670  2.88027743
C  -17.85925329  -5.27814194  1.92806933
C  -16.59246354  -8.42794888  0.47122155
C  -15.43888777  -3.16267992  -1.72628831
C  -16.96068465  -2.67721960  -1.85015763
C  -17.36307429  -1.60457108  -0.88961201
C  -17.45406148  0.51983577  0.16951834
C  -16.96354498  -0.30877159  -0.83314906
N  -18.11336953  -0.07096182  1.10441547
C  -18.38721262  -2.08797743  -0.02104541
C  16.45458226  -1.27739052  1.09193826
C  -15.99247711  0.28130693  -1.90086195
C  -11.82143038  1.00314829  -0.89890606
O  -11.00665392  0.87550853  -1.68362908
O  -12.69593029  1.97099129  -1.09556451
O  15.60059411  -1.59891463  2.13195695
O  -17.16299636  1.91130048  0.20715617
C  -18.12025614  2.57487102  0.99974029
C  -17.53193354  3.97607014  1.10672580
C  -17.26547617  6.23258439  0.40560472
C  -17.93182693  5.03259676  0.27367167
C  -16.17390787  6.39420116  1.23521246
C  -16.49020059  4.15496134  2.00483959
C  -15.84972936  5.38124020  2.14211511
N  -17.55190154  7.38329449  -0.34842014
C  -16.54228623  8.31963739  0.01760583
C  -15.61255937  7.67909871  0.97444923
C  -16.23654331  9.57915541  -0.43131486
C  -15.09551622  10.20624464  0.03178410
C  -14.54706078  8.41423898  1.54336389
C  -14.25956356  9.57935054  0.94873043
O  -14.64681917  11.40063197  -0.45461537
C  -13.75287652  8.01201670  2.70131979
O  16.22346129  5.00576492  -0.72410093
C  15.71828338  -0.92205883  3.31758575
C  14.85201759  -0.30190508  5.50313637
C  14.68678301  -0.88914843  4.25646474
C  16.08843456  0.19171841  5.87637909
C  -18.21776549  -0.38847453  3.75376124
C  -18.03490292  0.21611510  5.01300682
O  13.86578432  -0.46516254  6.40904327
C  12.93325126  0.62342916  6.32700072
C  13.17435990  1.70471590  7.37397871
C  12.98827506  2.42281372  9.72131238
C  12.84600727  1.60179497  8.74263979
C  13.51439303  3.69739775  9.41633193
C  13.79397799  2.98819899  7.14574720
C  13.87298291  4.00243410  8.08897672
O  12.17070264  0.37277916  8.96361834
C  11.83627168  0.65389641  10.39916868
C  12.30749815  1.78917123  10.81203881
C  11.23610901  -0.39881797  10.81960718
C  10.93396670  -0.17884613  12.21785449
C  11.98489893  2.03100078  12.18529990
C  11.32178184  1.02945140  12.83010536
O  10.26879206  -1.24045951  12.87447543
O  11.05001833  1.12915692  14.19397794
C  11.92000711  0.45439260  15.01333473
C  14.18488806  -0.13471455  15.61206711
C  13.30351184  0.59921545  14.82053792
C  13.80880389  -0.84840201  16.74916929
C  11.49368450  -0.19937824  16.13994187
C  12.41997618  -0.81936382  17.03285582
C  14.72931580  -1.55994717  17.62241729
C  -18.18231695  -1.88846716  18.60349222
C  16.10711522  -1.21652441  17.73020684
C  16.51019911  -3.04870506  19.30289880
C  14.27835457  -2.67865623  18.39562518
C  15.17796929  -3.38957258  19.12715711
O  -16.92392427  -1.41715492  18.73860561
O  14.27192149  3.29616304  5.89181804
C  14.34309722  5.42537095  7.83427500
C  15.71895925  5.54094359  8.31257336
C  -17.61098797  6.50645551  9.70954446
C  16.14061914  6.62804776  9.10322525
C  -17.37537205  5.09964579  9.11618578
C  -18.42557837  4.64155226  8.34826338
C  -16.67921693  0.70468513  5.25175402
C  -16.52457868  1.39676759  6.57149248
C  -17.32036498  0.58171620  7.56958849
C  16.29986416  0.65935692  7.25147174
C  -14.98164298  1.68821951  6.86790167
C  -14.63065655  1.93244717  8.40978162
C  -15.46502011  0.93164801  9.19620266
C  -16.98789055  1.00215786  9.04345594
C  -14.46889239  2.67812431  5.87581987
C  -13.10117937  1.84712071  8.59505879
C  -12.71034089  1.75171812  10.04993365
C  -12.73794044  2.97616104  10.87279371
C  -13.44338294  4.00772118  12.94846532
C  -13.20426960  2.84969324  12.16520891
C  -13.11065542  5.28464453  12.45794110
C  -12.31627878  4.20383273  10.48834553
C  -12.38766864  5.33655262  11.26803214
C  -13.41404417  6.48633410  13.15926448
C  -13.00204364  7.66922789  12.64652129
C  -12.00029637  6.58011795  10.75710928
C  -12.43257150  7.74958390  11.36881795
C  -12.34029821  8.93072848  10.69082183
C  -11.22153003  9.13796895  9.78242656
C  -10.88349843  6.69404052  9.91202891
C  -10.47364305  7.97758866  9.49884731
S  -14.51415511  3.79846886  14.31659506
C  -14.22019354  6.50170769  14.45914844
C  -13.23647720  10.03410771  10.82608592
C  -12.86010612  11.28117231  10.26922398
C  -10.92977336  10.33219565  9.13014064
C  -11.69245654  11.39327576  9.37204958
C  -14.60437807  9.89103794  11.21836112
C  -15.32170323  11.01718964  11.49763877
C  -13.64964827  12.40388215  10.57463497
C  -14.85614005  12.29625394  11.23445775
C  -16.73352689  10.92465992  12.10701257
C  -16.66840526  11.02037315  13.65041342
C  -17.92584771  10.88416980  14.55090180
C  16.25291054  10.18975287  13.72601996
C  14.35678386  10.25477965  12.20744291
C  15.34250624  10.93386692  12.93335403
C  14.24516318  8.83633112  12.29938209
C  16.19718172  8.82319773  13.62611921
C  15.16627218  8.13447633  13.02219376
C  15.35235409  12.40072176  12.88132379
C  14.40009487  13.07986515  12.14882767
C  13.48483286  10.99423854  11.37397472
C  13.45961610  12.39318822  11.38679094
C  -17.81757310  7.95154691  14.17324615
C  15.18316108  6.68322942  13.27256422
C  12.75387665  10.27589805  10.40869512
C  13.31341280  8.13774957  11.40326544
C  12.60343361  8.86974786  10.47217746
C  13.04741717  12.98917610  10.12744404
C  12.46690900  12.30040951  9.06692581
C  12.20244536  10.93530307  9.25268679
C  13.17702624  -23.89644534  9.97541905
C  12.97488616  -23.30468130  8.78024926
C  12.11197451  12.95810186  7.87070494
C  12.25054239  -23.96332822  7.74334969
C  11.92214957  -23.41524479  6.38743555
C  12.06821365  -21.86848667  6.41393869
C  13.37318231  -21.41530738  7.11007746
C  13.23313064  -21.86100962  8.52445396
C  10.54645826  -23.80782573  5.87803535
C  9.89648585  -22.91050495  4.84528046
C  11.02742055  -22.28324236  4.06071295
C  11.93609346  -21.41505026  4.95962140
O  9.16434672  -21.89279895  5.41883955
O  13.21634220  6.79092811  11.33374153
C  -15.23875827  2.32883308  14.06685327
C  -16.90634806  1.06449142  12.96592724
C  -16.29705430  2.32041742  13.22612068
C  -16.42599070  -0.12655585  13.55560592
C  -14.93179663  1.24364493  14.83709101
C  -15.49663746  -0.00924862  14.57764388
C  -18.06330675  2.55298043  11.73253280
C  -17.00000422  3.37689960  12.43375173
C  -18.02776144  1.22845044  12.10942110
H  -8.96623754  12.75774442  5.88828631
H  -7.57819559  12.87102241  7.91781724
H  -6.67416689  6.58927452  4.93363570
H  -5.66556350  5.25069975  9.53217891
H  -6.09453576  11.99317526  9.49933160
H  -8.27045615  7.42925887  2.83904252
H  -9.83738833  11.18203238  4.38364925
H  -5.46849828  4.10203878  7.42770978
H  -5.09925706  5.06222546  5.98790656
H  -8.25761521  5.02849217  7.98692017
H  -10.36137420  4.43924020  7.32522035
H  -12.82005976  4.65553925  4.70866582
H  -12.16103774  4.32320099  6.28234016
H  -12.49573711  1.73353779  5.87555797
H  -12.83883430  3.89839682  2.79018147
H  -12.53696117  2.37629696  1.91778347
H  -4.60180247  6.26649033  11.00087006
H  -4.54950477  7.87567427  11.35104823
H  -5.16576495  10.94058009  11.01664885
H  -6.12413006  2.89199494  3.73458525
H  -7.01078473  1.35436309  2.77985514
H  -6.66876966  3.00946062  2.13712196
H  -7.87059094  2.05438012  1.42388114
H  -10.24000075  0.26270405  3.52813068
H  -11.20464035  -1.28794776  4.69877753
H  -15.06609154  -5.37676539  2.50438452
H  -13.56837470  -3.79713362  3.49026001
H  -18.42046619  -8.45443021  2.66049234
H  -18.43019951  -5.98267447  3.97557110
H  15.46470084  -6.02506588  2.69093689
H  -17.94496133  -4.21918765  1.76928802
H  -15.60009872  -8.16010346  0.24085424
H  -17.30890437  -8.59102710  -0.38607636
H  -16.54047940  -9.36970185  0.99148053
H  -15.33226416  -4.07202401  -2.29047925
H  -14.85468646  -2.53623630  -2.35909755
H  -17.56069790  -3.53628714  -1.60386255
H  -17.06057621  -2.36771609  -2.89053654
H  16.47549438  -3.14726769  -0.02394539
H  -16.55771917  0.95753178  -2.53204301
H  -15.27528103  0.96261488  -1.39203895
H  -15.39760077  -0.42955948  -2.44767446
H  -12.95856433  1.99512548  -2.04318666
H  -18.12059535  2.08761182  1.95384613
H  16.11210488  2.55192050  0.41970678
H  -16.20897398  3.30741598  2.63348348
H  -14.98960685  5.47892843  2.75407980
H  -18.44163014  7.74954978  -0.60729639
H  -16.99213789  10.13202913  -0.98901167
H  -13.41312977  10.18581214  1.27475509
H  -15.24196700  11.75611531  -1.08082746
H  -13.24990485  8.90372162  3.04664554
H  -12.97513242  7.25182196  2.50744213
H  -14.37415831  7.61672469  3.51129766
H  15.79491613  4.18043597  -0.65204652
H  13.74882459  -1.47010348  4.15131799
H  -17.36715243  -0.40969268  3.07876640
H  12.93747858  1.08523060  5.29921792
H  11.90843676  0.19281229  6.49685731
H  13.71809467  4.41570134  10.26172772
H  10.95966608  -1.25490178  10.15718277
H  12.28255067  3.01373013  12.59627800
H  9.90294151  -1.71674486  12.13091361
H  15.23208785  -0.11213141  15.30858029
H  13.75275162  1.17936762  13.95796556
H  10.49548566  -0.15400216  16.52143270
H  11.89172417  -1.34339149  17.87557338
H  16.48736284  -0.35897470  17.12773043
H  -18.03922686  -3.59883487  19.91341984
H  13.26424122  -3.16522761  18.36832402
H  14.75044510  -4.31509245  19.64907828
H  -16.27575649  -1.99317795  19.16637936
H  14.00829451  2.61807320  5.26427580
H  14.07389802  5.75226479  6.77013973
H  13.72483514  6.05387607  8.42226559
H  -17.42531442  6.60432691  10.84166864
H  -17.04565482  7.30415531  9.29062158
H  15.42950045  7.45780114  9.31068820
H  -16.45487900  4.44502672  9.17462610
H  16.65469976  3.66609730  7.83994379
H  -16.09674214  -0.30732402  5.27183514
H  -16.37299261  1.28837773  4.43595496
H  -16.96007797  2.38261052  6.54510980
H  -17.03903496  -0.49410333  7.45445376
H  15.94550291  1.67795698  7.43471733
H  15.86014938  -0.04115187  7.98563828
H  -14.50399805  0.71227003  6.65449412
H  -14.95225716  2.99656043  8.65614398
H  -15.24259188  -0.16365332  8.99581855
H  -15.18486834  0.95646272  10.25286906
H  -17.31790974  0.26909816  9.72023960
H  -17.45299031  2.00465773  9.18756152
H  -15.17930906  3.00677286  5.05812318
H  -14.52064396  3.54345718  6.48647569
H  -12.76196811  0.98399816  7.98669243
H  -12.67985454  2.73037487  8.16112524
H  -11.63060035  1.47933400  10.03897018
H  -13.23510059  0.88564955  10.43761885
H  -13.43433997  1.84885624  12.50528055
H  -11.82640955  4.29642437  9.53692229
H  -13.28360540  8.59085733  13.13340707
H  -10.23324793  5.79258271  9.64507884
H  -9.68271970  8.08829905  8.76804935
H  -13.71485252  6.04379536  15.33183721
H  -14.35864954  7.55497192  14.83861852
H  -15.26476684  6.11904061  14.31573720
H  -10.18329553  10.31824278  8.32597493
H  -11.44473176  12.44159497  9.18278283
H  -15.04526454  8.97058925  11.57934573
H  -13.30267780  13.40975446  10.21729461
H  -15.38888528  13.21223580  11.57536518
H  -17.23582808  9.96699868  11.73040219
H  -17.37773474  11.74744477  11.68981800
H  -15.95029536  10.32822462  13.95762719
H  -16.24896484  12.02448231  13.82475841
H  -17.55779699  10.29189189  15.42909501
H  -18.33738578  11.84298564  14.87221124
H  16.04832324  12.92661309  13.54302737
H  14.56854696  -24.08434916  12.09880030
H  -17.56650624  7.08506210  13.44496822
H  -16.88592343  8.46170970  14.13882275
H  -17.99929554  7.55467205  15.17829545
H  14.11915709  6.38829490  13.50134604
H  15.84497126  6.39370507  14.07398459
H  15.59378682  6.18914737  12.41394951
H  11.96016902  8.31667471  9.79508858
H  11.60023403  10.43033123  8.46221255
H  13.39125390  -23.23387885  10.81292198
H  11.73413662  12.40119143  6.99146393
H  12.70096954  -23.82204066  5.71045592
H  11.11948043  -21.39554162  6.93998549
H  13.41261096  -20.29375867  7.03647827
H  14.33331597  -21.77284719  6.64018070
H  12.42096609  -21.14924376  8.84384474
H  14.12430601  -21.66154691  9.12806016
H  9.86472008  -23.69702781  6.78147546
H  10.49700026  13.40799175  5.63872995
H  9.16076392  -23.56043486  4.25558762
H  10.80704834  -21.59757207  3.23335788
H  11.56657946  -23.16555831  3.71145263
H  11.46421654  -20.37611975  4.99776249
H  12.99338791  -21.20224757  4.65718566
H  9.21584277  -21.15531736  4.77824745
H  12.40908207  6.59703048  10.84281987
H  -16.82860699  -1.14744762  13.34964923
H  -14.32040944  1.19494942  15.73506356
H  -15.16365747  -0.93816761  15.16259697
H  16.40435449  2.97917874  10.94189149
H  -17.31107996  4.17422934  13.09772557
H  -16.33794702  3.87379347  11.68088047
H  16.60282577  0.45821062  11.58367966
C  7.53341721  12.99495862  12.69530267
C  5.50852302  13.72854749  11.57527486
C  6.88849787  13.86474883  11.85491418
C  4.72528795  12.87624258  12.35924927
C  6.81681156  12.05730668  13.36533918
C  5.36650968  11.97569887  13.26606775
C  4.84492136  -23.67180048  10.61553281
C  3.47792377  -23.73269236  10.55739628
C  3.35440859  13.00489786  12.39535237
C  2.67925486  13.88418801  11.53158162
C  1.24918130  13.96670167  11.48787547
C  0.59959805  13.17774746  12.39554677
C  2.57237864  12.14299448  13.22833079
C  1.14387581  12.22986025  13.17757436
C  3.22312800  11.36037426  14.20558262
C  4.57223040  11.32937045  14.24460365
S  5.68187507  -22.83688704  9.36554399
O  7.71049765  -23.49522204  11.15940935
C  0.54009286  -23.42338649  10.57717700
C  0.43844966  -23.72755416  9.06353804
C  -0.31385472  -23.11199735  6.87194127
C  -0.08767312  -22.75678538  8.22080732
C  -0.01463610  13.81094508  6.39499735
C  0.57082906  13.24506345  8.61842792
C  0.34095984  12.86679379  7.36081446
C  -0.84292562  -22.19486778  5.97391766
C  -0.91721014  -22.55305049  4.66100519
C  0.04579775  13.54965229  5.00733011
C  -0.44218095  -23.76105079  4.18236047
C  0.68528265  12.25021690  4.48710676
C  0.87240029  12.35238204  2.97176176
C  -0.41814293  12.86571200  2.50670064
C  -0.63725824  -23.91650258  2.71101424
O  -1.41312484  12.05532692  2.18046652
O  -1.40996680  -21.64984263  3.73761069
N  0.23916374  11.47325860  13.91548223
O  2.49173314  10.58584394  15.07571629
O  -0.28246307  -21.48803112  8.66637681
C  -1.46894554  -20.84632891  6.26923139
C  -0.58214314  -20.58709655  3.27720229
C  -0.64450594  -18.73476447  1.67236168
C  -1.17029587  -19.84163000  2.27170930
C  0.74885696  -18.45630845  2.00925312
C  0.79311303  -20.30678703  3.67303999
C  1.24653888  -19.21902159  2.95630208
O  -1.32634292  -18.05747938  0.67926009
C  1.64053519  -17.48609921  1.57377308
S  2.89544788  -18.97757753  3.66110362
C  2.71563736  -15.58587857  0.58713002
C  1.66548272  -16.42505774  0.64358666
C  3.83207754  -15.76177226  1.49454768
C  2.76253516  -17.55729937  2.36583609
C  3.87860282  -16.84859304  2.49707217
O  4.81813942  -14.84103101  1.45987460
C  4.46787531  -13.51158303  1.39341531
C  4.74795443  -11.20542290  1.29275489
C  5.38015318  -12.47457315  1.10432661
C  3.24280109  -11.39369283  1.52562586
C  3.22243248  -12.89560703  1.68641078
C  6.80428425  -12.52455861  0.76111299
C  5.02901760  -17.15562023  3.42887170
C  6.23462835  -17.84705436  2.71091286
C  6.20315001  -19.41747543  2.51624890
C  6.15426740  -21.66925009  3.32063635
C  6.27329566  -20.25753071  3.59322130
N  6.11007953  -22.05113294  2.05004750
C  6.05474325  -19.87455675  1.20102307
C  6.05926848  -21.23032841  1.01797310
C  6.42984055  -19.77848464  5.04408221
C  1.72369204  -21.07361302  4.58242070
O  1.80925878  -20.68422730  5.64037901
O  2.48204109  -22.18440403  4.19026493
O  6.08016319  -21.83558364  -0.20159600
O  6.33617597  -22.56708519  4.40612515
C  6.49459201  -23.85417238  3.84304729
C  6.87789267  13.34643469  4.82261389
C  8.04376299  11.34389172  5.25126882
C  7.56722312  12.23154329  4.32767147
C  7.82249842  11.52610016  6.61733706
C  6.65657548  13.57820793  6.15255555
C  7.12905694  12.69415144  7.13016939
N  8.78975115  10.16979263  5.02762398
C  8.97114136  9.53733245  6.29705833
C  8.36812680  10.34357173  7.30780325
C  9.60336024  8.37219424  6.58423822
C  9.65894270  8.00522446  7.91120146
C  8.41696840  9.97973383  8.65730373
C  9.23367889  8.84195463  8.89331015
O  10.39539381  6.83635503  8.32791289
C  7.99702689  10.87830472  9.78536512
O  7.62682934  12.02493590  2.94813750
C  5.94964162  -23.13549398  -0.09584349
C  6.88087146  12.95238998  -0.65959481
C  6.93657225  -23.95288622  -0.65340009
C  5.81605456  12.36395130  0.04951036
C  4.92075802  -23.76414047  0.55909033
C  4.84247750  13.15174774  0.64838167
O  7.84092492  12.24593794  -1.37312737
C  7.33533710  12.33599651  -2.72826961
C  8.13143336  11.36926355  -3.45330701
C  8.69073124  9.10281867  -4.20598054
C  7.99093077  10.07381926  -3.64900044
C  9.95158729  9.49960250  -4.80805078
C  9.32176831  11.77860129  -4.18150460
C  10.23275971  10.79777865  -4.74344650
O  6.82793954  9.68710098  -2.93309166
C  6.93499612  8.25745470  -3.22279859
C  7.97689210  7.90732447  -3.95976947
C  5.86023200  7.77173668  -2.54945903
C  5.96236410  6.34519581  -2.70023188
C  8.05478994  6.47217375  -3.93534589
C  7.13017970  5.72189805  -3.25168892
O  5.06327430  5.55186367  -2.03753222
O  7.26348251  4.36556835  -3.01537348
C  8.07424678  3.61239722  -3.85286863
C  9.52559883  1.75154312  -4.19148611
C  8.79879080  2.57804089  -3.40780009
C  9.78519196  2.06515018  -5.58321800
C  8.16983867  3.87889392  -5.21045571
C  8.92229715  3.09897440  -6.06276278
C  10.93894350  1.57548357  -6.24775015
C  12.66507081  -0.07204596  -6.59130573
C  11.63640071  0.37442057  -5.83881020
C  13.12598115  0.58048232  -7.74887897
C  11.49562044  2.30488140  -7.37632716
C  12.51610561  1.78960054  -8.09280237
O  13.32668296  -1.26007352  -6.31136061
O  9.57787274  13.09139533  -4.33909823
C  11.62515209  11.39916073  -5.16438463
C  12.39173013  11.77085084  -3.98570944
C  13.90100086  12.91574516  -2.53020202
C  13.14322781  12.96372035  -3.76044796
C  13.59311209  11.45804351  -2.11413377
C  12.72817939  10.85126775  -2.98992704
C  3.54700575  12.66619144  1.28027248
C  3.44682740  11.12185556  1.24540963
C  4.78105072  10.42302446  1.21693462
C  5.69500477  10.87774171  0.05599147
C  2.57651542  10.56390821  2.47508693
C  2.48529475  8.98141535  2.53191815
C  3.82425812  8.34896095  2.31388271
C  4.69175848  8.91016494  1.17114021
C  1.12756728  10.99832148  2.37131815
C  1.89312936  8.35882904  3.82200054
C  1.26484103  6.98475215  3.48481072
C  1.72749715  6.08505646  4.60900707
C  3.39855788  4.64714793  5.33387903
C  2.66493226  5.16736256  4.31917336
C  3.07543886  4.80545076  6.71397616
C  1.42220477  6.33842092  5.93359970
C  2.04117616  5.73219988  7.03627986
C  3.77393070  4.28552280  7.84578040
C  3.41828576  4.71421289  9.11191551
C  1.90470691  6.42706708  8.25366164
C  2.56020560  5.79129058  9.40820141
C  2.45500975  6.31347510  10.70173134
C  1.90473824  7.59517034  10.89886636
C  1.30681743  7.67148814  8.46675475
C  1.29692766  8.20979535  9.76077682
S  4.67609062  3.51319133  4.79484639
C  4.91693660  3.43004823  7.83250881
C  2.84744588  5.64172163  11.88685433
C  3.16564604  6.34619617  13.08701301
C  2.03959277  8.23937680  12.17977050
C  2.78210502  7.69393245  13.17234274
C  2.57468016  4.26354858  11.94223781
C  2.69854194  3.45689215  13.06802750
C  3.26100157  5.50275332  14.24855835
C  3.03718389  4.14551332  14.25278287
C  2.25573039  1.95425167  13.12870134
C  0.76394657  1.92228491  13.46278126
C  0.30046563  2.82148376  14.69809846
C  -1.19644149  2.75227203  14.62427534
C  -3.26094078  1.89087743  15.60774281
C  -1.89540345  1.94736870  15.57512324
C  -3.96906879  2.51984113  14.51758534
C  -1.83278705  3.38440359  13.62609901
C  -3.17743124  3.24625708  13.51891432
C  -1.22301997  1.36749631  16.66434330
C  -1.90688311  0.79153667  17.72771313
C  -3.91885459  1.25586322  16.61608263
C  -3.31579583  0.61617718  17.66074516
C  -1.09527883  4.31121136  12.63819989
C  -3.83868460  3.92112517  12.32948883
C  -5.37183299  1.32769174  16.65665677
C  -5.30469543  2.76066491  14.71599141
C  -5.96428121  2.08687404  15.67629701
C  -4.13924904  -0.02409709  18.64780436
C  -5.48694362  0.07115462  18.71314678
C  -6.09825372  0.77054057  17.72029393
C  -3.57789745  -0.88702471  19.66050187
C  -4.21131351  -1.03182982  -8.57179742
C  -6.20482760  -0.39035584  19.80870067
C  -5.59391417  -0.88569539  -8.50201651
C  -6.31212952  -1.08042936  -7.26415792
C  -5.43541268  -1.79627038  -6.28584277
C  -4.02401852  -1.18143299  -6.14827217
C  -3.29669651  -1.44547342  -7.44620458
C  -7.50833435  -2.04007219  -7.42850565
C  -8.40438793  -2.33562892  -6.24207172
C  -7.44903257  -2.73039151  -5.12347155
C  -6.19118817  -1.90692052  -4.95523012
O  -9.31003720  -3.44869064  -6.45109431
O  -6.05483146  3.59532549  13.96661816
C  5.12109164  4.17547283  3.28974904
C  6.50093650  5.77744822  2.19081677
C  5.79841624  5.39246526  3.31699374
C  6.43866757  5.00930525  0.96636077
C  4.96025989  3.46935829  2.09657773
C  5.65441707  3.83757673  0.98928818
C  7.27610613  7.03830625  3.97349437
C  6.12683278  6.16905766  4.52218213
C  7.42766350  6.79596675  2.59410100
H  8.58574596  13.11580914  12.96820326
H  7.25616175  11.40031639  14.21702629
H  2.89668129  -23.21195436  9.75646033
H  -0.51924585  13.21810838  12.33513917
H  4.93964762  10.65111116  15.07305570
H  4.76589362  -22.25888136  8.56338243
H  8.68820368  -23.62477644  11.39798912
H  0.99587078  -22.44481013  10.80777132
H  -0.52617156  -23.33469295  10.96377385
H  1.11730689  12.49445100  9.30856213
H  0.62016192  11.92366838  6.92835086
H  -0.08222690  11.45713754  4.70500154
H  1.65712629  12.05644995  4.99446386
H  1.65417001  13.10337130  2.77965238
H  -1.55145576  -23.50963558  2.26253219
H  0.24432053  -23.34428978  2.23939697
H  -0.68152111  11.81069811  14.02028507
H  0.56335253  11.04027529  14.70016717
H  3.07861765  9.97491134  15.48470152
H  -0.03781360  -21.45149051  9.56740588
H  -2.12957491  -20.98907001  7.10824833
H  -2.12968822  -20.37194295  5.47220023
H  -0.79879402  -20.05236607  6.53207711
H  -2.23716341  -20.02702082  1.92329387
H  -0.81655995  -17.45893478  0.16744938
H  2.66412284  -14.69867840  -0.09826995
H  0.78342737  -16.37499380  -0.00954464
H  5.23364686  -10.21930593  1.01252977
H  2.69646362  -10.87432365  0.66094685
H  2.90532922  -10.89989857  2.51210037
H  2.29529189  -13.51351493  2.09021016
H  7.38170357  -12.18389045  1.65981677
H  7.11050264  -11.92889099  -0.13140173
H  7.07458174  -13.53141636  0.46888250
H  4.75991380  -17.57306730  4.41128662
H  5.58058423  -16.16871323  3.66358343
H  7.14857131  -17.53948770  3.25687546
H  6.35517982  -17.46466977  1.66382370
H  5.90660182  -19.18260383  0.38170133
H  6.42459866  -20.58782654  5.77085801
H  7.35520289  -19.20721638  5.24296597
H  5.59217548  -19.17176844  5.37147271
H  2.75842925  -22.58368338  5.00505558
H  7.10232163  -23.72499051  2.99414605
H  5.49587550  -24.02571428  3.41247888
H  5.93693875  -23.91608398  6.36772302
H  6.77048232  12.93718073  8.07887330
H  8.60106311  9.61815015  4.22657388
H  10.08852587  7.90048706  5.75624365
H  9.17237037  8.55715375  9.97467856
H  10.24118117  6.05900237  7.70272917
H  6.97286006  11.25783519  9.73887000
H  8.68606131  11.70286301  9.95236370
H  7.92723439  10.32759018  10.74568375
H  8.27768752  11.37613209  2.71542772
H  7.62655591  -23.51906961  -1.30214500
H  4.03695666  -23.22503516  1.03988768
H  6.25630729  12.09725130  -2.71582804
H  7.48941338  13.30548612  -3.15363744
H  10.63571525  8.80140525  -5.24343171
H  4.99342847  8.31507517  -2.12536717
H  9.06827137  6.08174811  -4.15977162
H  4.27040200  6.07851972  -1.95625478
H  10.04032091  0.93766540  -3.68443603
H  8.88575643  2.37008742  -2.36297055
H  7.55971372  4.61826463  -5.83261733
H  9.14367962  3.60940005  -7.00964798
H  11.45776643  -0.18910461  -4.92583074
H  13.86691186  0.06595978  -8.29925527
H  11.14343980  3.30713808  -7.71846887
H  12.73667276  2.22826446  20.32804676
H  12.82001707  -1.74456516  -5.60657391
H  9.38210872  13.48038508  -3.46698946
H  12.04748864  10.54140551  -5.74870060
H  11.38317085  12.21128416  -5.83381724
H  13.45005540  13.56546198  -1.74913356
H  15.00345699  13.09343476  -2.74521349
H  12.94537333  13.82955696  -4.43922834
H  14.06674162  10.91342615  -1.31606200
H  12.38710175  9.81022870  -2.95767554
H  3.43762020  12.87918017  2.36693185
H  2.71823931  13.10828538  0.73548796
H  2.90570596  10.89829578  0.31741391
H  5.39944245  10.73971688  2.09198227
H  5.10395053  10.49615162  -0.82229183
H  6.62816990  10.34599170  0.06758774
H  3.02160733  10.98446170  3.31071859
H  1.90552699  8.67863120  1.64629076
H  4.57624056  8.54666833  3.13877284
H  3.78889738  7.20195017  2.37640886
H  5.64514124  8.56189503  1.27938630
H  4.34768031  8.69541258  0.10335928
H  0.80950083  10.94087128  1.30123642
H  0.53044814  10.29418134  2.89729224
H  2.67147949  8.25303159  4.54628666
H  1.10473572  9.02364317  4.28814018
H  1.81006286  6.71348998  2.55451257
H  0.18281050  7.00781854  3.25038167
H  2.82509922  4.83401359  3.23951325
H  0.75035393  7.16636325  6.01970430
H  4.00235395  4.41282903  9.99686673
H  0.88692746  8.33236928  7.68058704
H  0.94593778  9.17576096  9.89535059
H  5.42198181  3.46725898  8.79157934
H  4.82151717  2.27690667  7.58747707
H  5.56325624  3.75300161  6.98119012
H  1.55667575  9.18677768  12.36381325
H  2.93351143  8.22130937  14.12183396
H  2.29288816  3.62022082  11.05172922
H  3.37545716  6.05246042  15.18209994
H  3.32317582  3.67949725  15.22424909
H  2.79820898  1.42662770  13.99784894
H  2.41008049  1.35610711  12.23350653
H  0.45240142  2.43970058  12.52033160
H  0.26544090  0.89692236  13.54006685
H  0.76146138  2.45119696  15.53869468
H  0.57009756  3.90962255  14.58042629
H  -0.14518738  1.30288613  16.69347496
H  -1.44739738  0.42671036  18.65474405
H  -1.76650102  5.20120914  12.44050091
H  -0.07945612  4.55798377  12.87343132
H  -1.00905046  3.76684784  11.65154688
H  -4.67746489  3.31216872  12.01842495
H  -3.19306914  3.94179784  11.48008798
H  -4.01350263  5.00563565  12.48387009
H  -7.04803180  2.22547430  15.79744521
H  -7.17906213  1.05872744  17.77276779
H  -2.58114227  -1.21223047  19.53708303
H  -7.30520251  -0.19251144  19.65065586
H  -6.69146743  -0.16454081  -6.84184093
H  -5.27308513  -2.85277358  -6.57033437
H  -3.48480076  -1.56729979  -5.30275616
H  -4.05580818  -0.09058122  -6.03025187
H  -3.02588613  -2.45797794  -7.58266866
H  -2.35982914  -0.89422603  -7.53218695
H  -7.12290743  -2.94776651  -7.82776117
H  -8.28293923  -1.74381933  -8.17871453
H  -9.09419975  -1.52283404  -6.05790417
H  -7.21293907  -3.71468209  -5.36594839
H  -8.07060730  -2.85151105  -4.28419424
H  -5.53651233  -2.32350552  -4.15987395
H  -6.51116722  -0.85116554  -4.70179819
H  -9.31518664  -3.99056174  -5.68940954
H  -6.97871750  3.19094983  13.94894731
H  6.97531991  5.30345479  0.01444380
H  4.46726163  2.41068952  2.06381257
H  5.53311493  3.32953771  0.03860396
H  7.81340079  7.80548236  4.47329549
H  5.23394675  6.68919943  4.94407903
H  6.64889965  5.55608404  5.31977699
H  8.10901974  7.35600541  1.95777566
C  -1.60861289  5.62287203  16.78932088
C  -3.98906051  5.78445194  16.74806330
C  -2.74807075  5.94844960  16.10880131
C  -4.05553240  5.12241304  17.97198830
C  -1.65582951  5.15019202  18.03426383
C  -2.88227635  4.80915262  18.66910992
C  -5.23467213  6.22635244  16.17055198
C  -6.39386357  6.04167348  16.87717722
C  -5.21679222  4.85503522  18.59635125
C  -6.43767414  5.33556114  18.08018065
C  -7.66650032  4.94039079  18.69333251
C  -7.67470152  4.24470976  19.88608909
C  -5.19618062  4.05501675  19.76256952
C  -6.49503845  3.71096005  20.35290152
C  -4.02631759  3.71553539  -9.00712521
C  -2.84390635  4.20497534  19.93359521
S  -5.25173348  7.34708303  14.79976394
O  -2.63361598  6.58841208  14.86897798
C  -9.05279064  5.26087828  18.10247989
C  -9.63323289  4.10327404  17.32031404
C  -10.18174508  2.77369083  15.30038183
C  -9.48034539  3.85655900  15.98941764
C  -10.70812130  1.73893267  16.14744615
C  -10.21294506  3.07938985  18.09511310
C  -10.82135658  1.97976681  17.51213763
C  -10.17756653  2.61953439  13.90773063
C  -10.33951410  1.35442917  13.39223501
C  -11.06206328  0.51872413  15.55527659
C  -10.79741933  0.29923353  14.19642641
C  -11.57233693  -0.63505800  16.35239256
C  -11.04255326  -1.96811806  15.77345804
C  -11.68942048  -1.98154340  14.33695306
C  -11.21529003  -0.87564633  13.43775171
O  -12.87292605  -2.57896427  14.10624164
O  -10.20955238  1.13258512  12.05440213
N  -6.60807630  2.90795165  -7.90538316
O  -3.91714606  2.96640003  -7.86656916
O  -8.78350366  4.66721052  15.23654358
C  -9.81135575  3.59246194  12.81831769
C  -8.95698304  1.00790316  11.57464084
C  -7.44935588  1.72668984  9.75275186
C  -8.69517579  1.63814967  10.35175428
C  -6.40623062  0.93903878  10.36446185
C  -7.81990080  0.33156105  12.27440853
C  -6.72123602  0.44164223  11.51429757
O  -7.25689792  2.55986202  8.68681234
C  -5.04563630  0.87564494  10.05139755
S  -5.32500127  -0.35162913  12.58032861
C  -2.79938040  1.07709460  9.15201696
C  -4.15345210  1.29970200  8.95239262
C  -2.30578379  0.42860326  10.30733057
C  -4.46648479  0.28070357  11.13807008
C  -3.13211109  0.00098394  11.41901952
O  -0.91453389  0.21083321  10.40881251
C  -0.33137340  -0.26234787  9.24601982
C  0.76129635  -0.52906032  7.37734350
C  0.60078428  0.38326818  8.47612656
C  0.01162871  -1.83431221  7.41784523
C  -0.65640488  -1.52170698  8.68449533
C  1.38236888  1.68124738  8.53528424
C  -2.45929049  -0.49055675  12.65331875
C  -2.12894761  -1.91941647  12.28080555
C  -2.72541397  -2.86744002  13.34550734
C  -3.07270061  -3.66560405  15.54155343
C  -2.37088409  -2.80590964  14.60928919
N  -3.95278016  -4.58392726  15.10936683
C  -3.49547059  -3.88357691  12.87029277
C  -4.13339275  -4.74092135  13.76111962
C  -1.40377393  -1.93546156  15.28115431
C  -7.80923891  -0.68776153  13.33618162
O  -7.75060687  -1.84410945  13.12209342
O  -7.73418507  -0.21719990  14.65616399
O  -4.74702075  -5.89316450  13.36388338
O  -2.78333682  -3.67636868  16.89776099
C  -3.42199291  -4.74521478  17.59632520
C  -2.96750554  -4.79789696  18.98968347
C  -3.45656181  -5.23036110  -8.18110941
C  -3.89872471  -5.15628239  19.97817593
C  -2.18243795  -4.98620706  -7.72629465
C  -1.68274279  -4.43765803  19.43340588
C  -1.23597894  -4.62032915  -8.72139290
N  -4.25288081  -5.48516988  -7.03856070
C  -3.52973885  -5.04534741  -5.94466260
C  -2.20577706  -4.66149119  -6.37541277
C  -3.83492252  -4.97368073  -4.63541868
C  -2.88575694  -4.58250509  -3.69990047
C  -1.35692641  -4.07276936  -5.48637739
C  -1.69150520  -4.19007834  -4.19200709
O  -3.06118145  -4.56743212  -2.37765158
C  -0.10491767  -3.35126859  -5.83811343
O  -5.25374916  -5.50907302  19.68991221
C  -5.53042599  -6.17750452  14.43338500
C  -6.53082229  -7.79308208  15.93203637
C  -5.54998853  -7.43444831  15.02770518
C  -7.42652275  -6.83850019  16.39547289
C  -6.54299076  -5.35532838  14.80537232
C  -7.52446371  -5.64985570  15.74048929
O  -6.58522889  -9.01936811  16.53573951
C  -5.36965177  -8.96714406  17.31462339
C  -5.40433576  -9.61641650  18.63915273
C  -6.41324518  -11.28109455  20.22952696
C  -6.28356714  -10.57411396  19.09573067
C  -5.54765018  -10.80449030  -8.22464448
C  -4.72912001  -9.09802702  19.72350239
C  -4.86803986  -9.63709676  -8.48890567
O  -7.09345352  -11.04749791  17.96389012
C  -7.75330257  -12.07745122  18.77347908
C  -7.42862196  -12.20119714  20.04404122
C  -8.59856344  -12.61398368  17.93480892
C  -9.23018411  -13.78413969  18.60422527
C  -8.10285126  -13.29148678  -8.74409210
C  -8.91138913  -14.06314210  19.99911101
O  -9.96792914  -14.56032756  17.82270615
O  -9.60724963  -15.15808318  -9.00044007
C  -9.83074573  -15.25209388  -7.65007930
C  -10.02209252  -16.58675128  -5.62963619
C  -9.84855407  -16.45554411  -7.02341518
C  -10.38988160  -15.49817577  -4.81661348
C  -10.30346058  -14.13427772  -6.89789556
C  -10.61555271  -14.30511701  -5.53828803
C  -10.49361059  -15.51817824  -3.41207161
C  -11.73059241  -15.15626558  -1.34485614
C  -11.54526436  -14.89353620  -2.70856612
C  -10.71067746  -15.79630955  -0.63248550
C  -9.58251979  -16.32273425  -2.69631290
C  -9.53588273  -16.22657477  -1.28985726
O  -12.80990204  -14.79197974  -0.65324967
O  -3.78902857  -8.15206036  19.41583514
C  -4.15031704  -9.04897536  -7.27426507
C  -2.58607677  -9.08693094  -7.24744655
C  -0.27914438  -8.73245656  -6.63497269
C  -1.74757056  -8.56291046  -6.27501276
C  -0.42020383  -9.62601338  -7.82624444
C  -1.77092466  -9.65232904  -8.22586861
C  -8.60690183  -4.57352407  15.88215643
C  -9.60227199  -5.06874484  16.92402899
C  -8.81302434  -5.78936278  18.03095850
C  -8.38089360  -7.12271853  17.48762848
C  -10.33434238  -3.80548251  17.48105445
C  -10.82517224  -3.82697340  18.97996839
C  -9.86674675  -4.62005200  19.87125519
C  -9.59707037  -6.00307012  19.26312777
C  -11.40280184  -3.34279063  16.45988012
C  -11.14082754  -2.35806372  19.34268078
C  -11.80802534  -2.10065167  -8.74225837
C  -12.27492309  -0.69742640  -8.47888324
C  -13.98830235  0.89610043  -8.11467050
C  -13.57106867  -0.28343026  -8.61430335
C  -13.22286076  1.80205201  -7.37238348
C  -11.44365997  0.26722437  -7.95256872
C  -11.85252351  1.49516994  -7.48044653
C  -13.71044257  2.68541781  -6.38512536
C  -12.79848793  3.24044977  -5.51689585
C  -10.91305863  2.26685369  -6.73084423
C  -11.42681280  3.10903799  -5.71806951
C  -10.54609069  3.49671964  -4.66046631
C  -9.27915336  2.88673939  -4.51478468
C  -9.51653810  1.95571187  -6.72032490
C  -8.70765253  2.25125078  -5.66822525
S  -15.71544683  1.14626851  -8.37312720
C  -15.16162930  2.89084049  -6.14139149
C  -10.84688824  4.40190573  -3.67234115
C  -10.36061230  4.19769283  -2.39222092
C  -8.68047178  2.75454203  -3.22658082
C  -9.30951039  3.25721780  -2.13962317
C  -11.40132641  5.66294649  -3.90035698
C  -11.60413182  6.57777091  -2.86802921
C  -10.83840223  4.99647788  -1.29238919
C  -11.34397773  6.25074356  -1.60585723
C  -12.15555262  7.95379487  -2.97710852
C  -10.97056054  8.97725881  -2.86134268
C  -11.42846926  10.39446168  -2.98246395
C  -10.19748905  11.22474952  -3.40700640
C  -8.56475158  13.01481805  -2.83518207
C  -9.46232206  11.98466792  -2.43352586
C  -8.19200282  13.05044418  -4.19632890
C  -9.76135403  11.26803868  -4.72340283
C  -8.71600041  12.07775403  -5.07734914
C  -9.81330669  11.91569325  -1.07469462
C  -9.45451176  12.84570386  -0.15063609
C  -8.28349129  13.99726369  -1.93189901
C  -8.72740317  13.98089675  -0.58012679
C  -10.48324017  10.48676688  -5.79424700
C  -8.31289890  12.08572519  -6.50138424
C  -7.82445006  -23.06794718  -2.49390753
C  -7.51300230  -24.11357550  -4.68924687
C  -7.27955865  -23.03912587  -3.80398036
C  -8.68442787  -23.11183682  0.22732044
C  -8.25487612  -21.92901398  -0.38401236
C  -7.78385526  -21.86972599  -1.71287789
C  -8.93908106  -23.03885866  1.63905895
C  -8.77588022  -21.86181062  2.35543608
C  -8.17239434  -20.76069007  0.32746376
C  -8.35238718  -20.73751778  1.68625803
C  -8.03311930  -19.50823361  2.53855650
C  -9.08411806  -19.45385341  3.73925079
C  -8.90038902  -20.71254046  4.60208615
C  -9.05761128  -21.97592023  3.82991579
C  -7.96320084  -18.26588233  1.65668281
C  -7.72463422  -17.05496377  2.46694239
C  -8.75725034  -17.03428416  3.65835710
C  -8.66838879  -18.25810537  4.56549718
O  -7.73661807  -15.84032279  1.71745129
O  -7.04216835  -23.94130386  -5.95400615
C  -15.92579250  1.99084747  19.58996301
C  -17.38041988  2.85451945  17.93870686
C  -17.22270014  2.25237513  19.19175344
C  -16.36239426  3.33611523  17.15863418
C  -14.89194775  2.39153710  18.77782236
C  -15.04811876  3.17878881  17.61452200
C  15.80884508  1.94502001  18.58411595
C  16.65110299  1.78645338  19.76818445
C  16.48448928  2.50301479  17.48830533
H  -0.62518237  5.80613266  16.28875776
H  -0.76209757  4.94143013  18.58135099
H  -7.37374113  6.45075355  16.45248075
H  -8.58883927  3.98266556  -8.96971590
H  -1.86808058  4.03007632  20.40921835
H  -6.45737930  7.86362345  14.54303892
H  -3.40936475  6.39846888  14.32868893
H  -9.04743951  6.17956139  17.52910051
H  -9.66476781  5.53331212  18.93898044
H  -10.08559861  3.15952122  19.22321389
H  -11.35429736  1.37924197  18.19563368
H  -12.68033941  -0.50035763  16.34797688
H  -11.17849542  -0.45203624  17.29707786
H  -10.00376910  -1.79064757  15.67071715
H  -12.05865329  -0.58802590  12.75408239
H  -10.48974262  -1.37137162  12.83766639
H  -5.71283462  2.60640059  -7.55059829
H  -7.00266777  3.41446833  -7.13802271
H  -2.95309037  2.89956813  -7.67892563
H  -8.27314278  5.19061585  15.84695852
H  -10.10093319  3.41411434  11.71886498
H  -8.70704762  3.70308000  12.89102309
H  -10.33511098  4.50704560  12.98737862
H  -9.51685510  2.26471253  9.99736725
H  -8.10278072  2.98131974  8.52132495
H  -2.05169438  1.43056320  8.37585703
H  -4.35215257  1.87867299  8.00739277
H  1.49659049  -0.18984698  6.58793747
H  0.60899198  -2.75582534  7.55998650
H  -0.66728438  -1.99738264  6.54639076
H  -1.21941683  -2.19215309  9.32693114
H  2.27713941  1.63925025  9.08347325
H  0.71216510  2.39462180  9.11271288
H  1.65025385  2.11838941  7.53121206
H  -3.02961955  -0.39783484  13.56789281
H  -1.52227406  0.05565654  12.89113017
H  -1.07991551  -2.12008090  12.11463741
H  -2.52136143  -2.10860130  11.31980600
H  -3.73219805  -3.92932774  11.81839311
H  -0.69615228  -2.42871872  16.01642585
H  -0.72586089  -1.37690271  14.62845945
H  -1.90505170  -1.10757003  15.78813637
H  -8.17194631  0.61951541  14.75400868
H  -3.33625067  -5.69873196  17.01471801
H  -4.45304738  -4.45425851  17.55721467
H  -0.93212945  -4.02426617  18.75076431
H  -0.21028924  -4.27762211  -8.44638924
H  -5.30084448  -5.53695916  -7.11443723
H  -4.78028924  -5.30324460  -4.24805451
H  -1.10641756  -3.76092588  -3.46191472
H  -3.96666891  -4.90526749  -2.13716153
H  0.50598563  -3.11555024  -4.93630350
H  -0.29836690  -2.42210517  -6.40586225
H  0.35790425  -4.03089698  -6.50868014
H  -5.46936525  -5.44118156  18.79100975
H  -4.80890519  -8.17415133  14.70795264
H  -6.58556268  -4.29557761  14.44533357
H  -4.55713660  -9.30834754  16.73564250
H  -5.20080032  -7.90849197  17.54756356
H  -5.57720870  -11.40999896  -7.33191329
H  -8.65933466  -12.20174525  16.91264994
H  -7.86177492  -13.52224017  -7.71174166
H  -10.68582385  -14.87251910  18.38972890
H  -9.86601555  -17.55302657  -5.08404912
H  -9.66869947  -17.38228141  -7.51419262
H  -10.36912894  -13.10912581  -7.32163609
H  -10.93233834  -13.39074611  -4.97397259
H  -12.43631066  -14.56061455  -3.28317486
H  -10.70351362  -15.69250363  0.46442465
H  -8.70491123  -16.83853435  -3.16158753
H  -8.68722795  -16.69245465  -0.77052113
H  -13.59649494  -14.63240929  -1.21071854
H  -3.80948759  -7.89230351  18.50677638
H  -4.51975081  -8.03446298  -7.18592075
H  -4.49942124  -9.59844664  -6.34460003
H  0.33450954  -9.16718354  -5.90244826
H  0.21499495  -7.81628275  -6.87742569
H  -2.08746058  -7.97360193  -5.49659686
H  0.30545117  -10.01218828  -8.59548970
H  -2.12612469  -10.23678016  20.40154796
H  -8.06910719  -3.74046800  16.38210238
H  -9.02644170  -4.26623729  14.93247762
H  -10.32732565  -5.81880876  16.45672328
H  -7.91309771  -5.15710512  18.22176974
H  -9.28074828  -7.62598254  17.15260694
H  -7.82716584  -7.64308469  18.26483567
H  -9.56818140  -3.00235196  17.54280914
H  -11.73735763  -4.49526016  19.06127676
H  -8.91415508  -4.19246612  20.03321888
H  -10.26962318  -4.77708055  -8.55844191
H  -9.11433916  -6.68384316  19.94429968
H  -10.54330141  -6.60345284  19.05498565
H  -11.43609903  -4.19949453  15.75583333
H  -12.41787300  -3.43295773  16.88857805
H  -10.18894958  -1.68611849  19.18935179
H  -11.89999121  -2.05449750  18.56694261
H  -11.24715246  -2.51588465  -7.93275087
H  -12.71046225  -2.69803256  -8.78244674
H  -14.32018121  -0.89967410  20.37324608
H  -10.46549698  -0.06970717  -7.71402857
H  -13.17296828  3.78703601  -4.65097353
H  -9.05994021  1.34988049  -7.52577758
H  -7.76262965  1.69006464  -5.41967492
H  -15.69862394  2.06293379  -5.63244907
H  -15.18870331  3.62849867  -5.36253568
H  -15.87160063  3.04763566  -7.04824502
H  -7.70407005  2.19742748  -3.09433878
H  -8.96684115  3.26415291  -1.08661644
H  -11.76546660  6.03343191  -4.87480967
H  -10.46168832  4.82227397  -0.22760900
H  -11.65157947  6.93985106  -0.77699590
H  -12.83478214  8.22946820  -2.16919064
H  -12.65586258  7.95300878  -3.96990040
H  -10.49663704  8.87898777  -1.91402078
H  -10.14317898  8.72376122  -3.57663357
H  -12.23151175  10.52828212  -3.65845907
H  -11.85974063  10.69386266  -1.99804010
H  -10.50708619  11.12177873  -0.60198156
H  -9.82850551  12.78787733  0.86417179
H  -9.97245803  9.55073123  -6.04945083
H  -11.46144997  9.96827743  -5.49805247
H  -10.68728079  11.01346226  -6.76033788
H  -8.90690186  12.70738691  -7.18792891
H  -8.42734114  11.08232451  -6.91203570
H  -7.20348362  12.19489664  -6.60729800
H  -6.67351186  -22.18817850  -4.17928261
H  -7.31018274  -20.95029666  -2.20940922
H  -9.24884559  -23.98165779  2.06633323
H  -7.80972369  -19.94136883  -0.22949576
H  -7.09846415  -19.63477678  3.13853729
H  -10.17330215  -19.41452070  3.39421826
H  -9.57333518  -20.68220684  5.51781010
H  -7.82037879  -20.61778406  4.94140387
H  -9.99494140  -22.43419200  4.08708884
H  -8.33225513  -22.83126274  4.12220759
H  -8.93473225  -18.12299539  1.06047983
H  -7.18340785  -18.37851091  0.81677689
H  -6.63898489  -17.11969870  2.89095121
H  -9.71614211  -16.90702287  3.23283694
H  -8.46976003  -16.20496323  4.34430689
H  -9.34982971  -18.21815314  5.50524008
H  -7.59779181  -18.32325971  4.90170331
H  -8.09567970  -16.00805901  0.86362243
H  -6.51521524  -23.17892063  -6.03287450
H  -16.58116059  3.65415295  16.11631145
H  -13.81857950  2.16682857  18.86928428
H  -14.13120513  3.46974195  17.04311679
H  14.76192668  1.68155020  18.45258262
H  16.61034048  0.77285328  20.25703028
H  16.43873051  2.58870327  -8.90649443
H  16.16225366  2.67276731  16.47147575
