         356

 He    6.3353416078571421       -1.6095762002714302       -2.8766255987571432     
 He    8.3455130364285672       -1.0065247717000041       -3.8817113130428575     
 He    5.3302558935714259       -4.4238162002714319       0.33964868695714223     
 He   -9.1429783921428562        8.2402637997285701        6.1691458298142852     
 He    4.7272044649999962       -1.4085590574142870       0.13863154409999900     
 He    5.1292387507142827       -2.8156790574142896       -1.0674713130428577     
 He   -15.374509820714284        11.054503799728568        18.029157258385709     
 He    5.9333073221428556       0.60161237115714172       0.33964868695714223     
 He    7.5414444649999979       -4.2227990574142886       -1.2684884559000009     
 He   -9.7206963571430549E-002   5.4260237997285685       -6.0928998844714286     
 He    9.5516158935714266       -4.0217819145571454      -0.66543702732857213     
 He  -0.70025839214286023        5.8280580854428550        20.240345829814281     
 He   -11.153149820714285        7.0341609425857108        5.9681286869571419     
 He    5.7322901792857124       -2.2126276288428599        1.1437172583857134     
 He    4.7272044649999962       -1.2075419145571438        1.1437172583857134     
 He  -0.90127553500000346        9.0443323711571360        14.209831544099995     
 He    9.1495816078571401       -4.0217819145571454       -6.2385598757144223E-002
 He    8.3455130364285672       -3.0166962002714293       -1.4695055987571433     
 He   -11.153149820714285        8.8433152282999963        5.1640601155285708     
 He    8.5465301792857105      -0.80550762884286087       -1.2684884559000009     
 He   -13.766372677857142       -13.469587628842858        15.415934401242854     
 He    1.1088958935714253        6.8331437997285676       -7.9020541701857141     
 He    8.5465301792857105       -1.8105933431285735       -6.2385598757144223E-002
 He    5.5312730364285692       0.60161237115714172        1.1437172583857134     
 He   -12.560269820714286       -11.660433343128572        16.421020115528567     
 He   -9.9470469635714274        9.0443323711571360        5.9681286869571419     
 He    6.3353416078571421       -3.4187304859857157       -2.4745913130428576     
 He    4.9282216078571395       -3.8207647717000022       -2.4745913130428576     
 He    6.7373758935714250       -1.2075419145571438       -2.8766255987571432     
 He    5.5312730364285692       -15.479759057414284       -3.4796770273285720     
 He    5.9333073221428556        1.6066980854428543       -1.0674713130428577     
 He   -14.771458392142856        10.652469514014282        17.828140115528566     
 He    3.5211016078571404       0.19957808544285527        1.7467686869571413     
 He    14.778061607857136       -14.273656200271429       -1.4695055987571433     
 He   -15.776544106428570        10.853486656871421        17.828140115528566     
 He    8.7475473221428537       -2.6146619145571464       -3.2786598844714288     
 He    6.7373758935714250       -3.6197476288428589        1.9477858298142845     
 He    7.7424616078571411        1.0036466568714246       0.54066582981428546     
 He   -14.570441249285713        10.853486656871421        17.627122972671426     
 He   -9.7460298207142841        8.4412809425857098        6.5711801155285698     
 He    6.5363587507142817       -2.2126276288428599      -0.46441988447142890     
 He   -11.756201249285713       -11.861450485985713        14.812882972671424     
 He   -10.349081249285714        6.2300923711571379        6.1691458298142852     
 He   -13.766372677857142       -13.670604771699999        16.823054401242853     
 He   -11.756201249285713       -14.072639057414285        13.807797258385712     
 He    5.7322901792857124       -1.0065247717000041       -2.2735741701857144     
 He    4.5261873221428566       -2.8156790574142896        1.1437172583857134     
 He    5.9333073221428556       -1.8105933431285735        3.1538886869571421     
 He    6.3353416078571421       0.60161237115714172        2.1488029726714277     
 He   -2.3083955350000025        7.0341609425857108       -6.6959513130428574     
 He   -1.3033098207142864        6.8331437997285676       -6.8969684558999997     
 He   -11.957218392142856        6.0290752282999982        5.7671115440999987     
 He   -1.3033098207142864        6.0290752282999982       -8.9071398844714285     
 He   -11.153149820714285        8.0392466568714234        4.5610086869571411     
 He    4.7272044649999962        1.0036466568714246        1.3447344012428566     
 He   -11.555184106428570        7.6372123711571405        4.5610086869571411     
 He    9.1495816078571401       -3.8207647717000022       0.74168297267142869     
 He   -11.555184106428570       -13.268570485985714        17.426105829814283     
 He   -10.349081249285714        6.4311095140142811        6.3701629726714266     
 He    6.5363587507142817       -2.2126276288428599        3.1538886869571421     
 He    4.7272044649999962       -1.4085590574142870      -0.86645417018571536     
 He    4.9282216078571395       -2.0116104859857167       0.13863154409999900     
 He    9.5516158935714266      -0.60449048598571764       -2.2735741701857144     
 He    14.979078750714283       -14.273656200271429      -0.26340274161428567     
 He    4.5261873221428566       -1.4390574142879586E-003   1.3447344012428566     
 He    4.3251701792857133       -16.484844771700001       -2.8766255987571432     
 He    5.5312730364285692       -14.273656200271429       -2.6756084559000008     
 He   -9.9470469635714274        6.2300923711571379        5.3650772583857123     
 He   -10.952132677857142       -14.072639057414285        16.421020115528567     
 He    5.7322901792857124       -1.0065247717000041        3.5559229726714268     
 He   -9.7206963571430549E-002   7.8382295140142837       -6.6959513130428574     
 He    4.5261873221428566       -13.469587628842858       -2.6756084559000008     
 He    7.3404273221428546       -4.8258504859857148       -2.6756084559000008     
 He    8.3455130364285672       -1.2075419145571438       -1.8715398844714288     
 He   -15.374509820714284        10.652469514014282        18.029157258385709     
 He   -9.9470469635714274        9.4463666568714224        4.7620258298142844     
 He    9.1495816078571401       -3.0166962002714293       -1.0674713130428577     
 He  -0.49924124928571700        9.8484009425857089        12.601694401242852     
 He   -13.967389820714285        11.858572371157141        17.627122972671426     
 He   0.70686160785714236        6.4311095140142811       -7.9020541701857141     
 He   -9.7206963571430549E-002   7.6372123711571405        20.240345829814281     
 He    3.3200844649999972      -0.20245620027143119        1.3447344012428566     
 He    5.7322901792857124       -1.8105933431285735       -2.0725570273285721     
 He   -11.957218392142856       -14.675690485985713        14.611865829814281     
 He   0.10381017928571268        5.0239895140142821       -7.2990027416142862     
 He    5.1292387507142827       0.60161237115714172        3.3549058298142853     
 He   -11.354166963571426       -13.871621914557142        15.616951544099997     
 He    3.1190673221428540       -1.0065247717000041        1.3447344012428566     
 He    7.1394101792857114       -1.2075419145571438       -2.4745913130428576     
 He   -10.751115535000000        9.2453495140142827        7.3752486869571392     
 He   -12.359252677857143       -13.067553343128571        17.024071544099996     
 He    15.984164464999996       -13.670604771699999       -1.0674713130428577     
 He    5.1292387507142827       0.19957808544285527      -0.26340274161428567     
 He    5.1292387507142827      -0.40347334312857441       -2.0725570273285721     
 He    6.1343244649999988       -4.2227990574142886       -2.6756084559000008     
 He    3.5211016078571404       -14.876707628842857       -2.6756084559000008     
 He    5.1292387507142827       -3.6197476288428589       -1.2684884559000009     
 He   0.70686160785714236        7.4361952282999972       -8.9071398844714285     
 He    7.3404273221428546      -0.40347334312857441       0.94270011552857014     
 He    9.1495816078571401       0.80262951401428140       -1.6705227416142865     
 He   -9.7460298207142841        8.8433152282999963        6.9732144012428563     
 He    7.1394101792857114        1.6066980854428543       -1.0674713130428577     
 He   -11.354166963571426        6.6321266568714243        3.7569401155285700     
 He    9.3505987507142834      -0.40347334312857441      -0.46441988447142890     
 He   -13.565355534999998       -12.062467628842857        15.616951544099997     
 He    7.3404273221428546       -5.6299190574142877       0.54066582981428546     
 He   -12.359252677857143        9.2453495140142827        4.9630429726714276     
 He   -10.751115535000000        9.2453495140142827        5.1640601155285708     
 He    5.3302558935714259       -2.2126276288428599        1.9477858298142845     
 He   -9.7206963571430549E-002   5.4260237997285685       -8.5051055987571438     
 He    5.1292387507142827      -0.60449048598571764        3.3549058298142853     
 He   -10.349081249285714       -13.871621914557142        15.214917258385711     
 He    4.3251701792857133       -1.4085590574142870        4.1589744012428564     
 He    6.1343244649999988      -0.60449048598571764        2.7518544012428556     
 He    7.1394101792857114        2.2097495140142840       0.13863154409999900     
 He    3.9231358935714269      -0.20245620027143119      -0.46441988447142890     
 He    5.1292387507142827       -16.484844771700001       -2.4745913130428576     
 He    14.577044464999997       -14.474673343128570      -0.46441988447142890     
 He   -13.766372677857142       -14.675690485985713        15.616951544099997     
 He    5.9333073221428556       -3.4187304859857157       -3.6806941701857143     
 He   -11.153149820714285        6.2300923711571379        3.7569401155285700     
 He    5.3302558935714259       0.60161237115714172       -6.2385598757144223E-002
 He   -12.359252677857143       -11.861450485985713        13.807797258385712     
 He    8.1444958935714276       -1.8105933431285735      -0.86645417018571536     
 He   -12.158235534999999       -12.665519057414285        13.204745829814282     
 He   -14.972475534999999        12.863658085442854        17.627122972671426     
 He    6.1343244649999988       -3.6197476288428589        1.7467686869571413     
 He    8.7475473221428537      -0.40347334312857441      -0.86645417018571536     
 He    7.9434787507142843       -2.6146619145571464       -1.2684884559000009     
 He    4.3251701792857133       -2.0116104859857167       0.54066582981428546     
 He   -2.3083955350000025        6.6321266568714243       -8.3040884559000006     
 He    7.5414444649999979       -2.0116104859857167       -2.4745913130428576     
 He   -15.977561249285714        11.456538085442855        18.029157258385709     
 He    6.9383930364285682       -3.6197476288428589       0.33964868695714223     
 He    6.3353416078571421      -0.60449048598571764       0.33964868695714223     
 He   -10.751115535000000        5.6270409425857117        5.7671115440999987     
 He    6.7373758935714250       -2.4136447717000031        2.1488029726714277     
 He   -8.7409441064285698        7.2351780854428540        5.1640601155285708     
 He    8.7475473221428537       -5.0268676288428580       0.33964868695714223     
 He    5.7322901792857124       -2.0116104859857167        2.7518544012428556     
 He  -0.49924124928571700        7.6372123711571405        20.240345829814281     
 He   -12.158235534999999       -14.273656200271429        14.008814401242855     
 He    5.7322901792857124        2.0087323711571408       0.33964868695714223     
 He    6.3353416078571421       -2.4136447717000031        1.9477858298142845     
 He    6.3353416078571421       -3.0166962002714293        1.1437172583857134     
 He    7.1394101792857114       -3.0166962002714293       0.33964868695714223     
 He   -9.7206963571430549E-002   6.8331437997285676       -7.0979855987571430     
 He    4.7272044649999962      -0.60449048598571764        3.7569401155285700     
 He   0.30482732214285591        7.2351780854428540       -7.9020541701857141     
 He   -1.5043269635714296        10.049418085442856        11.998642972671426     
 He   -11.354166963571426        7.6372123711571405        5.3650772583857123     
 He    7.5414444649999979       -4.4238162002714319        1.1437172583857134     
 He   -11.153149820714285        9.2453495140142827        6.3701629726714266     
 He   -2.5094126778571422        6.8331437997285676       -8.3040884559000006     
 He    8.1444958935714276       -2.2126276288428599       0.33964868695714223     
 He    3.5211016078571404       -14.675690485985713       -1.6705227416142865     
 He  -0.90127553500000346        6.0290752282999982        20.240345829814281     
 He   -14.369424106428571       -11.660433343128572        14.008814401242855     
 He   -14.972475534999999       -14.072639057414285        16.018985829814280     
 He   -11.957218392142856        8.6422980854428566        6.1691458298142852     
 He    5.7322901792857124       -5.0268676288428580       -6.2385598757144223E-002
 He   0.30482732214285591        5.8280580854428550       -7.2990027416142862     
 He    6.1343244649999988       -2.2126276288428599        1.7467686869571413     
 He   0.50584446499999913        7.4361952282999972       -8.5051055987571438     
 He  -0.70025839214286023        6.4311095140142811        19.838311544099994     
 He    4.1241530364285701      -0.60449048598571764        1.5457515440999998     
 He   -10.952132677857142        7.4361952282999972        5.5660944012428555     
 He  -0.70025839214286023        6.4311095140142811        20.240345829814281     
 He    4.1241530364285701       -15.680776200271428       -1.4695055987571433     
 He   -2.7104298207142854        8.6422980854428566        11.797625829814283     
 He    7.5414444649999979       -2.8156790574142896       -3.4796770273285720     
 He  -0.70025839214286023        9.8484009425857089        13.003728686957139     
 He    6.3353416078571421        1.0036466568714246       0.13863154409999900     
 He    7.7424616078571411      -0.60449048598571764       0.94270011552857014     
 He    3.7221187507142837       -2.6146619145571464       0.54066582981428546     
 He   -14.369424106428571       -13.268570485985714        14.410848686957138     
 He    5.7322901792857124      -0.60449048598571764       -2.6756084559000008     
 He    8.5465301792857105       -1.8105933431285735        1.1437172583857134     
 He    8.9485644649999969       -3.4187304859857157       0.33964868695714223     
 He   -10.751115535000000        7.8382295140142837        3.5559229726714268     
 He    7.5414444649999979       -2.0116104859857167       -3.2786598844714288     
 He    3.5211016078571404       -1.4085590574142870       0.33964868695714223     
 He    7.5414444649999979       -5.2278847717000012      -0.66543702732857213     
 He    5.7322901792857124       -1.4085590574142870       -1.2684884559000009     
 He   -11.354166963571426        9.0443323711571360        4.5610086869571411     
 He  -0.90127553500000346        8.4412809425857098        14.008814401242855     
 He    5.1292387507142827       -4.0217819145571454       -2.0725570273285721     
 He   -9.5450126778571427        7.8382295140142837        5.9681286869571419     
 He    4.7272044649999962       0.40059522829999850        2.5508372583857142     
 He    6.3353416078571421        1.2046637997285679        2.1488029726714277     
 He    3.3200844649999972       -16.082810485985714       -1.8715398844714288     
 He    15.180095893571423       -13.871621914557142      -0.66543702732857213     
 He    8.1444958935714276       -3.2177133431285725       0.54066582981428546     
 He    4.7272044649999962       0.80262951401428140        3.1538886869571421     
 He    9.3505987507142834       -4.0217819145571454       0.33964868695714223     
 He   -11.354166963571426        8.6422980854428566        6.7721972583857131     
 He   -1.3033098207142864        5.8280580854428550       -7.2990027416142862     
 He    5.1292387507142827       -13.469587628842858       -2.6756084559000008     
 He    8.1444958935714276       -2.6146619145571464       -1.8715398844714288     
 He    4.7272044649999962       0.80262951401428140        1.3447344012428566     
 He    4.1241530364285701       -1.2075419145571438        1.1437172583857134     
 He    7.3404273221428546      -0.80550762884286087        1.9477858298142845     
 He    8.5465301792857105       -1.6095762002714302        1.5457515440999998     
 He    8.3455130364285672       0.19957808544285527      -0.26340274161428567     
 He   -1.7053441064285728        7.2351780854428540       -7.2990027416142862     
 He   0.70686160785714236        6.6321266568714243       -7.7010370273285718     
 He    8.3455130364285672       -1.0065247717000041       -3.4796770273285720     
 He    5.9333073221428556       -1.0065247717000041        2.3498201155285710     
 He    5.7322901792857124       -4.4238162002714319       -2.8766255987571432     
 He    4.1241530364285701       -15.680776200271428       -3.2786598844714288     
 He    6.3353416078571421       0.60161237115714172       -2.8766255987571432     
 He  -0.29822410642857378        5.4260237997285685       -7.7010370273285718     
 He  -0.90127553500000346        7.0341609425857108       -6.2939170273285718     
 He    6.7373758935714250      -0.20245620027143119       -2.6756084559000008     
 He   -2.7104298207142854        6.8331437997285676       -7.9020541701857141     
 He   -1.7053441064285728        10.451452371157142        13.003728686957139     
 He   -10.148064106428571        7.6372123711571405        6.5711801155285698     
 He    8.5465301792857105      -0.60449048598571764       -1.0674713130428577     
 He   -13.766372677857142       -13.871621914557142        15.415934401242854     
 He    4.7272044649999962       -2.4136447717000031      -0.26340274161428567     
 He   -1.5043269635714296        8.8433152282999963        12.802711544099996     
 He    6.5363587507142817       -4.4238162002714319       0.94270011552857014     
 He   -14.972475534999999        12.863658085442854        17.828140115528566     
 He    8.5465301792857105       -4.6248333431285751       -1.4695055987571433     
 He   -2.5094126778571422        7.0341609425857108       -7.9020541701857141     
 He   -12.761286963571427       -10.856364771699999        14.410848686957138     
 He    5.5312730364285692       -2.0116104859857167       -1.4695055987571433     
 He    8.7475473221428537       -1.2075419145571438       -1.2684884559000009     
 He    8.9485644649999969       -4.4238162002714319      -0.66543702732857213     
 He    6.3353416078571421       -2.4136447717000031       -2.4745913130428576     
 He    4.3251701792857133       -15.680776200271428       -4.0827284558999999     
 He   -15.776544106428570       -14.474673343128570        14.410848686957138     
 He    5.9333073221428556       -3.0166962002714293      -0.46441988447142890     
 He   -12.359252677857143        8.0392466568714234        5.7671115440999987     
 He   -15.977561249285714        12.260606656871428        16.018985829814280     
 He    8.3455130364285672       -1.8105933431285735       -3.0776427416142864     
 He   -12.359252677857143       -11.057381914557142        14.611865829814281     
 He   -12.560269820714286       -11.057381914557142        16.823054401242853     
 He    3.3200844649999972       -1.8105933431285735        1.9477858298142845     
 He    7.7424616078571411       0.60161237115714172        1.7467686869571413     
 He    3.9231358935714269       -2.6146619145571464        1.7467686869571413     
 He   -10.952132677857142        8.4412809425857098        4.7620258298142844     
 He    14.577044464999997       -15.278741914557143      -0.46441988447142890     
 He    8.5465301792857105       -4.4238162002714319       -1.2684884559000009     
 He    6.1343244649999988       -4.8258504859857148       -1.6705227416142865     
 He    7.5414444649999979        1.6066980854428543       -1.4695055987571433     
 He    4.7272044649999962      -0.40347334312857441       0.13863154409999900     
 He    8.3455130364285672       -1.2075419145571438       0.74168297267142869     
 He    9.1495816078571401       -1.8105933431285735      -0.26340274161428567     
 He   -9.7460298207142841        8.0392466568714234        3.9579572583857132     
 He   -12.359252677857143       -14.273656200271429        13.606780115528569     
 He    6.5363587507142817       -3.4187304859857157       -3.4796770273285720     
 He   -1.7053441064285728        7.0341609425857108       -7.2990027416142862     
 He   -16.580612677857143        12.260606656871428        17.024071544099996     
 He   -10.952132677857142        6.4311095140142811        6.3701629726714266     
 He   -14.168406963571428        11.657555228299994        16.622037258385710     
 He    8.5465301792857105       -2.6146619145571464      -0.66543702732857213     
 He   -1.1022926778571431        8.4412809425857098        11.395591544099997     
 He    6.9383930364285682        1.0036466568714246        1.3447344012428566     
 He   -12.560269820714286       -13.268570485985714        15.616951544099997     
 He    7.3404273221428546       -3.6197476288428589       -1.6705227416142865     
 He    5.3302558935714259       -3.0166962002714293      -0.66543702732857213     
 He   -10.550098392142857        6.0290752282999982        6.3701629726714266     
 He   -9.3439955349999995        8.4412809425857098        5.1640601155285708     
 He    8.1444958935714276       -3.0166962002714293      -0.46441988447142890     
 He    6.3353416078571421       -1.6095762002714302        2.7518544012428556     
 He    9.1495816078571401      -0.40347334312857441       -1.6705227416142865     
 He    5.3302558935714259       -14.072639057414285       -2.6756084559000008     
 He    7.3404273221428546        1.0036466568714246       0.33964868695714223     
 He   -13.163321249285712       -11.660433343128572        16.421020115528567     
 He   -11.153149820714285        9.6473837997285692        5.9681286869571419     
 He   -11.957218392142856        8.6422980854428566        5.5660944012428555     
 He   -10.349081249285714        5.8280580854428550        4.5610086869571411     
 He   -11.957218392142856       -12.464501914557143        14.209831544099995     
 He    6.9383930364285682       -3.2177133431285725        1.5457515440999998     
 He    5.5312730364285692      -0.20245620027143119        1.5457515440999998     
 He    9.3505987507142834       -1.4085590574142870      -0.46441988447142890     
 He   -12.560269820714286       -12.464501914557143        17.225088686957140     
 He    5.7322901792857124        1.4056809425857111        1.5457515440999998     
 He    7.1394101792857114       -1.4390574142879586E-003  0.33964868695714223     
 He    7.7424616078571411        1.2046637997285679       -1.2684884559000009     
 He    6.5363587507142817        1.2046637997285679       -1.8715398844714288     
 He    5.1292387507142827       -4.2227990574142886      -0.26340274161428567     
 He   -13.967389820714285       -14.474673343128570        15.214917258385711     
 He    14.376027322142857       -15.278741914557143      -0.86645417018571536     
 He   -12.962304106428570       -13.469587628842858        17.225088686957140     
 He    4.7272044649999962       -2.4136447717000031        2.1488029726714277     
 He    15.381113036428570       -15.278741914557143       -1.8715398844714288     
 He    8.7475473221428537      -0.40347334312857441       -3.4796770273285720     
 He    5.5312730364285692       -3.0166962002714293      -0.66543702732857213     
 He    6.7373758935714250       -2.0116104859857167       0.33964868695714223     
 He    8.5465301792857105      -0.60449048598571764       -6.2385598757144223E-002
 He   -12.761286963571427       -13.469587628842858        13.003728686957139     
 He   -1.5043269635714296        6.2300923711571379       -8.7061227416142852     
 He   -11.555184106428570       -12.866536200271428        16.018985829814280     
 He   -10.349081249285714        8.8433152282999963        3.9579572583857132     
 He    6.9383930364285682       0.80262951401428140       -2.2735741701857144     
 He    5.1292387507142827       -1.6095762002714302        2.9528715440999989     
 He    7.5414444649999979       -1.8105933431285735        1.5457515440999998     
 He   -13.565355534999998       -11.660433343128572        15.013900115528568     
 He    8.1444958935714276       -4.2227990574142886       -2.0725570273285721     
 He   -12.158235534999999        7.4361952282999972        4.1589744012428564     
 He   -15.575526963571427       -14.675690485985713        14.812882972671424     
 He    5.5312730364285692       -2.2126276288428599       0.74168297267142869     
 He    9.1495816078571401       -1.4085590574142870      -0.46441988447142890     
 He   -9.7460298207142841        9.2453495140142827        6.5711801155285698     
 He   -8.9419612492857130        7.2351780854428540        4.7620258298142844     
 He   -10.751115535000000        10.049418085442856        6.3701629726714266     
 He    7.3404273221428546       -3.8207647717000022       -1.4695055987571433     
 He  -0.70025839214286023        8.6422980854428566        11.998642972671426     
 He   0.90787875071428559        7.4361952282999972       -7.9020541701857141     
 He    6.9383930364285682       -1.4390574142879586E-003   2.7518544012428556     
 He   -12.962304106428570       -13.268570485985714        14.812882972671424     
 He   -9.7460298207142841        9.2453495140142827        4.7620258298142844     
 He    7.7424616078571411       -2.2126276288428599       -1.0674713130428577     
 He  -0.70025839214286023        9.4463666568714224        13.606780115528569     
 He   -10.148064106428571        8.6422980854428566        5.7671115440999987     
 He    5.7322901792857124       -4.6248333431285751      -0.26340274161428567     
 He   0.50584446499999913        8.0392466568714234       -7.2990027416142862     
 He    4.3251701792857133       -1.6095762002714302        3.3549058298142853     
 He    6.3353416078571421       -4.2227990574142886      -0.46441988447142890     
 He   -10.550098392142857        6.6321266568714243        4.5610086869571411     
 He  -0.29822410642857378        6.0290752282999982       -5.8918827416142854     
 He    7.1394101792857114      -0.80550762884286087       -3.6806941701857143     
 He   -11.153149820714285        6.8331437997285676        4.5610086869571411     
 He   -2.9114469635714286        9.2453495140142827        11.797625829814283     
 He   -15.374509820714284       -14.474673343128570        14.812882972671424     
 He    6.5363587507142817       -3.6197476288428589       -3.2786598844714288     
 He    7.3404273221428546       0.19957808544285527       -1.2684884559000009     
 He   0.50584446499999913        6.2300923711571379       -7.5000198844714285     
 He    9.3505987507142834       -2.2126276288428599       -2.2735741701857144     
 He    3.5211016078571404      -0.40347334312857441       -6.2385598757144223E-002
 He    5.7322901792857124       -5.0268676288428580       0.54066582981428546     
 He   -11.756201249285713       -13.670604771699999        15.415934401242854     
 He    5.9333073221428556       -4.4238162002714319      -0.46441988447142890     
 He    4.5261873221428566       -2.8156790574142896       -1.4695055987571433     
 He    9.1495816078571401      -0.80550762884286087       -1.0674713130428577     
 He    9.1495816078571401       0.40059522829999850       -2.6756084559000008     
 He   0.90787875071428559        6.0290752282999982       -7.2990027416142862     
 He    8.1444958935714276       0.40059522829999850       -1.0674713130428577     
 He    14.577044464999997       -14.675690485985713       -1.8715398844714288     
 He  -0.90127553500000346        5.2250066568714253       -7.0979855987571430     
 He   -11.354166963571426       -12.062467628842857        17.225088686957140     
 He   -14.369424106428571        12.662640942585707        16.622037258385710     
 He   -1.1022926778571431        6.2300923711571379       -8.3040884559000006     
 He    14.979078750714283       -13.670604771699999       0.13863154409999900     
 He   -14.570441249285713       -14.072639057414285        13.405762972671425     
 He    7.1394101792857114       -2.6146619145571464       -2.2735741701857144     
 He    8.9485644649999969       -4.2227990574142886      -0.26340274161428567     
 He    4.3251701792857133      -0.20245620027143119        3.3549058298142853     
 He   -14.570441249285713       -11.459416200271429        14.611865829814281     
 He    4.9282216078571395       -16.283827628842857       -3.4796770273285720     
 He    6.9383930364285682      -0.20245620027143119       -1.0674713130428577     
 He   -10.550098392142857        7.4361952282999972        6.1691458298142852     
 He    9.1495816078571401      -0.20245620027143119       0.33964868695714223     
 He   -13.163321249285712       -13.268570485985714        16.421020115528567     
