LAMMPS (22 Jul 2025 - Update 1)
units real
dimension 3
boundary p p p
atom_style full

region box block 0 50 0 50 0 50

create_box 3 box bond/types 1 angle/types 1 extra/bond/per/atom 5 extra/angle/per/atom 5 extra/special/per/atom 10
Created orthogonal box = (0 0 0) to (50 50 50)
  2 by 4 by 5 MPI processor grid

mass 1 1.0      # Unused type
mass 2 12.011   # C_CO2 (carbon in CO2)
mass 3 15.999   # O_CO2 (oxygen in CO2)

molecule co2template molecule_co2.dat
Read molecule template co2template:
# CO2 molecule template
  1 molecules
  0 fragments
  0 bodies
  3 atoms with max type 3
  2 bonds with max type 1
  1 angles with max type 1
  0 dihedrals with max type 0
  0 impropers with max type 0

pair_style lj/cut 14.0
pair_coeff 1 1 0.0 1.0         # Unused type
pair_coeff 2 2 0.053655 2.80   # C_CO2-C_CO2  # epsilon (kcal/mol), sigma (Angstrom)
pair_coeff 3 3 0.156989 3.05   # O_CO2-O_CO2  # epsilon (kcal/mol), sigma (Angstrom)

pair_modify mix arithmetic tail no

bond_style harmonic
bond_coeff 1 1000.0 1.16

angle_style harmonic
angle_coeff 1 1000.0 180.0

variable T equal 313.15
variable mu equal -4.600000000000019

timestep 0.5
fix thermostat all nvt temp ${T} ${T} 50.0
fix thermostat all nvt temp 313.15 ${T} 50.0
fix thermostat all nvt temp 313.15 313.15 50.0

fix gcmc all gcmc 2000 500 50 0 49284 ${T} ${mu} 0.5 mol co2template
fix gcmc all gcmc 2000 500 50 0 49284 313.15 ${mu} 0.5 mol co2template
fix gcmc all gcmc 2000 500 50 0 49284 313.15 -4.60000000000002 0.5 mol co2template

thermo_style custom step temp press atoms density
thermo 100

compute_modify thermo_temp dynamic/dof yes

run 200000
Generated 3 of 3 mixed pair_coeff terms from arithmetic mixing rule
0 atoms in group FixGCMC:rotation_gas_atoms:gcmc
WARNING: Fix gcmc is being applied to the default group all (../fix_gcmc.cpp:715)
Neighbor list info ...
  update: every = 1 steps, delay = 0 steps, check = yes
  max neighbors/atom: 2000, page size: 100000
  master list distance cutoff = 16
  ghost atom cutoff = 16
  binsize = 8, bins = 7 7 7
  1 neighbor lists, perpetual/occasional/extra = 1 0 0
  (1) pair lj/cut, perpetual
      attributes: half, newton on
      pair build: half/bin/newton
      stencil: half/bin/3d
      bin: standard
Per MPI rank memory allocation (min/avg/max) = 0.4497 | 0.4497 | 0.4497 Mbytes
   Step          Temp          Press         Atoms       Density    
         0   0              0                      0   0            
       100   117.11956      65.40088             603   0.11751048   
       200   117.37685      70.429634            603   0.11751048   
       300   119.9757       57.814485            603   0.11751048   
       400   120.2381       50.374916            603   0.11751048   
       500   119.72864      46.980415            603   0.11751048   
       600   120.75901      47.327045            603   0.11751048   
       700   120.21625      68.426305            603   0.11751048   
       800   120.9748       75.581752            603   0.11751048   
       900   122.17886      69.254124            603   0.11751048   
      1000   122.09741      60.994093            603   0.11751048   
      1100   123.20091      49.781559            603   0.11751048   
      1200   122.69688      59.103849            603   0.11751048   
      1300   123.44757      65.803935            603   0.11751048   
      1400   123.132        74.837428            603   0.11751048   
      1500   122.29882      75.24443             603   0.11751048   
      1600   123.57663      55.615129            603   0.11751048   
      1700   124.2046       46.315386            603   0.11751048   
      1800   124.80525      50.687816            603   0.11751048   
      1900   124.19814      63.409911            603   0.11751048   
      2000   124.59854      62.915164            603   0.11751048   
      2100   120.88014      71.930598           1059   0.20637413   
      2200   122.41419      60.098833           1059   0.20637413   
      2300   122.84982      64.675614           1059   0.20637413   
      2400   122.81729      57.422564           1059   0.20637413   
      2500   123.2163       36.562009           1059   0.20637413   
      2600   123.61821      31.756696           1059   0.20637413   
      2700   123.99007      55.88071            1059   0.20637413   
      2800   125.0849       79.326397           1059   0.20637413   
      2900   125.6176       89.127104           1059   0.20637413   
      3000   126.85531      70.508765           1059   0.20637413   
      3100   128.09306      49.785212           1059   0.20637413   
      3200   127.94161      64.639276           1059   0.20637413   
      3300   129.78266      82.926355           1059   0.20637413   
      3400   129.4548       116.97786           1059   0.20637413   
      3500   129.51715      123.15906           1059   0.20637413   
      3600   131.84654      75.270358           1059   0.20637413   
      3700   132.87574      50.850109           1059   0.20637413   
      3800   132.51032      66.213345           1059   0.20637413   
      3900   133.22118      87.044452           1059   0.20637413   
      4000   133.10419      100.97627           1059   0.20637413   
      4100   130.48836      49.981318           1467   0.28588371   
      4200   130.27615      53.157028           1467   0.28588371   
      4300   128.5709       93.570795           1467   0.28588371   
      4400   130.77053      80.206268           1467   0.28588371   
      4500   131.33888      83.310654           1467   0.28588371   
      4600   133.36516      60.244707           1467   0.28588371   
      4700   134.14733      61.809879           1467   0.28588371   
      4800   133.131        99.811841           1467   0.28588371   
      4900   134.95566      103.40892           1467   0.28588371   
      5000   132.94147      145.57036           1467   0.28588371   
      5100   135.42788      110.66913           1467   0.28588371   
      5200   137.1504       79.952143           1467   0.28588371   
      5300   138.17356      59.765318           1467   0.28588371   
      5400   138.18398      66.910729           1467   0.28588371   
      5500   137.18708      94.831965           1467   0.28588371   
      5600   136.96852      102.1216            1467   0.28588371   
      5700   138.30159      80.497698           1467   0.28588371   
      5800   136.63482      96.616607           1467   0.28588371   
      5900   137.66677      76.598289           1467   0.28588371   
      6000   138.18097      76.080875           1467   0.28588371   
      6100   142.09954      102.08111           1803   0.35136218   
      6200   143.4775       108.99803           1803   0.35136218   
      6300   144.19116      108.06813           1803   0.35136218   
      6400   143.5426       81.973765           1803   0.35136218   
      6500   141.56206      74.152194           1803   0.35136218   
      6600   142.27876      77.700686           1803   0.35136218   
      6700   143.09179      112.56611           1803   0.35136218   
      6800   143.69557      153.06888           1803   0.35136218   
      6900   142.75764      167.34986           1803   0.35136218   
      7000   145.82835      61.438634           1803   0.35136218   
      7100   145.84284      31.309652           1803   0.35136218   
      7200   145.72766      67.018762           1803   0.35136218   
      7300   145.12436      141.09105           1803   0.35136218   
      7400   146.28432      149.51829           1803   0.35136218   
      7500   147.70263      91.187897           1803   0.35136218   
      7600   149.55908      9.4195345           1803   0.35136218   
      7700   149.28171      9.3731724           1803   0.35136218   
      7800   148.0494       77.517977           1803   0.35136218   
      7900   150.32463      85.998952           1803   0.35136218   
      8000   149.32477      114.10741           1803   0.35136218   
      8100   146.01531      120.59963           2031   0.39579401   
      8200   147.78515      72.121965           2031   0.39579401   
      8300   147.58598      83.80539            2031   0.39579401   
      8400   148.35075      86.377732           2031   0.39579401   
      8500   149.1948       78.062318           2031   0.39579401   
      8600   148.0388       97.777086           2031   0.39579401   
      8700   147.80111      67.198801           2031   0.39579401   
      8800   150.06523      20.55574            2031   0.39579401   
      8900   148.97275      62.839017           2031   0.39579401   
      9000   148.5735       98.646202           2031   0.39579401   
      9100   149.38453      89.538088           2031   0.39579401   
      9200   148.64238      83.792486           2031   0.39579401   
      9300   150.57153      33.569331           2031   0.39579401   
      9400   151.16177      51.938738           2031   0.39579401   
      9500   149.02672      154.88523           2031   0.39579401   
      9600   150.08976      163.56948           2031   0.39579401   
      9700   151.00325      133.93312           2031   0.39579401   
      9800   153.11655      61.672029           2031   0.39579401   
      9900   152.76144      48.248576           2031   0.39579401   
     10000   150.58841      108.44701           2031   0.39579401   
     10100   151.07493      150.07554           2226   0.43379491   
     10200   152.28055      125.61841           2226   0.43379491   
     10300   153.33321      74.716592           2226   0.43379491   
     10400   153.29534      35.475566           2226   0.43379491   
     10500   152.13831      38.742097           2226   0.43379491   
     10600   153.05292      51.018272           2226   0.43379491   
     10700   152.45921      132.78429           2226   0.43379491   
     10800   150.5579       193.72455           2226   0.43379491   
     10900   152.93037      105.74507           2226   0.43379491   
     11000   153.42124      36.816854           2226   0.43379491   
     11100   151.1705       76.367312           2226   0.43379491   
     11200   152.37249      95.986335           2226   0.43379491   
     11300   153.93367      107.46105           2226   0.43379491   
     11400   152.03974      140.57174           2226   0.43379491   
     11500   151.65509      115.26251           2226   0.43379491   
     11600   153.58981      40.395335           2226   0.43379491   
     11700   154.25065      41.087463           2226   0.43379491   
     11800   153.08628      117.5752            2226   0.43379491   
     11900   155.61321      88.018917           2226   0.43379491   
     12000   157.19689      43.34039            2226   0.43379491   
     12100   157.88406      93.642468           2415   0.47062655   
     12200   158.26485      123.10517           2415   0.47062655   
     12300   159.58527      142.94641           2415   0.47062655   
     12400   161.06604      112.71429           2415   0.47062655   
     12500   160.66777      85.685784           2415   0.47062655   
     12600   159.5657       81.276106           2415   0.47062655   
     12700   159.03194      116.63185           2415   0.47062655   
     12800   160.55418      140.44719           2415   0.47062655   
     12900   161.16521      151.0199            2415   0.47062655   
     13000   161.32344      119.04638           2415   0.47062655   
     13100   160.98073      75.567496           2415   0.47062655   
     13200   160.86201      54.673787           2415   0.47062655   
     13300   161.91172      56.108158           2415   0.47062655   
     13400   161.94283      113.63649           2415   0.47062655   
     13500   160.36049      170.81171           2415   0.47062655   
     13600   159.11567      172.78234           2415   0.47062655   
     13700   162.88045      38.529182           2415   0.47062655   
     13800   161.2682       77.917833           2415   0.47062655   
     13900   161.60623      120.19444           2415   0.47062655   
     14000   162.87138      150.03675           2415   0.47062655   
     14100   160.07247      196.03901           2592   0.50511968   
     14200   160.75106      149.50258           2592   0.50511968   
     14300   161.60416      85.759292           2592   0.50511968   
     14400   162.38871      56.433616           2592   0.50511968   
     14500   160.89357      144.33355           2592   0.50511968   
     14600   159.6795       212.19882           2592   0.50511968   
     14700   161.67417      158.57174           2592   0.50511968   
     14800   161.67488      125.41217           2592   0.50511968   
     14900   160.18399      137.69822           2592   0.50511968   
     15000   161.23724      121.16963           2592   0.50511968   
     15100   163.26449      108.0066            2592   0.50511968   
     15200   161.38541      163.89053           2592   0.50511968   
     15300   164.07075      70.221368           2592   0.50511968   
     15400   163.23294      52.380278           2592   0.50511968   
     15500   163.52996      43.129783           2592   0.50511968   
     15600   161.41118      135.73614           2592   0.50511968   
     15700   161.98957      169.33647           2592   0.50511968   
     15800   162.96362      178.72953           2592   0.50511968   
     15900   162.32268      176.9207            2592   0.50511968   
     16000   160.80548      175.39891           2592   0.50511968   
     16100   164.99418      151.59532           2709   0.52792022   
     16200   167.51614      119.94511           2709   0.52792022   
     16300   165.10398      230.17519           2709   0.52792022   
     16400   165.4671       214.60002           2709   0.52792022   
     16500   165.82297      165.00407           2709   0.52792022   
     16600   166.68007      140.53249           2709   0.52792022   
     16700   167.55538      173.02336           2709   0.52792022   
     16800   167.55701      237.64379           2709   0.52792022   
     16900   168.20234      251.99405           2709   0.52792022   
     17000   167.80303      202.48958           2709   0.52792022   
     17100   166.38425      166.80718           2709   0.52792022   
     17200   166.97405      139.14642           2709   0.52792022   
     17300   165.61501      207.81598           2709   0.52792022   
     17400   167.41899      209.21143           2709   0.52792022   
     17500   166.08993      227.90044           2709   0.52792022   
     17600   165.97021      178.00757           2709   0.52792022   
     17700   166.32735      115.92364           2709   0.52792022   
     17800   166.88356      102.19076           2709   0.52792022   
     17900   166.07745      170.05004           2709   0.52792022   
     18000   165.04184      227.1956            2709   0.52792022   
     18100   166.00777      159.12697           2841   0.55364391   
     18200   165.63681      129.90061           2841   0.55364391   
     18300   166.68033      82.966566           2841   0.55364391   
     18400   166.3625       127.83185           2841   0.55364391   
     18500   164.61819      224.15289           2841   0.55364391   
     18600   167.75652      159.46869           2841   0.55364391   
     18700   168.26069      131.27887           2841   0.55364391   
     18800   166.59563      133.54749           2841   0.55364391   
     18900   166.95411      141.24427           2841   0.55364391   
     19000   166.97483      186.00724           2841   0.55364391   
     19100   166.87648      241.10073           2841   0.55364391   
     19200   168.798        191.30343           2841   0.55364391   
     19300   169.8158       130.50453           2841   0.55364391   
     19400   167.92271      166.04852           2841   0.55364391   
     19500   167.06152      195.59904           2841   0.55364391   
     19600   168.40796      166.46915           2841   0.55364391   
     19700   168.33254      189.15533           2841   0.55364391   
     19800   167.72095      163.98228           2841   0.55364391   
     19900   167.74876      115.19907           2841   0.55364391   
     20000   168.93025      65.836532           2841   0.55364391   
     20100   168.27308      116.59893           2952   0.57527519   
     20200   168.04748      187.66403           2952   0.57527519   
     20300   167.50103      210.89053           2952   0.57527519   
     20400   168.76422      118.71102           2952   0.57527519   
     20500   169.3431       38.857817           2952   0.57527519   
     20600   167.98055      79.965562           2952   0.57527519   
     20700   167.12505      172.84804           2952   0.57527519   
     20800   167.79046      222.39216           2952   0.57527519   
     20900   168.04875      204.39491           2952   0.57527519   
     21000   168.45613      116.41676           2952   0.57527519   
     21100   169.30985      52.595273           2952   0.57527519   
     21200   170.6443       53.386703           2952   0.57527519   
     21300   168.91276      202.69185           2952   0.57527519   
     21400   167.30457      316.61098           2952   0.57527519   
     21500   169.08189      236.48424           2952   0.57527519   
     21600   169.85763      147.45092           2952   0.57527519   
     21700   168.08983      202.54461           2952   0.57527519   
     21800   168.61113      239.6646            2952   0.57527519   
     21900   168.46576      294.08398           2952   0.57527519   
     22000   168.96976      281.08225           2952   0.57527519   
     22100   171.79695      182.43692           3069   0.59807573   
     22200   172.75192      108.04391           3069   0.59807573   
     22300   170.00264      206.26109           3069   0.59807573   
     22400   170.57063      224.23499           3069   0.59807573   
     22500   172.23003      199.32626           3069   0.59807573   
     22600   170.67183      216.80202           3069   0.59807573   
     22700   169.95889      195.64733           3069   0.59807573   
     22800   172.11238      114.68026           3069   0.59807573   
     22900   169.265        242.2424            3069   0.59807573   
     23000   170.46697      248.65729           3069   0.59807573   
     23100   171.07671      247.12575           3069   0.59807573   
     23200   170.45382      241.38307           3069   0.59807573   
     23300   171.87914      173.17171           3069   0.59807573   
     23400   172.5032       161.34008           3069   0.59807573   
     23500   173.07596      171.03318           3069   0.59807573   
     23600   170.74457      262.6759            3069   0.59807573   
     23700   171.81686      220.80252           3069   0.59807573   
     23800   171.83854      197.42992           3069   0.59807573   
     23900   172.60185      145.82338           3069   0.59807573   
     24000   170.54655      217.88215           3069   0.59807573   
     24100   172.16871      279.9142            3150   0.61386072   
     24200   171.78443      350.94252           3150   0.61386072   
     24300   171.78733      298.51873           3150   0.61386072   
     24400   173.15047      174.06848           3150   0.61386072   
     24500   175.26089      52.958818           3150   0.61386072   
     24600   172.14772      168.79367           3150   0.61386072   
     24700   171.61887      270.16121           3150   0.61386072   
     24800   172.88879      263.05326           3150   0.61386072   
     24900   174.30797      199.65002           3150   0.61386072   
     25000   174.7483       142.42326           3150   0.61386072   
     25100   174.72708      144.70087           3150   0.61386072   
     25200   174.6716       209.20662           3150   0.61386072   
     25300   174.88173      291.93875           3150   0.61386072   
     25400   174.85432      306.53911           3150   0.61386072   
     25500   176.34344      208.79154           3150   0.61386072   
     25600   176.66104      152.08137           3150   0.61386072   
     25700   174.61195      243.72855           3150   0.61386072   
     25800   174.55124      298.59654           3150   0.61386072   
     25900   175.14356      315.43787           3150   0.61386072   
     26000   176.93394      230.35764           3150   0.61386072   
     26100   174.20948      271.12304           3240   0.6313996    
     26200   175.16571      229.87363           3240   0.6313996    
     26300   176.25906      220.43207           3240   0.6313996    
     26400   174.80578      309.17303           3240   0.6313996    
     26500   177.23754      232.891             3240   0.6313996    
     26600   175.08716      265.88122           3240   0.6313996    
     26700   176.39751      193.71923           3240   0.6313996    
     26800   175.40904      250.68175           3240   0.6313996    
     26900   175.80378      285.62311           3240   0.6313996    
     27000   174.31114      366.99396           3240   0.6313996    
     27100   175.13997      311.26878           3240   0.6313996    
     27200   175.60306      226.75234           3240   0.6313996    
     27300   176.27739      159.60315           3240   0.6313996    
     27400   176.06931      165.31893           3240   0.6313996    
     27500   175.99565      186.09682           3240   0.6313996    
     27600   175.13578      242.2833            3240   0.6313996    
     27700   175.52653      215.51555           3240   0.6313996    
     27800   175.13593      205.82668           3240   0.6313996    
     27900   173.18435      275.44494           3240   0.6313996    
     28000   175.7766       236.57539           3240   0.6313996    
     28100   177.89013      319.90886           3336   0.65010774   
     28200   177.61848      353.23623           3336   0.65010774   
     28300   178.14692      301.55514           3336   0.65010774   
     28400   178.33733      227.3545            3336   0.65010774   
     28500   178.42907      230.06507           3336   0.65010774   
     28600   177.76253      324.08104           3336   0.65010774   
     28700   177.07503      432.61845           3336   0.65010774   
     28800   178.43861      377.29898           3336   0.65010774   
     28900   181.06938      223.17756           3336   0.65010774   
     29000   178.17715      263.45429           3336   0.65010774   
     29100   177.80115      296.53745           3336   0.65010774   
     29200   179.05856      302.86112           3336   0.65010774   
     29300   179.95978      307.41392           3336   0.65010774   
     29400   179.62317      310.41048           3336   0.65010774   
     29500   179.68728      244.3977            3336   0.65010774   
     29600   179.40489      203.56094           3336   0.65010774   
     29700   179.70175      240.14472           3336   0.65010774   
     29800   178.72056      342.92313           3336   0.65010774   
     29900   178.38311      369.14534           3336   0.65010774   
     30000   178.2394       329.21486           3336   0.65010774   
     30100   177.58849      325.76551           3411   0.66472347   
     30200   178.03093      312.47225           3411   0.66472347   
     30300   180.42318      259.42503           3411   0.66472347   
     30400   180.97908      243.57124           3411   0.66472347   
     30500   179.40069      249.26957           3411   0.66472347   
     30600   179.75313      182.87991           3411   0.66472347   
     30700   179.63879      165.65642           3411   0.66472347   
     30800   178.58773      260.22575           3411   0.66472347   
     30900   178.19605      335.11443           3411   0.66472347   
     31000   180.49259      265.40002           3411   0.66472347   
     31100   178.76311      273.94678           3411   0.66472347   
     31200   177.56332      271.12705           3411   0.66472347   
     31300   179.03931      237.0872            3411   0.66472347   
     31400   180.51004      248.19131           3411   0.66472347   
     31500   180.18699      314.02697           3411   0.66472347   
     31600   179.9954       276.58234           3411   0.66472347   
     31700   178.97848      245.12838           3411   0.66472347   
     31800   176.9968       280.71108           3411   0.66472347   
     31900   176.85442      325.89911           3411   0.66472347   
     32000   178.73555      327.9783            3411   0.66472347   
     32100   179.4962       411.49575           3477   0.67758531   
     32200   180.41048      352.93671           3477   0.67758531   
     32300   179.81667      327.68823           3477   0.67758531   
     32400   181.66905      243.63112           3477   0.67758531   
     32500   180.72406      291.68447           3477   0.67758531   
     32600   179.70282      386.56921           3477   0.67758531   
     32700   181.19432      369.31773           3477   0.67758531   
     32800   181.42204      321.72791           3477   0.67758531   
     32900   180.31545      297.66269           3477   0.67758531   
     33000   182.24444      223.60768           3477   0.67758531   
     33100   181.69767      274.86911           3477   0.67758531   
     33200   179.4013       415.45406           3477   0.67758531   
     33300   180.6729       391.26573           3477   0.67758531   
     33400   179.01904      398.31957           3477   0.67758531   
     33500   183.01988      199.2669            3477   0.67758531   
     33600   182.49934      184.65852           3477   0.67758531   
     33700   181.78278      270.649             3477   0.67758531   
     33800   178.39567      447.39721           3477   0.67758531   
     33900   179.8184       382.67766           3477   0.67758531   
     34000   182.40204      243.16056           3477   0.67758531   
     34100   182.99728      273.11467           3552   0.69220104   
     34200   183.19694      331.80964           3552   0.69220104   
     34300   183.30985      403.31544           3552   0.69220104   
     34400   184.86525      369.19977           3552   0.69220104   
     34500   182.73364      386.45202           3552   0.69220104   
     34600   184.26227      287.01914           3552   0.69220104   
     34700   184.82779      285.30819           3552   0.69220104   
     34800   184.7558       357.33658           3552   0.69220104   
     34900   183.92035      439.64007           3552   0.69220104   
     35000   184.72132      376.0445            3552   0.69220104   
     35100   184.11104      319.4606            3552   0.69220104   
     35200   182.572        335.05205           3552   0.69220104   
     35300   183.86824      337.52523           3552   0.69220104   
     35400   185.6507       329.89094           3552   0.69220104   
     35500   186.25965      352.44428           3552   0.69220104   
     35600   185.54813      349.66533           3552   0.69220104   
     35700   183.59627      372.75502           3552   0.69220104   
     35800   184.77274      313.05911           3552   0.69220104   
     35900   186.76622      296.14432           3552   0.69220104   
     36000   185.91353      386.79669           3552   0.69220104   
     36100   184.5463       489.42395           3591   0.69980122   
     36200   185.88607      380.42034           3591   0.69980122   
     36300   184.60581      394.67337           3591   0.69980122   
     36400   184.18689      398.7503            3591   0.69980122   
     36500   184.44124      418.55389           3591   0.69980122   
     36600   186.03131      379.32187           3591   0.69980122   
     36700   185.72936      373.40257           3591   0.69980122   
     36800   185.40908      329.31389           3591   0.69980122   
     36900   184.46932      340.06888           3591   0.69980122   
     37000   185.67846      342.50163           3591   0.69980122   
     37100   185.5671       402.66795           3591   0.69980122   
     37200   184.96186      439.57689           3591   0.69980122   
     37300   185.25144      391.64564           3591   0.69980122   
     37400   184.91407      349.78332           3591   0.69980122   
     37500   185.15235      328.08123           3591   0.69980122   
     37600   185.7413       346.54216           3591   0.69980122   
     37700   186.43996      382.84966           3591   0.69980122   
     37800   186.8275       375.63809           3591   0.69980122   
     37900   186.5308       340.2735            3591   0.69980122   
     38000   186.15811      332.84755           3591   0.69980122   
     38100   185.92897      355.52068           3645   0.71032455   
     38200   183.30547      514.48248           3645   0.71032455   
     38300   185.18354      509.54138           3645   0.71032455   
     38400   186.41633      406.46944           3645   0.71032455   
     38500   186.04875      341.85734           3645   0.71032455   
     38600   188.68456      244.77939           3645   0.71032455   
     38700   185.67664      411.62532           3645   0.71032455   
     38800   187.42011      442.32697           3645   0.71032455   
     38900   184.69109      557.32786           3645   0.71032455   
     39000   185.27053      466.82666           3645   0.71032455   
     39100   185.36499      374.5798            3645   0.71032455   
     39200   188.19357      262.81951           3645   0.71032455   
     39300   185.36435      415.35915           3645   0.71032455   
     39400   185.82098      477.20165           3645   0.71032455   
     39500   184.95392      497.54609           3645   0.71032455   
     39600   184.45813      467.27821           3645   0.71032455   
     39700   186.55959      330.33337           3645   0.71032455   
     39800   186.31216      362.1638            3645   0.71032455   
     39900   183.46086      530.67723           3645   0.71032455   
     40000   184.52362      550.97573           3645   0.71032455   
     40100   185.87059      436.0206            3681   0.7173401    
     40200   186.39822      332.92459           3681   0.7173401    
     40300   187.43743      266.88893           3681   0.7173401    
     40400   186.29964      333.09431           3681   0.7173401    
     40500   185.4892       424.90262           3681   0.7173401    
     40600   185.41823      436.00437           3681   0.7173401    
     40700   186.18347      357.4152            3681   0.7173401    
     40800   186.28425      292.47196           3681   0.7173401    
     40900   185.24686      325.96133           3681   0.7173401    
     41000   186.47829      317.38511           3681   0.7173401    
     41100   186.32173      357.41417           3681   0.7173401    
     41200   185.94622      376.20258           3681   0.7173401    
     41300   187.45022      294.19831           3681   0.7173401    
     41400   185.3559       366.76128           3681   0.7173401    
     41500   184.46854      466.98621           3681   0.7173401    
     41600   183.79627      561.36725           3681   0.7173401    
     41700   187.19676      459.02854           3681   0.7173401    
     41800   185.62305      467.7492            3681   0.7173401    
     41900   187.1362       358.34108           3681   0.7173401    
     42000   186.92781      341.47631           3681   0.7173401    
     42100   187.57732      383.88412           3726   0.72610954   
     42200   187.2131       468.12108           3726   0.72610954   
     42300   188.15563      449.46425           3726   0.72610954   
     42400   186.74063      429.86265           3726   0.72610954   
     42500   187.26649      362.59257           3726   0.72610954   
     42600   186.7846       407.58299           3726   0.72610954   
     42700   185.30463      535.39077           3726   0.72610954   
     42800   186.16456      561.17956           3726   0.72610954   
     42900   187.66411      462.98309           3726   0.72610954   
     43000   189.71906      318.10804           3726   0.72610954   
     43100   187.53648      369.20629           3726   0.72610954   
     43200   186.76242      455.55334           3726   0.72610954   
     43300   186.68872      533.71699           3726   0.72610954   
     43400   189.83864      439.05214           3726   0.72610954   
     43500   186.91619      488.4077            3726   0.72610954   
     43600   187.46038      417.22283           3726   0.72610954   
     43700   189.17228      317.22281           3726   0.72610954   
     43800   189.3465       340.59746           3726   0.72610954   
     43900   188.98393      411.25306           3726   0.72610954   
     44000   190.15047      398.46418           3726   0.72610954   
     44100   187.37458      426.01215           3759   0.73254046   
     44200   188.6718       336.52428           3759   0.73254046   
     44300   187.31488      382.57023           3759   0.73254046   
     44400   186.5886       461.33974           3759   0.73254046   
     44500   187.02487      490.6993            3759   0.73254046   
     44600   186.14999      479.6027            3759   0.73254046   
     44700   187.06885      403.09672           3759   0.73254046   
     44800   185.98635      402.79514           3759   0.73254046   
     44900   186.43837      417.43775           3759   0.73254046   
     45000   186.24368      490.18856           3759   0.73254046   
     45100   187.30365      442.5914            3759   0.73254046   
     45200   187.36007      390.16212           3759   0.73254046   
     45300   188.96944      267.07893           3759   0.73254046   
     45400   186.88779      383.24489           3759   0.73254046   
     45500   185.50853      500.82214           3759   0.73254046   
     45600   186.60117      518.77777           3759   0.73254046   
     45700   187.20799      491.34379           3759   0.73254046   
     45800   188.45572      361.43341           3759   0.73254046   
     45900   186.64401      359.75029           3759   0.73254046   
     46000   186.01808      412.01343           3759   0.73254046   
     46100   188.26294      460.04791           3810   0.74247916   
     46200   190.25535      448.79843           3810   0.74247916   
     46300   186.58057      585.97262           3810   0.74247916   
     46400   183.67781      600.39275           3810   0.74247916   
     46500   185.58421      480.46955           3810   0.74247916   
     46600   187.57443      460.4891            3810   0.74247916   
     46700   186.72954      606.23598           3810   0.74247916   
     46800   184.49148      720.92483           3810   0.74247916   
     46900   188.34934      492.26963           3810   0.74247916   
     47000   187.40652      460.49603           3810   0.74247916   
     47100   188.27792      402.00271           3810   0.74247916   
     47200   188.27741      473.58017           3810   0.74247916   
     47300   187.17994      580.30962           3810   0.74247916   
     47400   188.21445      532.75625           3810   0.74247916   
     47500   188.06521      453.406             3810   0.74247916   
     47600   188.94791      355.10586           3810   0.74247916   
     47700   189.40789      351.197             3810   0.74247916   
     47800   187.17016      510.95528           3810   0.74247916   
     47900   185.85027      615.11217           3810   0.74247916   
     48000   187.64103      509.20217           3810   0.74247916   
     48100   187.99818      401.27231           3840   0.74832545   
     48200   188.92597      334.89268           3840   0.74832545   
     48300   188.74123      384.36707           3840   0.74832545   
     48400   189.00775      465.0926            3840   0.74832545   
     48500   187.20106      570.9315            3840   0.74832545   
     48600   186.94347      531.44005           3840   0.74832545   
     48700   188.24683      400.44981           3840   0.74832545   
     48800   189.14416      351.90498           3840   0.74832545   
     48900   188.41367      456.6426            3840   0.74832545   
     49000   190.20115      439.87454           3840   0.74832545   
     49100   188.78404      474.97409           3840   0.74832545   
     49200   188.97525      424.57099           3840   0.74832545   
     49300   189.26423      381.19855           3840   0.74832545   
     49400   188.9358       467.48821           3840   0.74832545   
     49500   187.14481      623.6107            3840   0.74832545   
     49600   188.76428      606.96356           3840   0.74832545   
     49700   188.88914      555.02166           3840   0.74832545   
     49800   188.20973      494.61852           3840   0.74832545   
     49900   186.03709      540.65049           3840   0.74832545   
     50000   190.76586      431.98524           3840   0.74832545   
     50100   190.13439      568.93026           3888   0.75767952   
     50200   190.31967      566.01122           3888   0.75767952   
     50300   190.38426      515.02703           3888   0.75767952   
     50400   191.50724      407.27451           3888   0.75767952   
     50500   190.5914       408.30149           3888   0.75767952   
     50600   191.18358      434.67769           3888   0.75767952   
     50700   190.88929      506.88657           3888   0.75767952   
     50800   189.99578      554.4209            3888   0.75767952   
     50900   190.07289      492.61653           3888   0.75767952   
     51000   191.62513      394.47096           3888   0.75767952   
     51100   192.01377      397.52867           3888   0.75767952   
     51200   192.78053      452.33447           3888   0.75767952   
     51300   191.02044      570.67962           3888   0.75767952   
     51400   192.61667      512.85497           3888   0.75767952   
     51500   192.50766      477.1151            3888   0.75767952   
     51600   189.60941      544.0668            3888   0.75767952   
     51700   190.48915      535.97003           3888   0.75767952   
     51800   190.93634      544.30114           3888   0.75767952   
     51900   191.35742      528.44875           3888   0.75767952   
     52000   192.4012       439.37083           3888   0.75767952   
     52100   191.66228      450.78678           3927   0.7652797    
     52200   193.0432       442.65598           3927   0.7652797    
     52300   191.17857      565.59476           3927   0.7652797    
     52400   190.48975      625.71574           3927   0.7652797    
     52500   192.48282      525.08011           3927   0.7652797    
     52600   192.06823      492.71958           3927   0.7652797    
     52700   190.96656      511.65142           3927   0.7652797    
     52800   190.82154      550.97078           3927   0.7652797    
     52900   192.82011      533.79431           3927   0.7652797    
     53000   194.64551      480.30487           3927   0.7652797    
     53100   193.9648       463.15846           3927   0.7652797    
     53200   191.89503      505.51921           3927   0.7652797    
     53300   193.94607      458.54762           3927   0.7652797    
     53400   190.66001      645.74617           3927   0.7652797    
     53500   191.14747      675.69761           3927   0.7652797    
     53600   190.91507      643.36013           3927   0.7652797    
     53700   193.60053      454.11537           3927   0.7652797    
     53800   192.9954       446.84446           3927   0.7652797    
     53900   191.38205      489.57613           3927   0.7652797    
     54000   191.57423      509.10069           3927   0.7652797    
     54100   193.82961      500.09636           3972   0.77404914   
     54200   192.08077      555.64855           3972   0.77404914   
     54300   192.58081      495.51277           3972   0.77404914   
     54400   191.79695      457.48138           3972   0.77404914   
     54500   194.03044      362.96181           3972   0.77404914   
     54600   192.29247      497.52915           3972   0.77404914   
     54700   190.30137      613.7865            3972   0.77404914   
     54800   191.20644      601.00634           3972   0.77404914   
     54900   190.914        577.64818           3972   0.77404914   
     55000   192.14825      506.72024           3972   0.77404914   
     55100   191.92718      543.1596            3972   0.77404914   
     55200   190.96956      620.02497           3972   0.77404914   
     55300   193.5445       558.09887           3972   0.77404914   
     55400   194.79712      489.40364           3972   0.77404914   
     55500   191.53633      599.5255            3972   0.77404914   
     55600   191.34627      603.85919           3972   0.77404914   
     55700   193.01773      547.65751           3972   0.77404914   
     55800   193.58075      567.39186           3972   0.77404914   
     55900   193.91885      561.98364           3972   0.77404914   
     56000   193.57303      523.91007           3972   0.77404914   
     56100   192.17837      543.78685           4008   0.78106469   
     56200   194.72517      456.62419           4008   0.78106469   
     56300   193.21557      570.13144           4008   0.78106469   
     56400   193.49121      578.46723           4008   0.78106469   
     56500   193.49159      562.10207           4008   0.78106469   
     56600   193.34742      520.83531           4008   0.78106469   
     56700   193.26048      504.80347           4008   0.78106469   
     56800   194.6741       470.05125           4008   0.78106469   
     56900   192.69723      614.56941           4008   0.78106469   
     57000   192.23727      634.98085           4008   0.78106469   
     57100   191.8276       626.66101           4008   0.78106469   
     57200   191.84736      584.18426           4008   0.78106469   
     57300   192.02094      540.26491           4008   0.78106469   
     57400   192.91681      521.13755           4008   0.78106469   
     57500   195.444        456.30632           4008   0.78106469   
     57600   191.61305      608.10039           4008   0.78106469   
     57700   190.97161      592.6783            4008   0.78106469   
     57800   191.79624      554.60517           4008   0.78106469   
     57900   192.92649      547.19566           4008   0.78106469   
     58000   193.00483      608.45887           4008   0.78106469   
     58100   192.28773      646.39068           4035   0.78632635   
     58200   191.72542      674.78989           4035   0.78632635   
     58300   194.28003      535.51697           4035   0.78632635   
     58400   193.28351      531.44423           4035   0.78632635   
     58500   193.15207      543.58339           4035   0.78632635   
     58600   193.12197      572.65196           4035   0.78632635   
     58700   191.63509      651.09632           4035   0.78632635   
     58800   193.16529      570.75782           4035   0.78632635   
     58900   193.91403      493.35956           4035   0.78632635   
     59000   194.20145      473.27373           4035   0.78632635   
     59100   193.15689      563.74119           4035   0.78632635   
     59200   191.99197      656.86043           4035   0.78632635   
     59300   194.13797      587.64844           4035   0.78632635   
     59400   193.23303      590.04114           4035   0.78632635   
     59500   195.72891      474.34248           4035   0.78632635   
     59600   195.02218      505.71104           4035   0.78632635   
     59700   195.12929      555.06511           4035   0.78632635   
     59800   193.02231      693.56445           4035   0.78632635   
     59900   193.59159      660.6477            4035   0.78632635   
     60000   194.19806      589.90552           4035   0.78632635   
     60100   192.99756      610.66458           4068   0.79275728   
     60200   193.72232      596.14478           4068   0.79275728   
     60300   192.93547      690.30554           4068   0.79275728   
     60400   192.67547      720.19424           4068   0.79275728   
     60500   193.69755      611.90725           4068   0.79275728   
     60600   196.07473      448.66835           4068   0.79275728   
     60700   194.40895      479.58422           4068   0.79275728   
     60800   194.15472      523.76171           4068   0.79275728   
     60900   193.92072      587.05749           4068   0.79275728   
     61000   193.54769      589.47817           4068   0.79275728   
     61100   192.88241      598.5576            4068   0.79275728   
     61200   192.30339      565.67692           4068   0.79275728   
     61300   194.89603      455.45983           4068   0.79275728   
     61400   191.63344      658.37581           4068   0.79275728   
     61500   193.56173      618.61334           4068   0.79275728   
     61600   196.56235      480.06242           4068   0.79275728   
     61700   192.73265      606.15002           4068   0.79275728   
     61800   189.91824      674.8603            4068   0.79275728   
     61900   196.75489      414.91496           4068   0.79275728   
     62000   194.7971       552.93978           4068   0.79275728   
     62100   194.37921      617.48727           4104   0.79977283   
     62200   194.03333      637.63129           4104   0.79977283   
     62300   194.02785      580.71507           4104   0.79977283   
     62400   192.73675      628.57283           4104   0.79977283   
     62500   192.19676      705.8489            4104   0.79977283   
     62600   191.93352      782.31814           4104   0.79977283   
     62700   192.6534       760.85561           4104   0.79977283   
     62800   194.34179      649.3208            4104   0.79977283   
     62900   197.20406      448.75765           4104   0.79977283   
     63000   196.06897      495.01847           4104   0.79977283   
     63100   194.07913      632.36125           4104   0.79977283   
     63200   193.59915      705.51989           4104   0.79977283   
     63300   195.71865      644.9396            4104   0.79977283   
     63400   192.76123      713.8744            4104   0.79977283   
     63500   194.03467      629.74409           4104   0.79977283   
     63600   193.97256      663.92696           4104   0.79977283   
     63700   193.73802      692.40717           4104   0.79977283   
     63800   194.69155      660.27695           4104   0.79977283   
     63900   195.1092       621.42777           4104   0.79977283   
     64000   192.87897      679.46159           4104   0.79977283   
     64100   193.92416      626.76691           4122   0.8032806    
     64200   192.96222      700.88275           4122   0.8032806    
     64300   192.84148      763.04652           4122   0.8032806    
     64400   194.12252      727.18264           4122   0.8032806    
     64500   194.39487      648.52032           4122   0.8032806    
     64600   194.97647      562.96668           4122   0.8032806    
     64700   194.22597      576.90812           4122   0.8032806    
     64800   195.20056      570.16604           4122   0.8032806    
     64900   195.6734       600.44459           4122   0.8032806    
     65000   195.23479      611.04068           4122   0.8032806    
     65100   194.20775      589.36264           4122   0.8032806    
     65200   193.92585      580.25506           4122   0.8032806    
     65300   195.1972       561.98519           4122   0.8032806    
     65400   192.62922      719.13132           4122   0.8032806    
     65500   194.18482      676.54538           4122   0.8032806    
     65600   191.08165      755.84262           4122   0.8032806    
     65700   195.94403      502.53258           4122   0.8032806    
     65800   194.47436      552.48312           4122   0.8032806    
     65900   191.43313      705.21442           4122   0.8032806    
     66000   195.05627      605.31265           4122   0.8032806    
     66100   193.39661      679.20256           4161   0.81088078   
     66200   195.20082      593.20661           4161   0.81088078   
     66300   196.26397      508.49032           4161   0.81088078   
     66400   194.32128      582.51575           4161   0.81088078   
     66500   194.36323      624.2895            4161   0.81088078   
     66600   190.95477      804.52316           4161   0.81088078   
     66700   194.98072      661.96918           4161   0.81088078   
     66800   196.47238      576.30143           4161   0.81088078   
     66900   194.07919      658.40141           4161   0.81088078   
     67000   194.38227      624.73052           4161   0.81088078   
     67100   196.29059      578.86681           4161   0.81088078   
     67200   197.439        568.54745           4161   0.81088078   
     67300   195.488        629.45667           4161   0.81088078   
     67400   195.55377      597.66425           4161   0.81088078   
     67500   195.71892      599.526             4161   0.81088078   
     67600   194.47418      647.73813           4161   0.81088078   
     67700   195.10569      660.22448           4161   0.81088078   
     67800   197.54998      595.04581           4161   0.81088078   
     67900   194.99038      677.2988            4161   0.81088078   
     68000   195.0621       669.01715           4161   0.81088078   
     68100   196.92343      636.8795            4194   0.8173117    
     68200   196.08769      710.21551           4194   0.8173117    
     68300   196.27672      719.16738           4194   0.8173117    
     68400   195.4142       729.51297           4194   0.8173117    
     68500   194.32881      685.00813           4194   0.8173117    
     68600   194.84643      670.09208           4194   0.8173117    
     68700   194.3179       719.48409           4194   0.8173117    
     68800   196.48532      704.79485           4194   0.8173117    
     68900   195.53173      727.72431           4194   0.8173117    
     69000   195.23028      686.15383           4194   0.8173117    
     69100   196.02671      616.82173           4194   0.8173117    
     69200   196.0978       616.06992           4194   0.8173117    
     69300   195.71485      696.97012           4194   0.8173117    
     69400   195.4446       765.98585           4194   0.8173117    
     69500   196.69487      688.51762           4194   0.8173117    
     69600   196.17206      642.62822           4194   0.8173117    
     69700   192.38007      757.89539           4194   0.8173117    
     69800   194.05829      714.44945           4194   0.8173117    
     69900   194.77333      737.56143           4194   0.8173117    
     70000   193.74011      814.4983            4194   0.8173117    
     70100   195.89018      686.98095           4212   0.82081948   
     70200   194.65773      681.28833           4212   0.82081948   
     70300   196.44256      579.45819           4212   0.82081948   
     70400   195.83235      645.97971           4212   0.82081948   
     70500   197.18582      659.37111           4212   0.82081948   
     70600   194.89968      768.63388           4212   0.82081948   
     70700   195.5925       680.87189           4212   0.82081948   
     70800   195.45168      654.91485           4212   0.82081948   
     70900   195.57792      666.34131           4212   0.82081948   
     71000   194.37602      771.17544           4212   0.82081948   
     71100   195.71431      733.28535           4212   0.82081948   
     71200   194.94365      759.96653           4212   0.82081948   
     71300   195.37245      670.20574           4212   0.82081948   
     71400   195.74839      639.20934           4212   0.82081948   
     71500   193.88636      765.77963           4212   0.82081948   
     71600   196.00512      737.76163           4212   0.82081948   
     71700   195.40231      779.15229           4212   0.82081948   
     71800   196.47324      692.82205           4212   0.82081948   
     71900   197.63161      593.55211           4212   0.82081948   
     72000   196.67065      624.69502           4212   0.82081948   
     72100   198.08002      611.21321           4233   0.82491188   
     72200   195.03972      834.89252           4233   0.82491188   
     72300   196.46158      820.30921           4233   0.82491188   
     72400   197.34165      714.19521           4233   0.82491188   
     72500   196.81839      626.88252           4233   0.82491188   
     72600   198.03016      546.17622           4233   0.82491188   
     72700   197.15746      648.4158            4233   0.82491188   
     72800   197.8691       722.89856           4233   0.82491188   
     72900   195.7754       811.9874            4233   0.82491188   
     73000   196.57746      678.2158            4233   0.82491188   
     73100   199.81868      478.00579           4233   0.82491188   
     73200   196.68105      636.58645           4233   0.82491188   
     73300   196.277        737.94141           4233   0.82491188   
     73400   197.84662      739.82299           4233   0.82491188   
     73500   195.43144      783.91951           4233   0.82491188   
     73600   196.90364      647.49831           4233   0.82491188   
     73700   197.12886      604.48481           4233   0.82491188   
     73800   196.95582      635.62589           4233   0.82491188   
     73900   195.61814      775.40436           4233   0.82491188   
     74000   198.53865      663.20364           4233   0.82491188   
     74100   197.8395       631.76199           4257   0.82958892   
     74200   195.95395      655.3318            4257   0.82958892   
     74300   197.30661      609.83706           4257   0.82958892   
     74400   196.32037      723.45832           4257   0.82958892   
     74500   194.23215      891.55166           4257   0.82958892   
     74600   196.64228      797.03013           4257   0.82958892   
     74700   199.29914      601.46229           4257   0.82958892   
     74800   199.5152       517.39867           4257   0.82958892   
     74900   197.06505      679.55002           4257   0.82958892   
     75000   193.70507      897.10719           4257   0.82958892   
     75100   196.68386      843.07818           4257   0.82958892   
     75200   197.60125      739.44675           4257   0.82958892   
     75300   195.40907      749.9635            4257   0.82958892   
     75400   195.29381      706.89301           4257   0.82958892   
     75500   195.825        732.80017           4257   0.82958892   
     75600   195.72868      838.07522           4257   0.82958892   
     75700   197.23621      793.59469           4257   0.82958892   
     75800   197.97697      742.93224           4257   0.82958892   
     75900   197.86546      681.88751           4257   0.82958892   
     76000   195.83349      766.21908           4257   0.82958892   
     76100   197.98589      785.59821           4266   0.83134281   
     76200   195.18905      1003.374            4266   0.83134281   
     76300   196.57572      950.80074           4266   0.83134281   
     76400   197.83424      808.054             4266   0.83134281   
     76500   199.58879      655.50166           4266   0.83134281   
     76600   198.14076      698.2516            4266   0.83134281   
     76700   199.25372      725.13934           4266   0.83134281   
     76800   198.5045       807.87333           4266   0.83134281   
     76900   196.64271      848.10096           4266   0.83134281   
     77000   200.20732      636.44255           4266   0.83134281   
     77100   197.02266      716.93856           4266   0.83134281   
     77200   198.04208      742.65918           4266   0.83134281   
     77300   197.82617      857.18479           4266   0.83134281   
     77400   197.45142      934.81329           4266   0.83134281   
     77500   196.1469       930.29689           4266   0.83134281   
     77600   197.15558      772.21964           4266   0.83134281   
     77700   197.0023       720.94625           4266   0.83134281   
     77800   198.04234      716.27582           4266   0.83134281   
     77900   196.94324      843.53924           4266   0.83134281   
     78000   197.78558      818.01076           4266   0.83134281   
     78100   200.48307      654.85992           4278   0.83368132   
     78200   198.31849      670.09604           4278   0.83368132   
     78300   195.72474      796.68876           4278   0.83368132   
     78400   198.85783      755.63072           4278   0.83368132   
     78500   195.76818      934.50171           4278   0.83368132   
     78600   195.79171      922.18536           4278   0.83368132   
     78700   200.00437      623.07471           4278   0.83368132   
     78800   198.48512      612.21657           4278   0.83368132   
     78900   199.10701      604.85598           4278   0.83368132   
     79000   197.77063      728.65042           4278   0.83368132   
     79100   199.65193      689.06523           4278   0.83368132   
     79200   198.30733      720.37973           4278   0.83368132   
     79300   197.1006       685.85057           4278   0.83368132   
     79400   197.73266      643.86569           4278   0.83368132   
     79500   199.35733      661.20579           4278   0.83368132   
     79600   197.14514      840.97101           4278   0.83368132   
     79700   195.4227       944.20281           4278   0.83368132   
     79800   198.86185      748.6209            4278   0.83368132   
     79900   197.33782      713.23832           4278   0.83368132   
     80000   199.34414      620.50433           4278   0.83368132   
     80100   199.57349      728.10208           4293   0.83660447   
     80200   200.46803      757.9731            4293   0.83660447   
     80300   199.27138      783.2012            4293   0.83660447   
     80400   197.944        742.87132           4293   0.83660447   
     80500   198.25551      670.28514           4293   0.83660447   
     80600   193.86989      896.11207           4293   0.83660447   
     80700   197.74147      802.1288            4293   0.83660447   
     80800   199.16455      769.39324           4293   0.83660447   
     80900   198.64126      747.89872           4293   0.83660447   
     81000   196.94325      721.76747           4293   0.83660447   
     81100   198.221        651.18181           4293   0.83660447   
     81200   198.12966      688.57311           4293   0.83660447   
     81300   195.68917      886.89891           4293   0.83660447   
     81400   198.23062      797.31291           4293   0.83660447   
     81500   198.94574      709.02784           4293   0.83660447   
     81600   197.04728      706.85739           4293   0.83660447   
     81700   197.32986      728.58198           4293   0.83660447   
     81800   198.2748       762.01578           4293   0.83660447   
     81900   197.65432      862.65394           4293   0.83660447   
     82000   197.70012      868.21272           4293   0.83660447   
     82100   200.34744      729.55659           4314   0.84069687   
     82200   198.05166      777.49106           4314   0.84069687   
     82300   199.21165      760.75637           4314   0.84069687   
     82400   197.63437      900.84808           4314   0.84069687   
     82500   200.49486      802.5118            4314   0.84069687   
     82600   200.07361      809.71796           4314   0.84069687   
     82700   199.04989      791.11582           4314   0.84069687   
     82800   197.32959      850.00743           4314   0.84069687   
     82900   200.14232      769.03659           4314   0.84069687   
     83000   198.82396      898.52421           4314   0.84069687   
     83100   198.82864      903.09871           4314   0.84069687   
     83200   199.34201      817.09568           4314   0.84069687   
     83300   197.88641      771.33069           4314   0.84069687   
     83400   199.3971       663.09449           4314   0.84069687   
     83500   198.98302      733.54013           4314   0.84069687   
     83600   198.70054      801.69028           4314   0.84069687   
     83700   197.28504      845.85809           4314   0.84069687   
     83800   198.19583      737.04132           4314   0.84069687   
     83900   198.85955      613.22793           4314   0.84069687   
     84000   200.07708      582.94759           4314   0.84069687   
     84100   195.97882      830.97609           4326   0.84303539   
     84200   196.77038      847.02549           4326   0.84303539   
     84300   199.46285      711.5658            4326   0.84303539   
     84400   199.6256       646.65503           4326   0.84303539   
     84500   198.24624      667.94138           4326   0.84303539   
     84600   197.16633      733.32995           4326   0.84303539   
     84700   197.25058      844.22036           4326   0.84303539   
     84800   199.15002      844.64059           4326   0.84303539   
     84900   198.92859      796.44354           4326   0.84303539   
     85000   198.83616      733.20091           4326   0.84303539   
     85100   199.8111       644.13054           4326   0.84303539   
     85200   197.92892      777.95646           4326   0.84303539   
     85300   197.55963      845.30274           4326   0.84303539   
     85400   199.03227      796.96876           4326   0.84303539   
     85500   198.9501       750.17431           4326   0.84303539   
     85600   196.5271       784.80271           4326   0.84303539   
     85700   198.412        719.61415           4326   0.84303539   
     85800   199.00249      786.18203           4326   0.84303539   
     85900   197.47898      907.19498           4326   0.84303539   
     86000   199.58825      825.39728           4326   0.84303539   
     86100   197.29684      877.12619           4356   0.84888168   
     86200   198.7225       799.46044           4356   0.84888168   
     86300   198.87237      834.55229           4356   0.84888168   
     86400   200.26665      866.95205           4356   0.84888168   
     86500   198.96496      972.37251           4356   0.84888168   
     86600   198.91831      898.2429            4356   0.84888168   
     86700   197.8279       853.34996           4356   0.84888168   
     86800   200.11111      720.96036           4356   0.84888168   
     86900   199.65385      777.9736            4356   0.84888168   
     87000   199.93608      831.00847           4356   0.84888168   
     87100   200.10108      831.13182           4356   0.84888168   
     87200   199.58391      793.67046           4356   0.84888168   
     87300   199.30035      779.92932           4356   0.84888168   
     87400   198.85657      820.8164            4356   0.84888168   
     87500   197.76967      936.82573           4356   0.84888168   
     87600   198.61593      944.09758           4356   0.84888168   
     87700   200.72343      818.02216           4356   0.84888168   
     87800   197.16529      876.40976           4356   0.84888168   
     87900   200.47847      690.80351           4356   0.84888168   
     88000   197.59902      853.07111           4356   0.84888168   
     88100   198.88089      854.65244           4365   0.85063557   
     88200   199.57451      865.47013           4365   0.85063557   
     88300   200.93895      752.65349           4365   0.85063557   
     88400   197.09193      839.09579           4365   0.85063557   
     88500   197.01783      836.84261           4365   0.85063557   
     88600   198.84017      813.02687           4365   0.85063557   
     88700   199.60703      858.34006           4365   0.85063557   
     88800   200.69075      816.76768           4365   0.85063557   
     88900   199.70754      787.60271           4365   0.85063557   
     89000   198.12227      782.98464           4365   0.85063557   
     89100   199.85509      714.96222           4365   0.85063557   
     89200   201.03787      744.8618            4365   0.85063557   
     89300   201.3224       817.46381           4365   0.85063557   
     89400   201.83912      758.58483           4365   0.85063557   
     89500   199.67665      788.06656           4365   0.85063557   
     89600   201.26415      685.54865           4365   0.85063557   
     89700   201.20261      739.86658           4365   0.85063557   
     89800   200.13425      894.05546           4365   0.85063557   
     89900   200.1058       944.08199           4365   0.85063557   
     90000   201.11576      837.32137           4365   0.85063557   
     90100   204.17739      646.37242           4383   0.85414335   
     90200   201.58604      760.07917           4383   0.85414335   
     90300   201.00615      836.87417           4383   0.85414335   
     90400   201.00012      849.6088            4383   0.85414335   
     90500   202.76315      755.20143           4383   0.85414335   
     90600   199.74672      782.84428           4383   0.85414335   
     90700   201.29798      682.93807           4383   0.85414335   
     90800   202.60098      660.76112           4383   0.85414335   
     90900   199.46726      870.49272           4383   0.85414335   
     91000   202.2918       816.93298           4383   0.85414335   
     91100   199.96732      897.05707           4383   0.85414335   
     91200   198.30829      890.56896           4383   0.85414335   
     91300   201.62417      717.33987           4383   0.85414335   
     91400   198.25595      900.98328           4383   0.85414335   
     91500   201.53815      865.21275           4383   0.85414335   
     91600   199.87432      939.36936           4383   0.85414335   
     91700   199.22316      939.53743           4383   0.85414335   
     91800   200.59733      809.09533           4383   0.85414335   
     91900   200.44425      793.63723           4383   0.85414335   
     92000   200.74535      831.34566           4383   0.85414335   
     92100   200.83734      878.65103           4389   0.85531261   
     92200   199.28351      939.64549           4389   0.85531261   
     92300   199.52864      875.03328           4389   0.85531261   
     92400   199.27834      851.92797           4389   0.85531261   
     92500   201.81937      791.84107           4389   0.85531261   
     92600   199.59838      966.07002           4389   0.85531261   
     92700   200.05404      999.90921           4389   0.85531261   
     92800   201.39459      867.89751           4389   0.85531261   
     92900   199.32707      861.79661           4389   0.85531261   
     93000   203.16693      650.9921            4389   0.85531261   
     93100   201.24361      806.54823           4389   0.85531261   
     93200   200.62703      922.04273           4389   0.85531261   
     93300   201.97691      850.00026           4389   0.85531261   
     93400   201.20317      824.11198           4389   0.85531261   
     93500   201.39646      745.76688           4389   0.85531261   
     93600   201.87466      748.69151           4389   0.85531261   
     93700   200.76563      891.42939           4389   0.85531261   
     93800   201.39718      879.06223           4389   0.85531261   
     93900   200.90918      879.90808           4389   0.85531261   
     94000   201.02279      836.44881           4389   0.85531261   
     94100   202.1945       765.36929           4407   0.85882038   
     94200   202.02534      791.55411           4407   0.85882038   
     94300   201.18858      908.57772           4407   0.85882038   
     94400   199.28625      1045.659            4407   0.85882038   
     94500   200.35905      967.32718           4407   0.85882038   
     94600   199.74639      902.74716           4407   0.85882038   
     94700   199.78296      892.67603           4407   0.85882038   
     94800   200.92799      879.14821           4407   0.85882038   
     94900   200.90158      927.44771           4407   0.85882038   
     95000   199.56537      991.72093           4407   0.85882038   
     95100   202.94239      785.65081           4407   0.85882038   
     95200   201.76249      720.01575           4407   0.85882038   
     95300   200.60445      785.97325           4407   0.85882038   
     95400   200.49163      848.70697           4407   0.85882038   
     95500   202.30535      851.8079            4407   0.85882038   
     95600   201.5656       874.10228           4407   0.85882038   
     95700   200.75195      845.49092           4407   0.85882038   
     95800   201.37855      766.54435           4407   0.85882038   
     95900   200.55099      821.69245           4407   0.85882038   
     96000   201.97772      840.60898           4407   0.85882038   
     96100   200.49232      937.03595           4422   0.86174353   
     96200   201.08453      920.83031           4422   0.86174353   
     96300   203.04637      746.32632           4422   0.86174353   
     96400   201.87836      756.47705           4422   0.86174353   
     96500   200.31262      863.98733           4422   0.86174353   
     96600   200.6699       928.58668           4422   0.86174353   
     96700   202.36324      873.74112           4422   0.86174353   
     96800   202.02805      889.0672            4422   0.86174353   
     96900   200.6521       911.15059           4422   0.86174353   
     97000   203.86449      765.11739           4422   0.86174353   
     97100   201.38947      904.59642           4422   0.86174353   
     97200   202.29572      934.8856            4422   0.86174353   
     97300   202.51053      948.2502            4422   0.86174353   
     97400   200.92891      940.3348            4422   0.86174353   
     97500   201.8712       852.03058           4422   0.86174353   
     97600   202.50972      810.07307           4422   0.86174353   
     97700   202.14691      878.33546           4422   0.86174353   
     97800   198.81624      1047.1009           4422   0.86174353   
     97900   201.39718      898.52049           4422   0.86174353   
     98000   200.47481      865.33591           4422   0.86174353   
     98100   200.37751      805.48326           4443   0.86583593   
     98200   199.71055      866.10399           4443   0.86583593   
     98300   201.06908      845.33087           4443   0.86583593   
     98400   202.45589      793.34908           4443   0.86583593   
     98500   203.28687      724.09898           4443   0.86583593   
     98600   200.32053      851.27559           4443   0.86583593   
     98700   199.11801      904.10478           4443   0.86583593   
     98800   200.77586      878.13064           4443   0.86583593   
     98900   198.68682      1054.1487           4443   0.86583593   
     99000   202.39403      880.05134           4443   0.86583593   
     99100   201.2622       884.06497           4443   0.86583593   
     99200   201.11387      851.39058           4443   0.86583593   
     99300   199.96277      896.3263            4443   0.86583593   
     99400   201.56417      884.57715           4443   0.86583593   
     99500   198.01469      1080.0174           4443   0.86583593   
     99600   199.56231      966.16227           4443   0.86583593   
     99700   200.87644      814.47322           4443   0.86583593   
     99800   201.70024      759.73074           4443   0.86583593   
     99900   198.97733      917.45467           4443   0.86583593   
    100000   199.87692      973.34464           4443   0.86583593   
    100100   201.10263      972.43826           4473   0.87168223   
    100200   203.4778       859.83801           4473   0.87168223   
    100300   204.85849      756.60354           4473   0.87168223   
    100400   201.06352      901.25161           4473   0.87168223   
    100500   201.52347      925.46433           4473   0.87168223   
    100600   201.6936       958.96304           4473   0.87168223   
    100700   203.07967      893.31142           4473   0.87168223   
    100800   202.12003      904.87791           4473   0.87168223   
    100900   202.47671      906.10059           4473   0.87168223   
    101000   202.38265      882.25132           4473   0.87168223   
    101100   203.1111       867.76196           4473   0.87168223   
    101200   203.58293      893.2075            4473   0.87168223   
    101300   205.88534      809.33302           4473   0.87168223   
    101400   204.4727       843.45073           4473   0.87168223   
    101500   200.98832      977.25916           4473   0.87168223   
    101600   200.11612      1020.2174           4473   0.87168223   
    101700   200.03514      1061.9903           4473   0.87168223   
    101800   203.94178      937.44039           4473   0.87168223   
    101900   200.95677      1021.6117           4473   0.87168223   
    102000   202.52952      877.99692           4473   0.87168223   
    102100   203.47448      802.74531           4476   0.87226685   
    102200   204.29132      798.42362           4476   0.87226685   
    102300   200.83622      1013.8891           4476   0.87226685   
    102400   201.90824      1007.2497           4476   0.87226685   
    102500   202.37634      945.41273           4476   0.87226685   
    102600   203.00547      861.26295           4476   0.87226685   
    102700   201.9632       925.36982           4476   0.87226685   
    102800   203.21779      877.84903           4476   0.87226685   
    102900   201.86085      961.79437           4476   0.87226685   
    103000   201.33783      966.00966           4476   0.87226685   
    103100   202.9264       858.63647           4476   0.87226685   
    103200   202.88346      853.17934           4476   0.87226685   
    103300   204.28764      795.2683            4476   0.87226685   
    103400   202.48801      903.02783           4476   0.87226685   
    103500   204.08531      889.90203           4476   0.87226685   
    103600   199.91848      1066.8761           4476   0.87226685   
    103700   202.73108      889.00582           4476   0.87226685   
    103800   203.37316      863.52477           4476   0.87226685   
    103900   203.03291      890.54634           4476   0.87226685   
    104000   204.26398      922.64139           4476   0.87226685   
    104100   201.02442      1068.2896           4494   0.87577463   
    104200   202.28144      949.14272           4494   0.87577463   
    104300   202.03259      928.62081           4494   0.87577463   
    104400   202.17076      895.6495            4494   0.87577463   
    104500   201.96942      945.02243           4494   0.87577463   
    104600   200.97124      1019.9184           4494   0.87577463   
    104700   202.76105      951.76382           4494   0.87577463   
    104800   200.91135      959.94606           4494   0.87577463   
    104900   199.76394      1000.2923           4494   0.87577463   
    105000   202.02663      902.64803           4494   0.87577463   
    105100   201.40931      986.9834            4494   0.87577463   
    105200   200.76611      1053.9823           4494   0.87577463   
    105300   200.52885      996.78783           4494   0.87577463   
    105400   201.2927       923.26478           4494   0.87577463   
    105500   199.44933      971.63373           4494   0.87577463   
    105600   201.97036      803.79263           4494   0.87577463   
    105700   201.42982      884.68926           4494   0.87577463   
    105800   200.71808      972.4676            4494   0.87577463   
    105900   200.94176      952.45441           4494   0.87577463   
    106000   203.48404      824.47403           4494   0.87577463   
    106100   200.93843      895.19442           4500   0.87694389   
    106200   200.93327      987.56606           4500   0.87694389   
    106300   201.90033      1013.5821           4500   0.87694389   
    106400   202.59644      981.14053           4500   0.87694389   
    106500   201.01921      1021.2283           4500   0.87694389   
    106600   201.95865      929.58696           4500   0.87694389   
    106700   200.71196      976.62657           4500   0.87694389   
    106800   201.58548      967.12248           4500   0.87694389   
    106900   202.57072      963.96395           4500   0.87694389   
    107000   203.15591      910.6838            4500   0.87694389   
    107100   200.35617      979.30737           4500   0.87694389   
    107200   200.50249      943.96526           4500   0.87694389   
    107300   201.80562      917.61245           4500   0.87694389   
    107400   201.19207      1004.7861           4500   0.87694389   
    107500   201.89293      1002.994            4500   0.87694389   
    107600   199.99128      1035.4979           4500   0.87694389   
    107700   200.55171      953.56707           4500   0.87694389   
    107800   201.78516      887.75692           4500   0.87694389   
    107900   203.4389       846.69287           4500   0.87694389   
    108000   203.6099       871.90056           4500   0.87694389   
    108100   203.04821      964.88172           4509   0.87869778   
    108200   201.32313      1042.7145           4509   0.87869778   
    108300   201.74654      989.63811           4509   0.87869778   
    108400   201.44409      991.23653           4509   0.87869778   
    108500   202.15277      980.8214            4509   0.87869778   
    108600   204.5183       911.81161           4509   0.87869778   
    108700   202.83214      1000.3205           4509   0.87869778   
    108800   201.26859      1021.2436           4509   0.87869778   
    108900   201.74094      954.05456           4509   0.87869778   
    109000   205.53543      781.34785           4509   0.87869778   
    109100   202.5192       954.18698           4509   0.87869778   
    109200   203.15978      963.57873           4509   0.87869778   
    109300   204.00173      910.30872           4509   0.87869778   
    109400   201.51966      1001.0936           4509   0.87869778   
    109500   201.28362      962.55119           4509   0.87869778   
    109600   203.53406      846.00066           4509   0.87869778   
    109700   203.49819      892.39107           4509   0.87869778   
    109800   204.07159      906.74341           4509   0.87869778   
    109900   202.63368      963.47985           4509   0.87869778   
    110000   202.87025      906.83588           4509   0.87869778   
    110100   202.26561      911.34045           4521   0.88103629   
    110200   201.38199      1000.3472           4521   0.88103629   
    110300   203.14396      963.79751           4521   0.88103629   
    110400   201.11714      1026.2191           4521   0.88103629   
    110500   202.55434      946.84608           4521   0.88103629   
    110600   202.40485      921.82756           4521   0.88103629   
    110700   203.06729      878.08714           4521   0.88103629   
    110800   202.94487      905.18531           4521   0.88103629   
    110900   202.67821      949.32286           4521   0.88103629   
    111000   203.00271      936.36442           4521   0.88103629   
    111100   200.59041      1007.2267           4521   0.88103629   
    111200   204.06843      830.83928           4521   0.88103629   
    111300   202.11972      922.51121           4521   0.88103629   
    111400   202.20127      958.18788           4521   0.88103629   
    111500   201.95786      972.96104           4521   0.88103629   
    111600   201.7079       991.15712           4521   0.88103629   
    111700   199.96863      1025.3696           4521   0.88103629   
    111800   201.50695      921.26267           4521   0.88103629   
    111900   203.71729      866.73741           4521   0.88103629   
    112000   203.65511      887.6101            4521   0.88103629   
    112100   202.6068       967.3987            4527   0.88220555   
    112200   202.42215      968.68975           4527   0.88220555   
    112300   202.40018      934.19298           4527   0.88220555   
    112400   201.537        973.60889           4527   0.88220555   
    112500   202.86119      943.36977           4527   0.88220555   
    112600   203.03627      948.9779            4527   0.88220555   
    112700   202.48832      990.87443           4527   0.88220555   
    112800   203.32701      907.44411           4527   0.88220555   
    112900   202.90572      889.22047           4527   0.88220555   
    113000   204.07563      822.72064           4527   0.88220555   
    113100   202.34485      960.7459            4527   0.88220555   
    113200   203.57266      951.4913            4527   0.88220555   
    113300   203.39         931.51067           4527   0.88220555   
    113400   201.25721      1037.7982           4527   0.88220555   
    113500   201.88363      986.5984            4527   0.88220555   
    113600   203.56139      924.36106           4527   0.88220555   
    113700   201.51788      1020.6154           4527   0.88220555   
    113800   202.70294      982.76176           4527   0.88220555   
    113900   202.83705      937.68079           4527   0.88220555   
    114000   203.68844      848.91138           4527   0.88220555   
    114100   205.28452      833.26628           4545   0.88571333   
    114200   202.22003      1011.5153           4545   0.88571333   
    114300   202.66262      1018.1651           4545   0.88571333   
    114400   204.22818      934.8663            4545   0.88571333   
    114500   205.20506      852.69304           4545   0.88571333   
    114600   203.33158      932.44185           4545   0.88571333   
    114700   199.18989      1136.2347           4545   0.88571333   
    114800   204.74074      930.90999           4545   0.88571333   
    114900   205.51533      921.25526           4545   0.88571333   
    115000   206.33679      856.28554           4545   0.88571333   
    115100   202.79249      975.98561           4545   0.88571333   
    115200   201.27111      1024.9353           4545   0.88571333   
    115300   204.17921      917.88088           4545   0.88571333   
    115400   204.14968      927.16604           4545   0.88571333   
    115500   204.41075      953.51658           4545   0.88571333   
    115600   203.05358      999.24566           4545   0.88571333   
    115700   199.81885      1108.9912           4545   0.88571333   
    115800   203.50427      939.53746           4545   0.88571333   
    115900   203.17022      972.26414           4545   0.88571333   
    116000   202.6071       1046.77             4545   0.88571333   
    116100   205.55204      866.18293           4551   0.88688259   
    116200   203.56347      930.33172           4551   0.88688259   
    116300   203.7345       906.89781           4551   0.88688259   
    116400   203.83835      903.82344           4551   0.88688259   
    116500   205.18044      856.09917           4551   0.88688259   
    116600   202.61122      1011.1364           4551   0.88688259   
    116700   201.54016      1054.9973           4551   0.88688259   
    116800   201.72403      1035.1307           4551   0.88688259   
    116900   203.11765      946.05424           4551   0.88688259   
    117000   205.20633      880.9521            4551   0.88688259   
    117100   203.33673      990.61537           4551   0.88688259   
    117200   202.65943      1043.1021           4551   0.88688259   
    117300   202.687        1061.6012           4551   0.88688259   
    117400   202.89586      1043.1677           4551   0.88688259   
    117500   203.72182      1004.3126           4551   0.88688259   
    117600   204.48341      1004.4049           4551   0.88688259   
    117700   202.79023      1102.1556           4551   0.88688259   
    117800   202.413        1091.0877           4551   0.88688259   
    117900   202.96142      1018.5277           4551   0.88688259   
    118000   204.50451      904.06068           4551   0.88688259   
    118100   205.75079      886.73395           4566   0.88980573   
    118200   201.82162      1111.9534           4566   0.88980573   
    118300   203.4367       1034.9726           4566   0.88980573   
    118400   203.76872      983.13031           4566   0.88980573   
    118500   204.71771      876.43656           4566   0.88980573   
    118600   204.34988      864.95669           4566   0.88980573   
    118700   204.08544      912.54296           4566   0.88980573   
    118800   201.79739      1080.3775           4566   0.88980573   
    118900   200.5728       1150.467            4566   0.88980573   
    119000   204.39894      932.5766            4566   0.88980573   
    119100   207.68159      755.39231           4566   0.88980573   
    119200   204.53087      900.0914            4566   0.88980573   
    119300   200.18571      1151.9838           4566   0.88980573   
    119400   201.32784      1125.9396           4566   0.88980573   
    119500   201.14134      1095.7294           4566   0.88980573   
    119600   203.85456      951.38716           4566   0.88980573   
    119700   201.43705      1032.2448           4566   0.88980573   
    119800   203.87457      923.22399           4566   0.88980573   
    119900   202.16003      1034.8397           4566   0.88980573   
    120000   202.53897      1032.0181           4566   0.88980573   
    120100   203.26352      997.40484           4575   0.89155962   
    120200   203.82469      923.79213           4575   0.89155962   
    120300   204.02944      899.74634           4575   0.89155962   
    120400   200.87127      1085.4438           4575   0.89155962   
    120500   202.73805      1021.2543           4575   0.89155962   
    120600   204.50572      931.45409           4575   0.89155962   
    120700   204.1177       885.37464           4575   0.89155962   
    120800   205.51002      794.43155           4575   0.89155962   
    120900   201.03802      1016.408            4575   0.89155962   
    121000   202.41167      1022.0584           4575   0.89155962   
    121100   203.72125      1017.0392           4575   0.89155962   
    121200   202.34711      1074.4554           4575   0.89155962   
    121300   201.49621      1077.046            4575   0.89155962   
    121400   202.43465      1005.3259           4575   0.89155962   
    121500   202.9817       997.65248           4575   0.89155962   
    121600   204.90081      970.87856           4575   0.89155962   
    121700   200.10446      1198.9953           4575   0.89155962   
    121800   202.44838      1056.4801           4575   0.89155962   
    121900   203.54857      984.38251           4575   0.89155962   
    122000   205.06122      891.13104           4575   0.89155962   
    122100   204.34938      933.89979           4581   0.89272888   
    122200   203.15896      1051.2174           4581   0.89272888   
    122300   204.7107       1018.0952           4581   0.89272888   
    122400   205.89948      903.18599           4581   0.89272888   
    122500   204.59797      941.58696           4581   0.89272888   
    122600   204.11666      953.68474           4581   0.89272888   
    122700   207.80991      804.83559           4581   0.89272888   
    122800   204.35636      1007.0567           4581   0.89272888   
    122900   203.59836      1021.283            4581   0.89272888   
    123000   202.99365      988.37513           4581   0.89272888   
    123100   204.37295      865.57238           4581   0.89272888   
    123200   202.93888      980.36327           4581   0.89272888   
    123300   201.59407      1100.9986           4581   0.89272888   
    123400   203.17448      1057.7037           4581   0.89272888   
    123500   203.54422      965.00572           4581   0.89272888   
    123600   201.79407      986.92366           4581   0.89272888   
    123700   203.10802      907.98417           4581   0.89272888   
    123800   204.28159      890.0035            4581   0.89272888   
    123900   203.39873      1002.2871           4581   0.89272888   
    124000   204.3077       994.28267           4581   0.89272888   
    124100   202.6723       1066.8998           4596   0.89565202   
    124200   200.21769      1159.9093           4596   0.89565202   
    124300   201.59227      1065.404            4596   0.89565202   
    124400   203.46622      1008.3472           4596   0.89565202   
    124500   203.87011      1006.9476           4596   0.89565202   
    124600   204.67004      925.20378           4596   0.89565202   
    124700   205.24281      828.8337            4596   0.89565202   
    124800   203.45233      898.46768           4596   0.89565202   
    124900   202.8029       957.49799           4596   0.89565202   
    125000   201.09281      1097.9757           4596   0.89565202   
    125100   203.23082      1037.8958           4596   0.89565202   
    125200   203.67555      1012.7721           4596   0.89565202   
    125300   201.08347      1081.1712           4596   0.89565202   
    125400   204.73189      900.31225           4596   0.89565202   
    125500   204.55526      941.9223            4596   0.89565202   
    125600   203.89696      1039.4136           4596   0.89565202   
    125700   201.97463      1138.2386           4596   0.89565202   
    125800   202.9922       1033.9019           4596   0.89565202   
    125900   205.39779      865.36476           4596   0.89565202   
    126000   204.15397      942.85078           4596   0.89565202   
    126100   202.63269      1095.9364           4611   0.89857517   
    126200   205.0213       1018.4238           4611   0.89857517   
    126300   206.52659      933.44156           4611   0.89857517   
    126400   204.40731      1002.2711           4611   0.89857517   
    126500   203.57074      1001.6601           4611   0.89857517   
    126600   202.99106      1078.6182           4611   0.89857517   
    126700   202.53528      1211.7595           4611   0.89857517   
    126800   203.8115       1181.8436           4611   0.89857517   
    126900   206.27488      1033.0512           4611   0.89857517   
    127000   204.6474       1042.6079           4611   0.89857517   
    127100   204.80496      1033.9773           4611   0.89857517   
    127200   203.82334      1109.0109           4611   0.89857517   
    127300   203.08103      1177.3912           4611   0.89857517   
    127400   202.92086      1217.9806           4611   0.89857517   
    127500   203.5356       1153.9897           4611   0.89857517   
    127600   204.27625      1039.6028           4611   0.89857517   
    127700   202.72638      1107.2187           4611   0.89857517   
    127800   204.89888      1035.7811           4611   0.89857517   
    127900   203.88655      1098.1863           4611   0.89857517   
    128000   202.8867       1115.9546           4611   0.89857517   
    128100   203.57691      1025.6081           4623   0.90091369   
    128200   205.03382      979.29754           4623   0.90091369   
    128300   201.5589       1136.6973           4623   0.90091369   
    128400   204.21971      1075.074            4623   0.90091369   
    128500   204.83369      1087.9672           4623   0.90091369   
    128600   204.14831      1073.3099           4623   0.90091369   
    128700   203.3417       1032.8553           4623   0.90091369   
    128800   203.95916      939.18454           4623   0.90091369   
    128900   205.66134      871.46908           4623   0.90091369   
    129000   207.03267      853.96712           4623   0.90091369   
    129100   204.70202      986.40192           4623   0.90091369   
    129200   205.82321      927.72999           4623   0.90091369   
    129300   202.49408      1053.5865           4623   0.90091369   
    129400   204.24451      965.18028           4623   0.90091369   
    129500   203.21353      1074.0641           4623   0.90091369   
    129600   205.3137       1001.1333           4623   0.90091369   
    129700   205.2545       1025.2081           4623   0.90091369   
    129800   203.987        1038.0111           4623   0.90091369   
    129900   202.8928       1067.7894           4623   0.90091369   
    130000   204.14569      1047.5673           4623   0.90091369   
    130100   204.80171      1057.2828           4629   0.90208295   
    130200   205.01122      1075.4187           4629   0.90208295   
    130300   205.93969      1008.5443           4629   0.90208295   
    130400   202.80865      1109.6666           4629   0.90208295   
    130500   202.8112       1113.4968           4629   0.90208295   
    130600   203.36314      1153.407            4629   0.90208295   
    130700   205.65387      1093.1504           4629   0.90208295   
    130800   203.78355      1172.517            4629   0.90208295   
    130900   206.42451      1025.1081           4629   0.90208295   
    131000   204.78215      1019.79             4629   0.90208295   
    131100   206.04514      956.46322           4629   0.90208295   
    131200   203.49364      1124.6683           4629   0.90208295   
    131300   203.68281      1156.8078           4629   0.90208295   
    131400   204.24345      1097.9611           4629   0.90208295   
    131500   204.32697      1060.3882           4629   0.90208295   
    131600   203.05079      1069.3379           4629   0.90208295   
    131700   202.93069      1133.2395           4629   0.90208295   
    131800   204.20808      1093.222            4629   0.90208295   
    131900   206.89671      996.40901           4629   0.90208295   
    132000   205.89809      986.68745           4629   0.90208295   
    132100   207.45501      821.3984            4635   0.90325221   
    132200   205.66124      928.87259           4635   0.90325221   
    132300   202.85338      1151.7725           4635   0.90325221   
    132400   203.29732      1215.9042           4635   0.90325221   
    132500   203.03366      1191.2103           4635   0.90325221   
    132600   204.93105      1031.3048           4635   0.90325221   
    132700   204.08667      1000.801            4635   0.90325221   
    132800   204.89665      972.11014           4635   0.90325221   
    132900   201.89843      1164.1324           4635   0.90325221   
    133000   203.47016      1162.1086           4635   0.90325221   
    133100   205.21457      1067.9113           4635   0.90325221   
    133200   204.42266      1029.0804           4635   0.90325221   
    133300   203.7619       1033.318            4635   0.90325221   
    133400   203.17144      1085.8918           4635   0.90325221   
    133500   204.34257      1099.7697           4635   0.90325221   
    133600   204.15376      1151.3595           4635   0.90325221   
    133700   205.08787      1072.2596           4635   0.90325221   
    133800   204.66806      1025.8745           4635   0.90325221   
    133900   204.08806      1032.1337           4635   0.90325221   
    134000   204.65061      1058.6149           4635   0.90325221   
    134100   205.92747      1098.6436           4647   0.90559072   
    134200   203.99676      1201.1185           4647   0.90559072   
    134300   203.98506      1135.8976           4647   0.90559072   
    134400   207.08557      906.53256           4647   0.90559072   
    134500   203.24862      1091.6718           4647   0.90559072   
    134600   205.84793      1047.9948           4647   0.90559072   
    134700   205.08078      1152.9794           4647   0.90559072   
    134800   205.98997      1129.4185           4647   0.90559072   
    134900   203.98167      1165.1249           4647   0.90559072   
    135000   203.99902      1111.9229           4647   0.90559072   
    135100   204.44901      1111.2597           4647   0.90559072   
    135200   205.07146      1155.837            4647   0.90559072   
    135300   204.04582      1243.5456           4647   0.90559072   
    135400   204.52305      1192.3906           4647   0.90559072   
    135500   203.89437      1119.0083           4647   0.90559072   
    135600   204.88155      1051.1268           4647   0.90559072   
    135700   205.03567      1075.581            4647   0.90559072   
    135800   205.33644      1130.7414           4647   0.90559072   
    135900   204.49619      1188.681            4647   0.90559072   
    136000   204.93664      1088.4525           4647   0.90559072   
    136100   205.22583      1000.0349           4647   0.90559072   
    136200   207.40389      897.37654           4647   0.90559072   
    136300   205.5135       1060.0596           4647   0.90559072   
    136400   202.50827      1268.3072           4647   0.90559072   
    136500   205.9229       1115.2776           4647   0.90559072   
    136600   204.97492      1100.157            4647   0.90559072   
    136700   203.33707      1098.4003           4647   0.90559072   
    136800   204.96628      1003.7236           4647   0.90559072   
    136900   206.76229      984.39133           4647   0.90559072   
    137000   205.29608      1105.6101           4647   0.90559072   
    137100   204.95353      1088.9559           4647   0.90559072   
    137200   205.26409      1006.9935           4647   0.90559072   
    137300   204.70769      967.58459           4647   0.90559072   
    137400   203.93289      1035.2397           4647   0.90559072   
    137500   202.06326      1227.5849           4647   0.90559072   
    137600   204.58201      1180.0919           4647   0.90559072   
    137700   204.79103      1107.285            4647   0.90559072   
    137800   202.47161      1135.0899           4647   0.90559072   
    137900   205.40765      993.15002           4647   0.90559072   
    138000   204.468        1076.1577           4647   0.90559072   
    138100   205.27385      1137.915            4659   0.90792924   
    138200   205.92748      1110.71             4659   0.90792924   
    138300   203.97951      1127.014            4659   0.90792924   
    138400   204.70966      1039.1031           4659   0.90792924   
    138500   203.4315       1118.2704           4659   0.90792924   
    138600   204.0791       1157.4644           4659   0.90792924   
    138700   204.73507      1172.1626           4659   0.90792924   
    138800   206.63429      1078.0221           4659   0.90792924   
    138900   207.17219      975.77655           4659   0.90792924   
    139000   205.66645      970.93505           4659   0.90792924   
    139100   204.94925      1079.2775           4659   0.90792924   
    139200   206.41435      1084.0802           4659   0.90792924   
    139300   205.74819      1170.0185           4659   0.90792924   
    139400   206.3797       1116.986            4659   0.90792924   
    139500   206.82896      1022.7703           4659   0.90792924   
    139600   205.8042       1030.8951           4659   0.90792924   
    139700   202.93353      1243.9008           4659   0.90792924   
    139800   206.31491      1177.4351           4659   0.90792924   
    139900   205.33708      1223.1284           4659   0.90792924   
    140000   205.57388      1153.8397           4659   0.90792924   
    140100   206.44068      1037.3857           4662   0.90851387   
    140200   208.53916      967.04651           4662   0.90851387   
    140300   206.80681      1135.6384           4662   0.90851387   
    140400   204.07085      1307.1328           4662   0.90851387   
    140500   205.34884      1207.0999           4662   0.90851387   
    140600   207.54909      1021.366            4662   0.90851387   
    140700   207.62012      941.96289           4662   0.90851387   
    140800   204.94407      1064.5989           4662   0.90851387   
    140900   206.39054      1045.7199           4662   0.90851387   
    141000   206.66037      1088.3503           4662   0.90851387   
    141100   206.0142       1076.9086           4662   0.90851387   
    141200   205.06444      1063.5738           4662   0.90851387   
    141300   204.24637      1088.7318           4662   0.90851387   
    141400   206.16161      1060.0803           4662   0.90851387   
    141500   206.04573      1122.4576           4662   0.90851387   
    141600   207.4161       1095.2074           4662   0.90851387   
    141700   205.93149      1142.4432           4662   0.90851387   
    141800   204.70688      1124.6117           4662   0.90851387   
    141900   205.24176      1089.2287           4662   0.90851387   
    142000   204.05124      1193.6126           4662   0.90851387   
    142100   204.46031      1224.6395           4668   0.90968313   
    142200   204.39958      1234.4782           4668   0.90968313   
    142300   206.62511      1051.1212           4668   0.90968313   
    142400   205.68811      1040.6155           4668   0.90968313   
    142500   206.20997      1039.2062           4668   0.90968313   
    142600   206.38397      1099.5105           4668   0.90968313   
    142700   204.75049      1227.4973           4668   0.90968313   
    142800   207.61687      1038.8968           4668   0.90968313   
    142900   204.13223      1127.606            4668   0.90968313   
    143000   203.71004      1145.6409           4668   0.90968313   
    143100   204.73814      1119.1063           4668   0.90968313   
    143200   205.89742      1137.9956           4668   0.90968313   
    143300   206.15547      1089.6506           4668   0.90968313   
    143400   207.29924      987.50024           4668   0.90968313   
    143500   206.62211      965.80489           4668   0.90968313   
    143600   203.88742      1126.3161           4668   0.90968313   
    143700   203.1669       1230.2086           4668   0.90968313   
    143800   203.23749      1242.2261           4668   0.90968313   
    143900   205.77511      1123.5336           4668   0.90968313   
    144000   206.1629       1027.1802           4668   0.90968313   
    144100   206.11644      976.56044           4677   0.91143701   
    144200   205.41545      1056.4535           4677   0.91143701   
    144300   204.53172      1123.2846           4677   0.91143701   
    144400   207.74388      986.91791           4677   0.91143701   
    144500   206.59729      1026.9134           4677   0.91143701   
    144600   206.08533      973.62124           4677   0.91143701   
    144700   207.32958      930.40551           4677   0.91143701   
    144800   204.44216      1124.701            4677   0.91143701   
    144900   205.22798      1190.4048           4677   0.91143701   
    145000   205.20323      1217.1203           4677   0.91143701   
    145100   204.80878      1167.458            4677   0.91143701   
    145200   204.63041      1082.5786           4677   0.91143701   
    145300   206.02568      984.59491           4677   0.91143701   
    145400   205.39548      1116.6581           4677   0.91143701   
    145500   202.90268      1314.7723           4677   0.91143701   
    145600   203.41165      1274.5755           4677   0.91143701   
    145700   206.04911      1053.4437           4677   0.91143701   
    145800   206.73062      985.70346           4677   0.91143701   
    145900   205.06945      1123.5175           4677   0.91143701   
    146000   205.82372      1168.8413           4677   0.91143701   
    146100   205.10584      1239.8417           4683   0.91260627   
    146200   204.43572      1288.6288           4683   0.91260627   
    146300   204.68898      1219.2168           4683   0.91260627   
    146400   205.02767      1138.6078           4683   0.91260627   
    146500   207.46826      1052.3772           4683   0.91260627   
    146600   204.85803      1255.4905           4683   0.91260627   
    146700   205.45845      1245.4902           4683   0.91260627   
    146800   205.29069      1174.2421           4683   0.91260627   
    146900   206.17661      1053.2093           4683   0.91260627   
    147000   207.51354      960.92717           4683   0.91260627   
    147100   206.58959      1037.8301           4683   0.91260627   
    147200   205.72859      1140.5232           4683   0.91260627   
    147300   206.71047      1108.6732           4683   0.91260627   
    147400   206.74077      1053.1706           4683   0.91260627   
    147500   203.48651      1143.6731           4683   0.91260627   
    147600   204.43903      1134.5511           4683   0.91260627   
    147700   203.79732      1205.8742           4683   0.91260627   
    147800   205.60067      1175.2327           4683   0.91260627   
    147900   207.2748       1064.9935           4683   0.91260627   
    148000   206.20528      1007.3898           4683   0.91260627   
    148100   207.27147      923.71468           4692   0.91436016   
    148200   204.7475       1134.519            4692   0.91436016   
    148300   202.7098       1333.7959           4692   0.91436016   
    148400   203.21508      1330.988            4692   0.91436016   
    148500   206.09259      1121.7165           4692   0.91436016   
    148600   202.84631      1186.5235           4692   0.91436016   
    148700   205.409        1053.4762           4692   0.91436016   
    148800   206.01825      1104.9589           4692   0.91436016   
    148900   205.96598      1192.0823           4692   0.91436016   
    149000   202.96777      1335.507            4692   0.91436016   
    149100   202.86174      1254.0285           4692   0.91436016   
    149200   202.40809      1188.0857           4692   0.91436016   
    149300   205.03502      1103.7137           4692   0.91436016   
    149400   204.03922      1234.8865           4692   0.91436016   
    149500   205.31323      1245.264            4692   0.91436016   
    149600   205.08192      1239.4255           4692   0.91436016   
    149700   204.43941      1205.7596           4692   0.91436016   
    149800   203.61506      1188.2223           4692   0.91436016   
    149900   204.3698       1201.734            4692   0.91436016   
    150000   206.98004      1158.7682           4692   0.91436016   
    150100   203.76517      1349.1015           4695   0.91494479   
    150200   203.96265      1272.6318           4695   0.91494479   
    150300   203.83019      1174.4605           4695   0.91494479   
    150400   204.64151      1065.458            4695   0.91494479   
    150500   207.41556      970.3922            4695   0.91494479   
    150600   205.78061      1115.0859           4695   0.91494479   
    150700   206.57275      1095.9096           4695   0.91494479   
    150800   206.84121      1012.1318           4695   0.91494479   
    150900   204.86773      1062.3243           4695   0.91494479   
    151000   203.28095      1154.7957           4695   0.91494479   
    151100   206.45934      1132.2573           4695   0.91494479   
    151200   206.84538      1177.3617           4695   0.91494479   
    151300   204.547        1257.3062           4695   0.91494479   
    151400   205.91264      1121.4726           4695   0.91494479   
    151500   205.14118      1076.65             4695   0.91494479   
    151600   204.04826      1150.4547           4695   0.91494479   
    151700   205.24894      1174.3815           4695   0.91494479   
    151800   205.59359      1193.8033           4695   0.91494479   
    151900   206.25398      1081.968            4695   0.91494479   
    152000   204.86653      1053.3098           4695   0.91494479   
    152100   203.83627      1080.0526           4704   0.91669868   
    152200   203.54846      1190.3086           4704   0.91669868   
    152300   205.64328      1205.752            4704   0.91669868   
    152400   202.22013      1344.6171           4704   0.91669868   
    152500   206.99461      988.14688           4704   0.91669868   
    152600   206.04574      945.09182           4704   0.91669868   
    152700   206.13218      982.92069           4704   0.91669868   
    152800   206.96938      1025.5642           4704   0.91669868   
    152900   206.08947      1138.4298           4704   0.91669868   
    153000   205.15382      1157.1231           4704   0.91669868   
    153100   205.8064       1080.2494           4704   0.91669868   
    153200   204.90226      1092.2803           4704   0.91669868   
    153300   202.44186      1297.5674           4704   0.91669868   
    153400   204.9532       1261.407            4704   0.91669868   
    153500   206.33341      1199.8673           4704   0.91669868   
    153600   206.67166      1106.7483           4704   0.91669868   
    153700   206.32377      1023.4206           4704   0.91669868   
    153800   204.69418      1066.6195           4704   0.91669868   
    153900   205.78748      1121.3704           4704   0.91669868   
    154000   204.53637      1274.4764           4704   0.91669868   
    154100   204.92286      1273.9271           4713   0.91845257   
    154200   207.26489      1082.4158           4713   0.91845257   
    154300   206.00358      1086.4497           4713   0.91845257   
    154400   206.86518      1116.6242           4713   0.91845257   
    154500   203.36833      1412.1602           4713   0.91845257   
    154600   203.40411      1495.3379           4713   0.91845257   
    154700   206.28633      1296.2777           4713   0.91845257   
    154800   206.22484      1134.0215           4713   0.91845257   
    154900   206.7495       1062.8806           4713   0.91845257   
    155000   206.47925      1129.6998           4713   0.91845257   
    155100   208.07773      1146.3145           4713   0.91845257   
    155200   206.27306      1234.1348           4713   0.91845257   
    155300   205.4725       1247.6624           4713   0.91845257   
    155400   206.08421      1123.1934           4713   0.91845257   
    155500   205.67555      1100.4311           4713   0.91845257   
    155600   205.71265      1178.6218           4713   0.91845257   
    155700   205.33861      1279.7368           4713   0.91845257   
    155800   208.19826      1103.29             4713   0.91845257   
    155900   207.56377      1032.5434           4713   0.91845257   
    156000   205.74394      1045.963            4713   0.91845257   
    156100   206.85653      1033.7915           4716   0.9190372    
    156200   206.62129      1131.0461           4716   0.9190372    
    156300   205.45683      1287.553            4716   0.9190372    
    156400   205.11152      1271.8688           4716   0.9190372    
    156500   204.2144       1219.7133           4716   0.9190372    
    156600   206.41416      1053.6486           4716   0.9190372    
    156700   205.00165      1175.8082           4716   0.9190372    
    156800   206.53037      1163.8261           4716   0.9190372    
    156900   207.22086      1144.3161           4716   0.9190372    
    157000   205.54107      1154.1883           4716   0.9190372    
    157100   206.78014      1035.6314           4716   0.9190372    
    157200   206.5068       1024.1916           4716   0.9190372    
    157300   206.73303      1094.9427           4716   0.9190372    
    157400   203.6778       1343.3072           4716   0.9190372    
    157500   205.45898      1277.277            4716   0.9190372    
    157600   206.81031      1139.8929           4716   0.9190372    
    157700   206.28903      1088.3685           4716   0.9190372    
    157800   206.2242       1097.458            4716   0.9190372    
    157900   205.93364      1209.1585           4716   0.9190372    
    158000   203.48865      1374.8214           4716   0.9190372    
    158100   203.97452      1315.9631           4728   0.92137571   
    158200   203.08715      1258.8166           4728   0.92137571   
    158300   204.28966      1156.6176           4728   0.92137571   
    158400   204.8792       1146.5689           4728   0.92137571   
    158500   207.33071      1107.5686           4728   0.92137571   
    158600   206.75157      1204.042            4728   0.92137571   
    158700   203.99587      1276.4164           4728   0.92137571   
    158800   204.02001      1176.9031           4728   0.92137571   
    158900   204.38785      1148.6354           4728   0.92137571   
    159000   207.87509      1080.8426           4728   0.92137571   
    159100   206.05004      1257.4724           4728   0.92137571   
    159200   203.00185      1398.4149           4728   0.92137571   
    159300   204.80778      1199.2025           4728   0.92137571   
    159400   208.46221      946.31581           4728   0.92137571   
    159500   204.92949      1115.4333           4728   0.92137571   
    159600   204.74945      1235.7141           4728   0.92137571   
    159700   205.55808      1314.8365           4728   0.92137571   
    159800   205.33908      1303.2078           4728   0.92137571   
    159900   205.66824      1181.282            4728   0.92137571   
    160000   205.05697      1155.9075           4728   0.92137571   
    160100   204.7423       1213.7326           4743   0.92429886   
    160200   206.70956      1184.6754           4743   0.92429886   
    160300   207.53545      1172.9863           4743   0.92429886   
    160400   206.97613      1120.8805           4743   0.92429886   
    160500   206.53831      1033.9771           4743   0.92429886   
    160600   207.19596      989.39302           4743   0.92429886   
    160700   206.50044      1092.0391           4743   0.92429886   
    160800   209.01487      1100.7064           4743   0.92429886   
    160900   207.06974      1208.9126           4743   0.92429886   
    161000   206.04339      1158.6725           4743   0.92429886   
    161100   205.42046      1112.5371           4743   0.92429886   
    161200   206.45943      1102.1279           4743   0.92429886   
    161300   206.31329      1228.8333           4743   0.92429886   
    161400   205.7268       1332.083            4743   0.92429886   
    161500   207.05582      1226.1205           4743   0.92429886   
    161600   204.3361       1229.0197           4743   0.92429886   
    161700   205.81134      1120.2374           4743   0.92429886   
    161800   204.15198      1262.4384           4743   0.92429886   
    161900   204.68676      1374.4119           4743   0.92429886   
    162000   205.35492      1318.7454           4743   0.92429886   
    162100   206.59444      1195.0242           4752   0.92605275   
    162200   205.93691      1127.6975           4752   0.92605275   
    162300   206.32224      1130.2153           4752   0.92605275   
    162400   207.45524      1140.6912           4752   0.92605275   
    162500   205.52989      1309.7328           4752   0.92605275   
    162600   205.50405      1291.0562           4752   0.92605275   
    162700   206.4634       1156.1023           4752   0.92605275   
    162800   205.26867      1108.712            4752   0.92605275   
    162900   205.67761      1121.7227           4752   0.92605275   
    163000   206.20869      1195.8991           4752   0.92605275   
    163100   206.6818       1256.4337           4752   0.92605275   
    163200   204.41672      1348.419            4752   0.92605275   
    163300   206.23688      1177.4387           4752   0.92605275   
    163400   205.83492      1118.2768           4752   0.92605275   
    163500   207.02169      1118.4264           4752   0.92605275   
    163600   204.22809      1358.6164           4752   0.92605275   
    163700   205.33583      1317.1898           4752   0.92605275   
    163800   209.65432      1069.25             4752   0.92605275   
    163900   207.6101       1005.3068           4752   0.92605275   
    164000   207.23358      988.55832           4752   0.92605275   
    164100   208.6632       1005.6312           4752   0.92605275   
    164200   208.63128      1088.926            4752   0.92605275   
    164300   208.71354      1106.9815           4752   0.92605275   
    164400   207.40838      1119.1746           4752   0.92605275   
    164500   206.89697      1086.7673           4752   0.92605275   
    164600   206.77836      1085.721            4752   0.92605275   
    164700   208.01447      1094.2033           4752   0.92605275   
    164800   207.32799      1210.7984           4752   0.92605275   
    164900   206.69026      1211.6402           4752   0.92605275   
    165000   204.64092      1255.4991           4752   0.92605275   
    165100   207.95911      1028.5129           4752   0.92605275   
    165200   208.04327      1044.0634           4752   0.92605275   
    165300   206.89472      1238.4737           4752   0.92605275   
    165400   205.70684      1372.4129           4752   0.92605275   
    165500   204.89622      1337.7544           4752   0.92605275   
    165600   205.88009      1175.9565           4752   0.92605275   
    165700   206.34127      1122.1827           4752   0.92605275   
    165800   206.92964      1168.7318           4752   0.92605275   
    165900   209.9744       1109.1382           4752   0.92605275   
    166000   207.04672      1264.0141           4752   0.92605275   
    166100   208.41298      1184.613            4755   0.92663738   
    166200   205.55409      1273.5879           4755   0.92663738   
    166300   205.96358      1230.6767           4755   0.92663738   
    166400   206.23571      1273.8549           4755   0.92663738   
    166500   206.84567      1356.9909           4755   0.92663738   
    166600   204.53392      1455.015            4755   0.92663738   
    166700   205.85453      1282.5916           4755   0.92663738   
    166800   206.49711      1147.6256           4755   0.92663738   
    166900   206.01838      1217.9721           4755   0.92663738   
    167000   207.53551      1227.7622           4755   0.92663738   
    167100   207.18737      1287.8761           4755   0.92663738   
    167200   205.6955       1313.7451           4755   0.92663738   
    167300   205.29534      1210.7599           4755   0.92663738   
    167400   204.61067      1173.0791           4755   0.92663738   
    167500   206.45076      1133.2249           4755   0.92663738   
    167600   204.9619       1306.4353           4755   0.92663738   
    167700   206.2059       1299.3409           4755   0.92663738   
    167800   205.37923      1225.0973           4755   0.92663738   
    167900   205.83324      1103.8044           4755   0.92663738   
    168000   206.4483       1075.2119           4755   0.92663738   
    168100   204.93624      1231.6337           4764   0.92839126   
    168200   207.15423      1239.1681           4764   0.92839126   
    168300   207.74465      1253.6615           4764   0.92839126   
    168400   206.52296      1248.1739           4764   0.92839126   
    168500   201.81554      1383.5747           4764   0.92839126   
    168600   204.62856      1263.5484           4764   0.92839126   
    168700   203.48248      1399.85             4764   0.92839126   
    168800   205.78999      1330.8806           4764   0.92839126   
    168900   205.8031       1271.8129           4764   0.92839126   
    169000   208.08668      1076.8236           4764   0.92839126   
    169100   206.29839      1084.1096           4764   0.92839126   
    169200   207.61276      1059.5367           4764   0.92839126   
    169300   207.36837      1194.8129           4764   0.92839126   
    169400   207.84041      1205.0312           4764   0.92839126   
    169500   208.35989      1152.0164           4764   0.92839126   
    169600   202.57597      1360.4914           4764   0.92839126   
    169700   204.89104      1219.4217           4764   0.92839126   
    169800   205.59918      1249.8554           4764   0.92839126   
    169900   209.52912      1174.0907           4764   0.92839126   
    170000   205.59493      1352.6291           4764   0.92839126   
    170100   205.74198      1290.9175           4779   0.93131441   
    170200   205.76468      1222.5087           4779   0.93131441   
    170300   207.78917      1129.0988           4779   0.93131441   
    170400   206.57211      1269.3679           4779   0.93131441   
    170500   207.09127      1291.8809           4779   0.93131441   
    170600   208.58704      1170.597            4779   0.93131441   
    170700   209.50654      1078.9863           4779   0.93131441   
    170800   206.12898      1197.8236           4779   0.93131441   
    170900   208.72601      1121.844            4779   0.93131441   
    171000   205.89552      1358.4436           4779   0.93131441   
    171100   204.481        1453.7668           4779   0.93131441   
    171200   208.79989      1239.3058           4779   0.93131441   
    171300   205.81272      1298.3734           4779   0.93131441   
    171400   208.54191      1143.6199           4779   0.93131441   
    171500   206.38922      1298.9608           4779   0.93131441   
    171600   207.21873      1321.5277           4779   0.93131441   
    171700   207.20416      1363.3932           4779   0.93131441   
    171800   205.08223      1391.0782           4779   0.93131441   
    171900   207.66481      1181.7259           4779   0.93131441   
    172000   207.46166      1151.1725           4779   0.93131441   
    172100   207.28131      1224.3263           4779   0.93131441   
    172200   206.48769      1306.3385           4779   0.93131441   
    172300   209.49444      1168.1461           4779   0.93131441   
    172400   207.92901      1149.4881           4779   0.93131441   
    172500   207.31868      1103.215            4779   0.93131441   
    172600   204.83906      1240.7826           4779   0.93131441   
    172700   209.26693      1169.3688           4779   0.93131441   
    172800   206.69209      1369.0169           4779   0.93131441   
    172900   207.60554      1279.5505           4779   0.93131441   
    173000   208.62109      1137.5732           4779   0.93131441   
    173100   208.58616      1088.839            4779   0.93131441   
    173200   206.41849      1252.4835           4779   0.93131441   
    173300   205.33809      1376.7845           4779   0.93131441   
    173400   208.629        1283.8935           4779   0.93131441   
    173500   209.11571      1213.9651           4779   0.93131441   
    173600   208.95284      1136.1576           4779   0.93131441   
    173700   206.79092      1228.1134           4779   0.93131441   
    173800   206.84276      1315.2651           4779   0.93131441   
    173900   206.95901      1387.4664           4779   0.93131441   
    174000   208.64664      1336.1684           4779   0.93131441   
    174100   209.9121       1192.5185           4791   0.93365293   
    174200   206.72716      1255.7154           4791   0.93365293   
    174300   205.38305      1344.4783           4791   0.93365293   
    174400   205.66326      1385.1494           4791   0.93365293   
    174500   208.20953      1287.9647           4791   0.93365293   
    174600   208.05784      1293.7599           4791   0.93365293   
    174700   207.52951      1206.0772           4791   0.93365293   
    174800   208.81548      1076.3076           4791   0.93365293   
    174900   207.84676      1172.9545           4791   0.93365293   
    175000   206.41842      1324.5667           4791   0.93365293   
    175100   207.15396      1333.6892           4791   0.93365293   
    175200   205.44075      1388.4512           4791   0.93365293   
    175300   206.6811       1248.419            4791   0.93365293   
    175400   207.77073      1153.0319           4791   0.93365293   
    175500   203.82449      1388.1673           4791   0.93365293   
    175600   207.24164      1312.2803           4791   0.93365293   
    175700   207.89456      1274.1015           4791   0.93365293   
    175800   206.52925      1251.111            4791   0.93365293   
    175900   205.44432      1248.5901           4791   0.93365293   
    176000   206.39991      1214.9303           4791   0.93365293   
    176100   204.85655      1336.4974           4797   0.93482219   
    176200   204.34986      1415.3342           4797   0.93482219   
    176300   206.3592       1268.5011           4797   0.93482219   
    176400   208.78454      1070.7185           4797   0.93482219   
    176500   209.14259      1012.5033           4797   0.93482219   
    176600   206.32865      1185.812            4797   0.93482219   
    176700   207.71026      1195.9257           4797   0.93482219   
    176800   207.47713      1273.1178           4797   0.93482219   
    176900   207.50464      1240.3088           4797   0.93482219   
    177000   206.32114      1253.8752           4797   0.93482219   
    177100   204.8739       1308.0614           4797   0.93482219   
    177200   206.14291      1305.7763           4797   0.93482219   
    177300   207.48432      1298.4652           4797   0.93482219   
    177400   205.11996      1373.7417           4797   0.93482219   
    177500   207.5581       1225.639            4797   0.93482219   
    177600   205.23639      1241.9731           4797   0.93482219   
    177700   204.68932      1267.9814           4797   0.93482219   
    177800   208.72807      1153.7344           4797   0.93482219   
    177900   206.77707      1297.7957           4797   0.93482219   
    178000   207.34353      1264.2326           4797   0.93482219   
    178100   208.50742      1168.4035           4809   0.9371607    
    178200   204.18444      1325.5004           4809   0.9371607    
    178300   208.73618      1198.3913           4809   0.9371607    
    178400   206.69495      1360.507            4809   0.9371607    
    178500   209.38597      1245.8303           4809   0.9371607    
    178600   207.0571       1336.9163           4809   0.9371607    
    178700   206.93996      1300.3265           4809   0.9371607    
    178800   207.56705      1213.3908           4809   0.9371607    
    178900   206.07291      1293.7971           4809   0.9371607    
    179000   208.78597      1193.3296           4809   0.9371607    
    179100   209.40207      1165.4869           4809   0.9371607    
    179200   206.31913      1264.2632           4809   0.9371607    
    179300   207.71787      1150.5834           4809   0.9371607    
    179400   207.26541      1218.223            4809   0.9371607    
    179500   204.30177      1425.7941           4809   0.9371607    
    179600   208.16346      1266.8515           4809   0.9371607    
    179700   207.75149      1232.7439           4809   0.9371607    
    179800   207.687        1216.6208           4809   0.9371607    
    179900   209.49081      1114.0286           4809   0.9371607    
    180000   206.55572      1291.5769           4809   0.9371607    
    180100   204.26062      1458.5201           4812   0.93774533   
    180200   206.31298      1384.5367           4812   0.93774533   
    180300   208.28206      1263.329            4812   0.93774533   
    180400   206.48231      1277.8032           4812   0.93774533   
    180500   207.28871      1271.2245           4812   0.93774533   
    180600   209.03736      1213.9746           4812   0.93774533   
    180700   207.32922      1320.7636           4812   0.93774533   
    180800   206.63151      1375.738            4812   0.93774533   
    180900   209.5232       1185.2943           4812   0.93774533   
    181000   205.70376      1356.7918           4812   0.93774533   
    181100   203.1579       1472.3746           4812   0.93774533   
    181200   205.28448      1415.4078           4812   0.93774533   
    181300   207.21959      1331.5093           4812   0.93774533   
    181400   207.77014      1286.1277           4812   0.93774533   
    181500   209.48395      1151.4997           4812   0.93774533   
    181600   208.32397      1211.5925           4812   0.93774533   
    181700   207.32194      1258.953            4812   0.93774533   
    181800   208.40763      1280.4598           4812   0.93774533   
    181900   208.03301      1338.6104           4812   0.93774533   
    182000   209.05679      1235.0161           4812   0.93774533   
    182100   207.02122      1296.8914           4827   0.94066848   
    182200   206.16251      1300.6967           4827   0.94066848   
    182300   204.71867      1370.1854           4827   0.94066848   
    182400   206.2395       1345.7417           4827   0.94066848   
    182500   205.60432      1393.4348           4827   0.94066848   
    182600   206.67724      1298.5488           4827   0.94066848   
    182700   207.13679      1204.4235           4827   0.94066848   
    182800   205.35135      1291.4914           4827   0.94066848   
    182900   205.97939      1297.8062           4827   0.94066848   
    183000   208.59219      1194.7888           4827   0.94066848   
    183100   206.88115      1242.1985           4827   0.94066848   
    183200   203.88966      1352.5544           4827   0.94066848   
    183300   206.39981      1189.6663           4827   0.94066848   
    183400   208.07332      1131.2554           4827   0.94066848   
    183500   204.57184      1346.1188           4827   0.94066848   
    183600   205.66925      1333.3923           4827   0.94066848   
    183700   206.60105      1273.9433           4827   0.94066848   
    183800   206.32267      1226.8023           4827   0.94066848   
    183900   206.80219      1139.4824           4827   0.94066848   
    184000   206.5525       1234.2735           4827   0.94066848   
    184100   206.06258      1330.7563           4830   0.94125311   
    184200   205.5855       1395.8504           4830   0.94125311   
    184300   205.29196      1399.6066           4830   0.94125311   
    184400   206.43279      1324.5034           4830   0.94125311   
    184500   206.6934       1304.6243           4830   0.94125311   
    184600   206.80331      1348.3112           4830   0.94125311   
    184700   206.00257      1422.4424           4830   0.94125311   
    184800   205.2904       1424.2343           4830   0.94125311   
    184900   206.89572      1295.3738           4830   0.94125311   
    185000   207.94076      1206.7974           4830   0.94125311   
    185100   203.73765      1428.7056           4830   0.94125311   
    185200   206.1025       1372.827            4830   0.94125311   
    185300   206.80553      1336.7533           4830   0.94125311   
    185400   209.69635      1163.4659           4830   0.94125311   
    185500   206.47606      1243.4142           4830   0.94125311   
    185600   207.78588      1162.4858           4830   0.94125311   
    185700   208.39932      1197.5789           4830   0.94125311   
    185800   208.03265      1230.4051           4830   0.94125311   
    185900   208.66426      1179.7589           4830   0.94125311   
    186000   209.6001       1125.0462           4830   0.94125311   
    186100   206.76776      1254.3801           4830   0.94125311   
    186200   204.55401      1356.9593           4830   0.94125311   
    186300   208.4727       1235.8458           4830   0.94125311   
    186400   205.50867      1451.1759           4830   0.94125311   
    186500   207.64407      1339.6081           4830   0.94125311   
    186600   209.04072      1175.0082           4830   0.94125311   
    186700   207.29156      1237.9077           4830   0.94125311   
    186800   208.11041      1257.8967           4830   0.94125311   
    186900   207.15107      1345.7027           4830   0.94125311   
    187000   205.95108      1446.88             4830   0.94125311   
    187100   207.51723      1368.0992           4830   0.94125311   
    187200   205.98848      1336.0517           4830   0.94125311   
    187300   207.20305      1250.6525           4830   0.94125311   
    187400   205.47123      1338.3032           4830   0.94125311   
    187500   206.5123       1339.3466           4830   0.94125311   
    187600   205.38262      1398.2226           4830   0.94125311   
    187700   208.71365      1230.0038           4830   0.94125311   
    187800   206.36483      1296.4457           4830   0.94125311   
    187900   206.38902      1302.9814           4830   0.94125311   
    188000   207.36639      1288.6683           4830   0.94125311   
    188100   207.34874      1302.7162           4836   0.94242237   
    188200   207.06815      1289.1374           4836   0.94242237   
    188300   204.97397      1326.3336           4836   0.94242237   
    188400   207.49705      1116.3837           4836   0.94242237   
    188500   206.82503      1216.1458           4836   0.94242237   
    188600   204.69883      1387.5622           4836   0.94242237   
    188700   207.01748      1315.0563           4836   0.94242237   
    188800   206.48934      1336.1102           4836   0.94242237   
    188900   206.0033       1301.7414           4836   0.94242237   
    189000   205.82348      1252.262            4836   0.94242237   
    189100   209.51092      1104.7018           4836   0.94242237   
    189200   208.0756       1237.5227           4836   0.94242237   
    189300   208.55188      1235.1871           4836   0.94242237   
    189400   205.34495      1370.5612           4836   0.94242237   
    189500   206.70267      1235.679            4836   0.94242237   
    189600   207.85207      1180.2997           4836   0.94242237   
    189700   207.65715      1230.3648           4836   0.94242237   
    189800   209.40842      1197.6424           4836   0.94242237   
    189900   207.65996      1282.6555           4836   0.94242237   
    190000   206.24078      1292.4332           4836   0.94242237   
    190100   208.32207      1143.7212           4842   0.94359162   
    190200   205.41167      1269.0848           4842   0.94359162   
    190300   205.19007      1361.7083           4842   0.94359162   
    190400   205.7874       1394.679            4842   0.94359162   
    190500   208.21505      1279.438            4842   0.94359162   
    190600   204.45301      1406.1154           4842   0.94359162   
    190700   206.40998      1259.3552           4842   0.94359162   
    190800   205.16293      1332.7858           4842   0.94359162   
    190900   206.94382      1337.1632           4842   0.94359162   
    191000   204.80589      1488.1231           4842   0.94359162   
    191100   206.45274      1358.2785           4842   0.94359162   
    191200   206.36094      1268.6463           4842   0.94359162   
    191300   205.11535      1325.9703           4842   0.94359162   
    191400   206.06989      1367.1494           4842   0.94359162   
    191500   207.45731      1388.9379           4842   0.94359162   
    191600   206.68218      1431.8508           4842   0.94359162   
    191700   206.9084       1370.5065           4842   0.94359162   
    191800   205.1994       1402.7287           4842   0.94359162   
    191900   206.16994      1360.7152           4842   0.94359162   
    192000   203.53741      1518.3499           4842   0.94359162   
    192100   206.79437      1380.1157           4842   0.94359162   
    192200   209.13199      1274.4142           4842   0.94359162   
    192300   204.81985      1426.4702           4842   0.94359162   
    192400   205.32796      1354.2931           4842   0.94359162   
    192500   207.14583      1255.8214           4842   0.94359162   
    192600   208.22017      1264.4379           4842   0.94359162   
    192700   206.9797       1356.8747           4842   0.94359162   
    192800   205.67667      1379.6848           4842   0.94359162   
    192900   206.07716      1275.9259           4842   0.94359162   
    193000   206.99117      1222.8925           4842   0.94359162   
    193100   206.81934      1299.8754           4842   0.94359162   
    193200   207.94235      1287.9418           4842   0.94359162   
    193300   208.7822       1261.3368           4842   0.94359162   
    193400   207.84311      1219.8883           4842   0.94359162   
    193500   206.16937      1239.0712           4842   0.94359162   
    193600   205.94482      1305.6742           4842   0.94359162   
    193700   205.46693      1405.8242           4842   0.94359162   
    193800   206.54752      1406.1775           4842   0.94359162   
    193900   207.54173      1298.6366           4842   0.94359162   
    194000   207.1351       1230.5721           4842   0.94359162   
    194100   207.52631      1207.5585           4845   0.94417625   
    194200   206.49554      1277.0719           4845   0.94417625   
    194300   208.46307      1220.7093           4845   0.94417625   
    194400   209.36881      1204.2816           4845   0.94417625   
    194500   204.73394      1376.244            4845   0.94417625   
    194600   206.97568      1248.2281           4845   0.94417625   
    194700   205.49028      1385.876            4845   0.94417625   
    194800   204.92864      1455.157            4845   0.94417625   
    194900   205.41251      1443.4274           4845   0.94417625   
    195000   204.9353       1470.8325           4845   0.94417625   
    195100   204.29642      1461.5275           4845   0.94417625   
    195200   206.56298      1326.0202           4845   0.94417625   
    195300   205.87294      1360.4352           4845   0.94417625   
    195400   204.96427      1454.3308           4845   0.94417625   
    195500   204.97133      1492.2464           4845   0.94417625   
    195600   205.67173      1419.9846           4845   0.94417625   
    195700   207.81388      1233.0452           4845   0.94417625   
    195800   207.18548      1233.6828           4845   0.94417625   
    195900   205.16953      1386.378            4845   0.94417625   
    196000   204.02893      1450.1124           4845   0.94417625   
    196100   205.92666      1381.8708           4857   0.94651477   
    196200   206.92023      1298.6452           4857   0.94651477   
    196300   205.81582      1297.5417           4857   0.94651477   
    196400   206.95116      1242.1284           4857   0.94651477   
    196500   205.51669      1340.2199           4857   0.94651477   
    196600   205.00799      1422.6565           4857   0.94651477   
    196700   207.55076      1252.1327           4857   0.94651477   
    196800   208.40039      1178.9233           4857   0.94651477   
    196900   206.512        1242.0972           4857   0.94651477   
    197000   205.27477      1335.3271           4857   0.94651477   
    197100   206.19184      1358.7273           4857   0.94651477   
    197200   204.77221      1388.9792           4857   0.94651477   
    197300   209.19232      1149.8774           4857   0.94651477   
    197400   206.75249      1218.7167           4857   0.94651477   
    197500   207.98405      1187.1029           4857   0.94651477   
    197600   206.02343      1329.5057           4857   0.94651477   
    197700   206.13455      1392.0818           4857   0.94651477   
    197800   209.00934      1251.0215           4857   0.94651477   
    197900   206.95276      1314.1927           4857   0.94651477   
    198000   207.08876      1251.8909           4857   0.94651477   
    198100   208.39725      1240.11             4869   0.94885329   
    198200   208.54653      1277.5464           4869   0.94885329   
    198300   205.70043      1475.0504           4869   0.94885329   
    198400   206.92065      1410.1177           4869   0.94885329   
    198500   207.58696      1325.7912           4869   0.94885329   
    198600   204.15039      1416.8593           4869   0.94885329   
    198700   209.79406      1132.2274           4869   0.94885329   
    198800   208.74768      1227.7498           4869   0.94885329   
    198900   207.65302      1334.3595           4869   0.94885329   
    199000   206.97239      1363.298            4869   0.94885329   
    199100   207.1731       1296.8161           4869   0.94885329   
    199200   206.83363      1284.2              4869   0.94885329   
    199300   204.84488      1418.3661           4869   0.94885329   
    199400   204.63163      1490.1426           4869   0.94885329   
    199500   206.78371      1418.7886           4869   0.94885329   
    199600   206.93232      1383.4595           4869   0.94885329   
    199700   205.32806      1454.818            4869   0.94885329   
    199800   203.71545      1535.7871           4869   0.94885329   
    199900   203.66091      1566.6854           4869   0.94885329   
    200000   205.75039      1486.87             4869   0.94885329   
Loop time of 220.905 on 40 procs for 200000 steps with 4869 atoms

Performance: 39.112 ns/day, 0.614 hours/ns, 905.367 timesteps/s, 4.408 Matom-step/s
95.6% CPU use with 40 MPI tasks x no OpenMP threads

MPI task timing breakdown:
Section |  min time  |  avg time  |  max time  |%varavg| %total
---------------------------------------------------------------
Pair    | 91.105     | 100.18     | 110.07     |  50.9 | 45.35
Bond    | 1.1711     | 1.2171     | 1.2509     |   1.9 |  0.55
Neigh   | 3.0997     | 3.1075     | 3.1147     |   0.3 |  1.41
Comm    | 92.301     | 101.95     | 110.88     |  49.0 | 46.15
Output  | 0.10502    | 0.10662    | 0.15101    |   2.2 |  0.05
Modify  | 10.087     | 10.433     | 10.725     |   6.4 |  4.72
Other   |            | 3.909      |            |       |  1.77

Nlocal:        121.725 ave         140 max         105 min
Histogram: 3 2 5 4 8 5 6 3 2 2
Nghost:         4023.3 ave        4080 max        3966 min
Histogram: 2 4 5 4 6 6 3 4 1 5
Neighs:          40503 ave       49801 max       33125 min
Histogram: 3 4 4 4 10 6 4 2 1 2

Total # of neighbors = 1620119
Ave neighs/atom = 332.74163
Ave special neighs/atom = 2
Neighbor list builds = 1650
Dangerous builds = 0

fix avg_press all ave/time 10 100 1000 c_thermo_press file pressure_avg_mu-4.600000000000019.txt

run 500000
Generated 3 of 3 mixed pair_coeff terms from arithmetic mixing rule
3 atoms in group FixGCMC:rotation_gas_atoms:gcmc
WARNING: Fix gcmc is being applied to the default group all (../fix_gcmc.cpp:715)
Per MPI rank memory allocation (min/avg/max) = 9.053 | 9.083 | 9.092 Mbytes
   Step          Temp          Press         Atoms       Density    
    200000   205.75039      1486.87             4869   0.94885329   
    200100   229.74978      1527.1869           4872   0.94943792   
    200200   259.46846      1817.8447           4872   0.94943792   
    200300   287.00305      2333.6806           4872   0.94943792   
    200400   314.34487      2504.7664           4872   0.94943792   
    200500   320.66274      3067.1657           4872   0.94943792   
    200600   319.58086      3034.4577           4872   0.94943792   
    200700   309.96544      2873.5386           4872   0.94943792   
    200800   307.27364      2603.1582           4872   0.94943792   
    200900   308.09397      2741.464            4872   0.94943792   
    201000   316.66797      2905.4048           4872   0.94943792   
    201100   321.9139       2838.4172           4872   0.94943792   
    201200   313.93545      2722.0994           4872   0.94943792   
    201300   303.31143      2788.9799           4872   0.94943792   
    201400   307.71339      2869.0472           4872   0.94943792   
    201500   319.29477      3010.4442           4872   0.94943792   
    201600   318.53681      3124.9781           4872   0.94943792   
    201700   314.21113      2848.1986           4872   0.94943792   
    201800   305.3713       2869.2892           4872   0.94943792   
    201900   307.63296      2986.8319           4872   0.94943792   
    202000   322.01283      2816.2124           4872   0.94943792   
    202100   316.53221      2869.7469           4878   0.95060718   
    202200   306.90017      2867.2833           4878   0.95060718   
    202300   308.98697      2859.2531           4878   0.95060718   
    202400   312.45695      3012.5951           4878   0.95060718   
    202500   319.11214      2910.1127           4878   0.95060718   
    202600   316.19856      2674.4051           4878   0.95060718   
    202700   305.44869      2764.1703           4878   0.95060718   
    202800   308.73099      2801.1388           4878   0.95060718   
    202900   317.16456      2807.8596           4878   0.95060718   
    203000   314.46082      2932.3033           4878   0.95060718   
    203100   311.1219       2744.3597           4878   0.95060718   
    203200   308.86859      2720.281            4878   0.95060718   
    203300   313.54084      2646.0803           4878   0.95060718   
    203400   314.13517      2739.4413           4878   0.95060718   
    203500   311.63027      2921.2756           4878   0.95060718   
    203600   313.69984      2965.8112           4878   0.95060718   
    203700   318.91416      2760.4451           4878   0.95060718   
    203800   308.35903      2908.487            4878   0.95060718   
    203900   309.62098      2855.4678           4878   0.95060718   
    204000   316.26945      2725.5885           4878   0.95060718   
    204100   313.22697      2763.7823           4875   0.95002255   
    204200   314.44815      2575.1604           4875   0.95002255   
    204300   302.71228      2694.1011           4875   0.95002255   
    204400   310.99089      2699.2057           4875   0.95002255   
    204500   315.77273      2704.6852           4875   0.95002255   
    204600   310.86447      2744.3737           4875   0.95002255   
    204700   310.33892      2696.8361           4875   0.95002255   
    204800   315.84361      2624.8227           4875   0.95002255   
    204900   316.82692      2787.763            4875   0.95002255   
    205000   311.06617      2908.8248           4875   0.95002255   
    205100   308.46994      2753.6291           4875   0.95002255   
    205200   308.14805      2690.5018           4875   0.95002255   
    205300   317.4287       2762.8522           4875   0.95002255   
    205400   317.84199      2775.6347           4875   0.95002255   
    205500   311.35299      2779.1919           4875   0.95002255   
    205600   310.84886      2751.0689           4875   0.95002255   
    205700   312.65614      2721.6593           4875   0.95002255   
    205800   315.4307       2826.5953           4875   0.95002255   
    205900   323.94386      2777.9103           4875   0.95002255   
    206000   315.53076      2741.7498           4875   0.95002255   
    206100   310.27727      2828.4549           4875   0.95002255   
    206200   312.674        2815.5409           4875   0.95002255   
    206300   313.77952      2955.6652           4875   0.95002255   
    206400   314.82554      3085.5561           4875   0.95002255   
    206500   320.40521      2881.7929           4875   0.95002255   
    206600   310.45436      2915.3965           4875   0.95002255   
    206700   312.67577      2661.9099           4875   0.95002255   
    206800   310.83454      2726.4165           4875   0.95002255   
    206900   314.88134      2900.926            4875   0.95002255   
    207000   321.31883      2727.2691           4875   0.95002255   
    207100   311.89343      2927.7224           4875   0.95002255   
    207200   311.87193      2893.0704           4875   0.95002255   
    207300   313.12171      2957.0277           4875   0.95002255   
    207400   314.98092      3045.5975           4875   0.95002255   
    207500   318.54144      2879.8989           4875   0.95002255   
    207600   314.35432      2551.0038           4875   0.95002255   
    207700   310.85408      2510.1032           4875   0.95002255   
    207800   312.09439      2534.6576           4875   0.95002255   
    207900   309.61825      2867.4847           4875   0.95002255   
    208000   316.04745      2938.6142           4875   0.95002255   
    208100   317.86172      2855.5377           4872   0.94943792   
    208200   314.52696      2643.6621           4872   0.94943792   
    208300   309.4689       2710.1168           4872   0.94943792   
    208400   310.18427      2789.3409           4872   0.94943792   
    208500   310.24391      3008.4326           4872   0.94943792   
    208600   314.96358      2864.6906           4872   0.94943792   
    208700   314.37901      2734.4457           4872   0.94943792   
    208800   310.53676      2715.2762           4872   0.94943792   
    208900   313.00528      2699.5257           4872   0.94943792   
    209000   313.92621      2731.9071           4872   0.94943792   
    209100   312.38788      2922.7598           4872   0.94943792   
    209200   317.64782      2850.1634           4872   0.94943792   
    209300   312.5113       2860.3691           4872   0.94943792   
    209400   309.84405      2752.206            4872   0.94943792   
    209500   310.43679      2776.5159           4872   0.94943792   
    209600   317.38764      2596.0453           4872   0.94943792   
    209700   308.87305      2848.2206           4872   0.94943792   
    209800   312.3201       2872.0133           4872   0.94943792   
    209900   319.24148      2954.8483           4872   0.94943792   
    210000   313.59807      3033.9584           4872   0.94943792   
    210100   311.13687      2865.4687           4881   0.9511918    
    210200   311.09033      2781.5585           4881   0.9511918    
    210300   310.45783      2759.3074           4881   0.9511918    
    210400   316.71754      2697.1868           4881   0.9511918    
    210500   314.66416      2798.5963           4881   0.9511918    
    210600   310.20154      2669.5987           4881   0.9511918    
    210700   308.27816      2568.5156           4881   0.9511918    
    210800   308.68455      2754.8749           4881   0.9511918    
    210900   313.4783       2933.0704           4881   0.9511918    
    211000   314.50676      2791.3472           4881   0.9511918    
    211100   308.30324      2848.6175           4881   0.9511918    
    211200   311.11656      2903.9671           4881   0.9511918    
    211300   316.61622      2994.9096           4881   0.9511918    
    211400   315.26628      2910.3547           4881   0.9511918    
    211500   313.96622      2743.9488           4881   0.9511918    
    211600   312.30946      2672.1393           4881   0.9511918    
    211700   307.92888      2916.2334           4881   0.9511918    
    211800   317.48814      2799.1731           4881   0.9511918    
    211900   314.0957       2908.2957           4881   0.9511918    
    212000   309.50414      2777.0229           4881   0.9511918    
    212100   307.1286       2741.2624           4893   0.95353032   
    212200   307.95345      2803.9627           4893   0.95353032   
    212300   312.30384      2952.7208           4893   0.95353032   
    212400   317.13055      2831.3162           4893   0.95353032   
    212500   309.22773      2858.8599           4893   0.95353032   
    212600   312.53777      2579.4406           4893   0.95353032   
    212700   309.50694      2590.1084           4893   0.95353032   
    212800   310.7231       2538.3943           4893   0.95353032   
    212900   311.32653      2721.3726           4893   0.95353032   
    213000   309.99578      2977.9695           4893   0.95353032   
    213100   318.31109      2896.0631           4893   0.95353032   
    213200   312.5529       2877.7271           4893   0.95353032   
    213300   307.41059      2877.5935           4893   0.95353032   
    213400   311.55941      2819.5891           4893   0.95353032   
    213500   309.71629      3038.1131           4893   0.95353032   
    213600   315.45717      2943.5535           4893   0.95353032   
    213700   312.45351      2851.9306           4893   0.95353032   
    213800   303.72424      2932.3986           4893   0.95353032   
    213900   309.92272      2918.8201           4893   0.95353032   
    214000   314.09879      2970.0676           4893   0.95353032   
    214100   310.84651      3061.0345           4908   0.95645347   
    214200   307.67718      2937.0881           4908   0.95645347   
    214300   305.61631      2877.2172           4908   0.95645347   
    214400   312.64128      2842.1319           4908   0.95645347   
    214500   315.24092      2997.3963           4908   0.95645347   
    214600   311.65361      2896.3601           4908   0.95645347   
    214700   304.91235      3062.6117           4908   0.95645347   
    214800   312.85417      2882.0003           4908   0.95645347   
    214900   307.79851      3062.0235           4908   0.95645347   
    215000   312.96746      2890.2661           4908   0.95645347   
    215100   312.71562      2932.5108           4908   0.95645347   
    215200   310.73758      2872.9904           4908   0.95645347   
    215300   309.42934      2669.1873           4908   0.95645347   
    215400   305.6659       2766.4852           4908   0.95645347   
    215500   313.77163      2750.424            4908   0.95645347   
    215600   312.60864      2890.2668           4908   0.95645347   
    215700   312.26888      2761.1319           4908   0.95645347   
    215800   308.42229      2825.6226           4908   0.95645347   
    215900   313.16586      2662.643            4908   0.95645347   
    216000   312.14993      2670.2732           4908   0.95645347   
    216100   306.5968       2871.6166           4905   0.95586884   
    216200   312.24001      2938.2572           4905   0.95586884   
    216300   313.71646      3021.3074           4905   0.95586884   
    216400   311.52408      3048.3221           4905   0.95586884   
    216500   310.8479       2922.4422           4905   0.95586884   
    216600   308.57602      2895.0539           4905   0.95586884   
    216700   313.21669      2642.3734           4905   0.95586884   
    216800   308.21866      2788.3548           4905   0.95586884   
    216900   310.03464      2822.424            4905   0.95586884   
    217000   316.29434      2829.9939           4905   0.95586884   
    217100   312.92844      2689.8096           4905   0.95586884   
    217200   305.34351      2777.7942           4905   0.95586884   
    217300   312.41924      2673.0773           4905   0.95586884   
    217400   310.80752      2818.0021           4905   0.95586884   
    217500   313.6261       2803.8643           4905   0.95586884   
    217600   316.56264      2866.4941           4905   0.95586884   
    217700   308.69507      2891.3521           4905   0.95586884   
    217800   308.0543       2714.4752           4905   0.95586884   
    217900   307.88491      2853.9284           4905   0.95586884   
    218000   315.85936      2873.776            4905   0.95586884   
    218100   319.38215      2584.0771           4899   0.95469958   
    218200   310.76224      2609.1495           4899   0.95469958   
    218300   310.57684      2490.3484           4899   0.95469958   
    218400   305.67644      2734.6496           4899   0.95469958   
    218500   312.53322      2822.4127           4899   0.95469958   
    218600   315.31083      2860.8598           4899   0.95469958   
    218700   312.06151      2676.1051           4899   0.95469958   
    218800   305.8986       2734.629            4899   0.95469958   
    218900   313.22752      2659.7945           4899   0.95469958   
    219000   313.4421       2608.3073           4899   0.95469958   
    219100   311.7887       2590.7172           4899   0.95469958   
    219200   309.76752      2631.3192           4899   0.95469958   
    219300   313.35488      2610.3604           4899   0.95469958   
    219400   310.38994      2693.2205           4899   0.95469958   
    219500   305.22984      2772.4867           4899   0.95469958   
    219600   314.77094      2539.2903           4899   0.95469958   
    219700   310.10986      2909.8179           4899   0.95469958   
    219800   311.93381      3061.1176           4899   0.95469958   
    219900   324.232        2921.7068           4899   0.95469958   
    220000   317.14909      2781.9932           4899   0.95469958   
    220100   310.34965      2762.8779           4902   0.95528421   
    220200   305.57794      2871.3183           4902   0.95528421   
    220300   311.79628      2899.1633           4902   0.95528421   
    220400   316.15318      2916.2502           4902   0.95528421   
    220500   311.12077      2993.4685           4902   0.95528421   
    220600   306.99792      2978.1398           4902   0.95528421   
    220700   309.37723      2896.1533           4902   0.95528421   
    220800   312.25909      2834.1112           4902   0.95528421   
    220900   309.38506      2921.9708           4902   0.95528421   
    221000   312.31972      3024.6517           4902   0.95528421   
    221100   321.28999      2957.6894           4902   0.95528421   
    221200   312.96128      2993.6976           4902   0.95528421   
    221300   311.33471      2808.8514           4902   0.95528421   
    221400   310.69089      2684.3483           4902   0.95528421   
    221500   306.81047      2755.9988           4902   0.95528421   
    221600   312.94034      2765.566            4902   0.95528421   
    221700   314.55705      2923.2181           4902   0.95528421   
    221800   312.62326      2796.4785           4902   0.95528421   
    221900   305.97077      2697.2521           4902   0.95528421   
    222000   306.56272      2764.8392           4902   0.95528421   
    222100   311.17592      2717.4841           4902   0.95528421   
    222200   310.23232      2992.2443           4902   0.95528421   
    222300   313.68615      3109.9278           4902   0.95528421   
    222400   317.967        2779.4077           4902   0.95528421   
    222500   309.13473      2799.8544           4902   0.95528421   
    222600   311.11593      2783.9878           4902   0.95528421   
    222700   313.05404      2777.7874           4902   0.95528421   
    222800   308.33058      2855.1357           4902   0.95528421   
    222900   306.88018      2954.6883           4902   0.95528421   
    223000   314.33815      2966.3801           4902   0.95528421   
    223100   317.24239      2931.1561           4902   0.95528421   
    223200   307.84367      3014.3736           4902   0.95528421   
    223300   309.17114      2824.8822           4902   0.95528421   
    223400   307.9236       2944.9309           4902   0.95528421   
    223500   313.23525      2955.6886           4902   0.95528421   
    223600   314.66317      2880.1421           4902   0.95528421   
    223700   311.80039      2765.2733           4902   0.95528421   
    223800   308.88991      2770.9593           4902   0.95528421   
    223900   308.92521      2946.5265           4902   0.95528421   
    224000   316.51794      2701.1048           4902   0.95528421   
    224100   309.82066      2640.3994           4908   0.95645347   
    224200   303.48902      2765.5023           4908   0.95645347   
    224300   307.58352      2816.0512           4908   0.95645347   
    224400   311.72556      2868.1585           4908   0.95645347   
    224500   312.24596      2859.5807           4908   0.95645347   
    224600   308.36219      2850.3283           4908   0.95645347   
    224700   305.97379      2740.2528           4908   0.95645347   
    224800   307.37341      2709.1437           4908   0.95645347   
    224900   314.10806      2774.3642           4908   0.95645347   
    225000   311.05631      2892.4306           4908   0.95645347   
    225100   309.12459      2798.4447           4908   0.95645347   
    225200   301.93458      2792.4712           4908   0.95645347   
    225300   313.52056      2587.7773           4908   0.95645347   
    225400   313.12304      2779.5726           4908   0.95645347   
    225500   310.5415       2820.3331           4908   0.95645347   
    225600   311.07034      2766.2847           4908   0.95645347   
    225700   307.17146      2717.8516           4908   0.95645347   
    225800   301.71094      2818.5816           4908   0.95645347   
    225900   311.33936      2831.5832           4908   0.95645347   
    226000   312.36394      2848.1087           4908   0.95645347   
    226100   311.84507      2808.4841           4908   0.95645347   
    226200   305.79115      2885.4192           4908   0.95645347   
    226300   307.99284      2948.308            4908   0.95645347   
    226400   317.29471      2777.9342           4908   0.95645347   
    226500   313.13566      2668.516            4908   0.95645347   
    226600   308.57385      2650.1297           4908   0.95645347   
    226700   303.72291      3006.8905           4908   0.95645347   
    226800   317.60372      2666.8888           4908   0.95645347   
    226900   308.94493      2761.9169           4908   0.95645347   
    227000   307.48434      2820.7346           4908   0.95645347   
    227100   310.6141       2944.7441           4908   0.95645347   
    227200   315.12021      2908.745            4908   0.95645347   
    227300   309.23131      3163.4405           4908   0.95645347   
    227400   305.10283      2924.6775           4908   0.95645347   
    227500   307.25888      2752.4583           4908   0.95645347   
    227600   313.99167      2692.4835           4908   0.95645347   
    227700   310.47663      2937.6046           4908   0.95645347   
    227800   312.07116      2797.5572           4908   0.95645347   
    227900   302.90459      2864.9419           4908   0.95645347   
    228000   311.06116      2683.7798           4908   0.95645347   
    228100   313.8003       2831.038            4905   0.95586884   
    228200   311.05825      2943.1782           4905   0.95586884   
    228300   308.70541      2680.1101           4905   0.95586884   
    228400   303.35514      2619.4326           4905   0.95586884   
    228500   308.79299      2757.7201           4905   0.95586884   
    228600   311.58698      2856.9387           4905   0.95586884   
    228700   312.29525      2900.2936           4905   0.95586884   
    228800   310.98927      2884.7277           4905   0.95586884   
    228900   304.15624      2912.394            4905   0.95586884   
    229000   313.31366      2711.5911           4905   0.95586884   
    229100   314.58329      2939.1065           4905   0.95586884   
    229200   312.02602      2817.5003           4905   0.95586884   
    229300   304.77487      2713.1846           4905   0.95586884   
    229400   307.26517      2718.1912           4905   0.95586884   
    229500   312.86609      2744.0128           4905   0.95586884   
    229600   311.14195      2896.6299           4905   0.95586884   
    229700   316.16302      2668.1945           4905   0.95586884   
    229800   306.57707      2622.2759           4905   0.95586884   
    229900   306.53065      2685.179            4905   0.95586884   
    230000   313.93784      2513.7624           4905   0.95586884   
    230100   310.06999      2793.2422           4902   0.95528421   
    230200   315.30998      2691.8402           4902   0.95528421   
    230300   305.37173      2799.6188           4902   0.95528421   
    230400   305.56904      2759.0871           4902   0.95528421   
    230500   314.48343      2843.3379           4902   0.95528421   
    230600   314.73076      2808.5308           4902   0.95528421   
    230700   308.98054      2880.2981           4902   0.95528421   
    230800   309.30977      2832.5972           4902   0.95528421   
    230900   314.07709      2932.5548           4902   0.95528421   
    231000   320.48081      2871.4293           4902   0.95528421   
    231100   312.1681       2788.2848           4902   0.95528421   
    231200   307.39454      2954.1166           4902   0.95528421   
    231300   314.8405       2727.9798           4902   0.95528421   
    231400   311.15928      2828.1785           4902   0.95528421   
    231500   305.11922      2924.8158           4902   0.95528421   
    231600   312.70371      2890.0065           4902   0.95528421   
    231700   318.09042      2803.7326           4902   0.95528421   
    231800   309.06173      2946.6829           4902   0.95528421   
    231900   310.42085      2795.8735           4902   0.95528421   
    232000   309.66723      2810.9679           4902   0.95528421   
    232100   309.19122      2935.3975           4905   0.95586884   
    232200   324.83399      2759.2851           4905   0.95586884   
    232300   312.50909      2986.5255           4905   0.95586884   
    232400   312.61482      2761.7685           4905   0.95586884   
    232500   310.67963      2590.5963           4905   0.95586884   
    232600   305.42733      2694.688            4905   0.95586884   
    232700   312.26567      2687.9535           4905   0.95586884   
    232800   316.81395      2713.6538           4905   0.95586884   
    232900   310.59213      2728.793            4905   0.95586884   
    233000   309.88215      2754.6792           4905   0.95586884   
    233100   310.92071      2766.6304           4905   0.95586884   
    233200   309.99696      2829.8969           4905   0.95586884   
    233300   312.48995      2920.7515           4905   0.95586884   
    233400   317.66091      2831.2121           4905   0.95586884   
    233500   312.4994       2711.2835           4905   0.95586884   
    233600   307.57922      2650.5552           4905   0.95586884   
    233700   307.27974      2782.3865           4905   0.95586884   
    233800   311.89616      2946.5918           4905   0.95586884   
    233900   316.17758      2869.2894           4905   0.95586884   
    234000   311.66461      2777.4611           4905   0.95586884   
    234100   309.77054      2680.4984           4902   0.95528421   
    234200   312.14877      2546.8412           4902   0.95528421   
    234300   310.04311      2619.4129           4902   0.95528421   
    234400   303.11359      2692.6358           4902   0.95528421   
    234500   306.91498      2754.5906           4902   0.95528421   
    234600   312.32404      2827.0344           4902   0.95528421   
    234700   310.94043      2915.8488           4902   0.95528421   
    234800   311.69654      2794.1501           4902   0.95528421   
    234900   310.72092      2822.1842           4902   0.95528421   
    235000   308.9113       2836.9454           4902   0.95528421   
    235100   304.94234      2992.5754           4902   0.95528421   
    235200   314.02608      2848.2064           4902   0.95528421   
    235300   317.16886      2531.9857           4902   0.95528421   
    235400   309.27597      2555.8562           4902   0.95528421   
    235500   307.98697      2707.0235           4902   0.95528421   
    235600   312.08632      2785.0401           4902   0.95528421   
    235700   312.03461      2806.3426           4902   0.95528421   
    235800   304.47914      2839.6653           4902   0.95528421   
    235900   304.29076      2757.621            4902   0.95528421   
    236000   311.48174      2856.5987           4902   0.95528421   
    236100   314.22735      2865.284            4905   0.95586884   
    236200   309.78449      2961.1286           4905   0.95586884   
    236300   308.18902      2814.4429           4905   0.95586884   
    236400   312.34688      2749.0272           4905   0.95586884   
    236500   315.74489      2826.0575           4905   0.95586884   
    236600   313.29455      2739.3927           4905   0.95586884   
    236700   303.81943      3059.8474           4905   0.95586884   
    236800   311.85026      2942.8961           4905   0.95586884   
    236900   311.18006      2883.914            4905   0.95586884   
    237000   315.00279      2549.9914           4905   0.95586884   
    237100   302.47855      2663.0217           4905   0.95586884   
    237200   308.68136      2595.5002           4905   0.95586884   
    237300   310.34011      3041.1683           4905   0.95586884   
    237400   313.44074      2983.3292           4905   0.95586884   
    237500   306.71445      3117.0826           4905   0.95586884   
    237600   313.86034      2810.2541           4905   0.95586884   
    237700   316.28882      2701.8632           4905   0.95586884   
    237800   304.16081      2840.1926           4905   0.95586884   
    237900   310.78274      2681.4554           4905   0.95586884   
    238000   311.41706      2834.5008           4905   0.95586884   
    238100   312.83775      2975.8639           4908   0.95645347   
    238200   320.8815       2907.0654           4908   0.95645347   
    238300   311.68511      2987.4516           4908   0.95645347   
    238400   310.8335       3047.1628           4908   0.95645347   
    238500   311.60759      2986.627            4908   0.95645347   
    238600   306.0366       3022.5029           4908   0.95645347   
    238700   309.50058      2896.8557           4908   0.95645347   
    238800   314.83394      2794.5697           4908   0.95645347   
    238900   311.71984      2835.3397           4908   0.95645347   
    239000   308.39166      3023.7124           4908   0.95645347   
    239100   313.16818      2971.5383           4908   0.95645347   
    239200   312.43107      2776.1363           4908   0.95645347   
    239300   302.87961      2587.5365           4908   0.95645347   
    239400   307.78812      2464.3431           4908   0.95645347   
    239500   313.55035      2501.6099           4908   0.95645347   
    239600   313.22837      2593.8331           4908   0.95645347   
    239700   303.53194      2926.3317           4908   0.95645347   
    239800   312.3793       2737.7269           4908   0.95645347   
    239900   314.97621      2856.9915           4908   0.95645347   
    240000   310.62191      2923.4848           4908   0.95645347   
    240100   309.18013      2942.9693           4908   0.95645347   
    240200   310.87598      2933.6427           4908   0.95645347   
    240300   306.65158      2748.8656           4908   0.95645347   
    240400   303.55221      2670.5925           4908   0.95645347   
    240500   309.82791      2690.5096           4908   0.95645347   
    240600   311.25131      2897.3675           4908   0.95645347   
    240700   312.85576      2979.0499           4908   0.95645347   
    240800   312.49739      2797.042            4908   0.95645347   
    240900   300.73586      3052.3639           4908   0.95645347   
    241000   308.9351       2796.5959           4908   0.95645347   
    241100   313.32713      2707.1353           4908   0.95645347   
    241200   311.83151      2682.7087           4908   0.95645347   
    241300   302.77947      3057.0519           4908   0.95645347   
    241400   309.70424      3101.8213           4908   0.95645347   
    241500   313.51543      2908.0459           4908   0.95645347   
    241600   309.2397       2853.0738           4908   0.95645347   
    241700   310.07989      2716.7052           4908   0.95645347   
    241800   309.4745       2816.821            4908   0.95645347   
    241900   313.52481      2823.0305           4908   0.95645347   
    242000   312.13681      2883.082            4908   0.95645347   
    242100   308.34699      2742.092            4908   0.95645347   
    242200   308.52357      2552.6046           4908   0.95645347   
    242300   312.96482      2633.9957           4908   0.95645347   
    242400   315.82972      2823.6486           4908   0.95645347   
    242500   305.95141      3136.6219           4908   0.95645347   
    242600   308.25459      2768.1              4908   0.95645347   
    242700   304.44404      2779.4327           4908   0.95645347   
    242800   314.57295      2701.0567           4908   0.95645347   
    242900   312.92986      2829.0318           4908   0.95645347   
    243000   309.62457      2910.3621           4908   0.95645347   
    243100   307.50986      3005.8771           4908   0.95645347   
    243200   313.1255       2934.5104           4908   0.95645347   
    243300   319.57198      2704.9528           4908   0.95645347   
    243400   313.63006      2615.7752           4908   0.95645347   
    243500   309.04104      2699.3832           4908   0.95645347   
    243600   309.13242      2808.1269           4908   0.95645347   
    243700   308.96418      3191.8342           4908   0.95645347   
    243800   319.03256      2854.1398           4908   0.95645347   
    243900   314.10484      2682.3947           4908   0.95645347   
    244000   308.45181      2800.1614           4908   0.95645347   
    244100   307.87135      2940.9223           4917   0.95820736   
    244200   313.76769      3009.2388           4917   0.95820736   
    244300   315.38574      3088.2388           4917   0.95820736   
    244400   310.35819      2863.3315           4917   0.95820736   
    244500   305.78186      2694.3786           4917   0.95820736   
    244600   311.03008      2561.692            4917   0.95820736   
    244700   306.20771      3036.7415           4917   0.95820736   
    244800   316.52982      3105.7509           4917   0.95820736   
    244900   315.50028      2941.6003           4917   0.95820736   
    245000   308.37449      2806.5026           4917   0.95820736   
    245100   309.98158      2619.9725           4917   0.95820736   
    245200   308.85218      2781.8742           4917   0.95820736   
    245300   315.51088      2713.532            4917   0.95820736   
    245400   306.164        2982.8139           4917   0.95820736   
    245500   307.84613      2882.9975           4917   0.95820736   
    245600   316.26464      2651.2082           4917   0.95820736   
    245700   311.7829       2716.3426           4917   0.95820736   
    245800   307.85698      2782.5027           4917   0.95820736   
    245900   311.05962      2736.9396           4917   0.95820736   
    246000   308.51478      2938.3583           4917   0.95820736   
    246100   308.93519      3045.0465           4920   0.95879198   
    246200   313.34253      3063.1319           4920   0.95879198   
    246300   315.33879      2878.6658           4920   0.95879198   
    246400   310.58108      2992.789            4920   0.95879198   
    246500   308.10779      3004.4082           4920   0.95879198   
    246600   311.30057      2726.4558           4920   0.95879198   
    246700   306.93649      2726.8338           4920   0.95879198   
    246800   305.2023       2546.0432           4920   0.95879198   
    246900   311.36043      2640.2361           4920   0.95879198   
    247000   312.49784      2908.4722           4920   0.95879198   
    247100   310.21324      3058.2013           4920   0.95879198   
    247200   304.17994      2971.2807           4920   0.95879198   
    247300   301.16679      2702.9003           4920   0.95879198   
    247400   308.75824      2682.2556           4920   0.95879198   
    247500   312.33278      2740.6953           4920   0.95879198   
    247600   311.27064      2797.337            4920   0.95879198   
    247700   305.39016      2940.7936           4920   0.95879198   
    247800   308.94075      2836.6388           4920   0.95879198   
    247900   315.84405      2827.6192           4920   0.95879198   
    248000   314.19222      2811.2137           4920   0.95879198   
    248100   307.70367      2883.1419           4926   0.95996124   
    248200   309.64783      2873.638            4926   0.95996124   
    248300   312.02094      2754.4008           4926   0.95996124   
    248400   306.36771      2633.1518           4926   0.95996124   
    248500   301.36813      2677.4161           4926   0.95996124   
    248600   312.30637      2784.7403           4926   0.95996124   
    248700   311.82185      2894.4333           4926   0.95996124   
    248800   312.09209      2714.1799           4926   0.95996124   
    248900   304.46204      2695.7913           4926   0.95996124   
    249000   306.60274      2669.4588           4926   0.95996124   
    249100   310.65088      2883.5389           4926   0.95996124   
    249200   312.34216      2903.3802           4926   0.95996124   
    249300   310.33626      3047.668            4926   0.95996124   
    249400   311.72646      2922.825            4926   0.95996124   
    249500   305.83022      2832.6646           4926   0.95996124   
    249600   301.96693      2818.5129           4926   0.95996124   
    249700   308.41889      2809.6017           4926   0.95996124   
    249800   312.39343      2681.6673           4926   0.95996124   
    249900   307.85962      2761.8549           4926   0.95996124   
    250000   304.20723      2803.9709           4926   0.95996124   
    250100   313.02743      2704.0343           4926   0.95996124   
    250200   312.31852      2683.3116           4926   0.95996124   
    250300   313.51197      2439.6133           4926   0.95996124   
    250400   305.22708      2695.7994           4926   0.95996124   
    250500   304.55134      2932.6387           4926   0.95996124   
    250600   311.51961      2818.9174           4926   0.95996124   
    250700   309.81567      2766.5027           4926   0.95996124   
    250800   307.44709      2699.8744           4926   0.95996124   
    250900   309.82829      2617.9073           4926   0.95996124   
    251000   303.04696      2901.6213           4926   0.95996124   
    251100   304.21695      3165.4615           4926   0.95996124   
    251200   315.73487      2934.9121           4926   0.95996124   
    251300   311.0429       2854.3706           4926   0.95996124   
    251400   308.6053       2609.0412           4926   0.95996124   
    251500   304.34386      2790.4219           4926   0.95996124   
    251600   309.02181      2957.1266           4926   0.95996124   
    251700   310.58395      2929.4092           4926   0.95996124   
    251800   309.49763      2902.939            4926   0.95996124   
    251900   310.7861       2726.9488           4926   0.95996124   
    252000   300.49003      2914.7684           4926   0.95996124   
    252100   312.22749      2594.6253           4929   0.96054587   
    252200   313.9128       2714.3746           4929   0.96054587   
    252300   308.74087      2751.4555           4929   0.96054587   
    252400   307.65517      2794.7783           4929   0.96054587   
    252500   310.42974      2764.7473           4929   0.96054587   
    252600   308.34739      2848.5322           4929   0.96054587   
    252700   305.53012      2806.863            4929   0.96054587   
    252800   304.28386      2869.4555           4929   0.96054587   
    252900   312.59929      2834.9613           4929   0.96054587   
    253000   310.3708       2975.9188           4929   0.96054587   
    253100   311.63116      2799.6239           4929   0.96054587   
    253200   304.49683      2668.5899           4929   0.96054587   
    253300   302.76065      2765.3575           4929   0.96054587   
    253400   309.26574      2882.7733           4929   0.96054587   
    253500   312.69457      2801.5297           4929   0.96054587   
    253600   305.98565      2841.068            4929   0.96054587   
    253700   308.31797      2632.4194           4929   0.96054587   
    253800   304.72373      2681.3381           4929   0.96054587   
    253900   309.98201      2843.3602           4929   0.96054587   
    254000   313.37242      2914.7374           4929   0.96054587   
    254100   311.30705      2887.6905           4941   0.96288439   
    254200   304.46077      2785.3566           4941   0.96288439   
    254300   303.27908      2888.0976           4941   0.96288439   
    254400   304.68531      3087.9034           4941   0.96288439   
    254500   311.31092      3051.7272           4941   0.96288439   
    254600   313.70521      2801.455            4941   0.96288439   
    254700   304.92777      2792.5419           4941   0.96288439   
    254800   302.69521      3018.4846           4941   0.96288439   
    254900   311.39813      2894.172            4941   0.96288439   
    255000   312.95226      2766.9935           4941   0.96288439   
    255100   303.836        2891.2272           4941   0.96288439   
    255200   307.31999      2779.9117           4941   0.96288439   
    255300   309.73773      2711.2664           4941   0.96288439   
    255400   309.54165      2736.6876           4941   0.96288439   
    255500   303.51202      3029.0203           4941   0.96288439   
    255600   315.08849      3024.384            4941   0.96288439   
    255700   311.78385      3152.9092           4941   0.96288439   
    255800   308.92987      2962.3861           4941   0.96288439   
    255900   308.4257       2767.93             4941   0.96288439   
    256000   306.31159      2864.4973           4941   0.96288439   
    256100   309.15464      2898.7378           4950   0.96463828   
    256200   317.81588      2804.8844           4950   0.96463828   
    256300   307.20574      2754.1418           4950   0.96463828   
    256400   304.249        2692.3713           4950   0.96463828   
    256500   305.84113      2969.353            4950   0.96463828   
    256600   312.38788      3061.2402           4950   0.96463828   
    256700   309.04646      3152.1469           4950   0.96463828   
    256800   306.68882      3052.4279           4950   0.96463828   
    256900   303.38318      2851.9681           4950   0.96463828   
    257000   303.9762       2758.9114           4950   0.96463828   
    257100   308.66933      2936.2704           4950   0.96463828   
    257200   313.20212      3001.18             4950   0.96463828   
    257300   307.68527      2947.394            4950   0.96463828   
    257400   304.55776      2815.5746           4950   0.96463828   
    257500   307.06666      2757.768            4950   0.96463828   
    257600   305.82912      2854.6041           4950   0.96463828   
    257700   308.34799      2932.1327           4950   0.96463828   
    257800   310.43149      3058.6868           4950   0.96463828   
    257900   306.99659      3002.1546           4950   0.96463828   
    258000   301.10724      2766.3204           4950   0.96463828   
    258100   306.11706      2619.6204           4938   0.96229976   
    258200   306.19721      2917.8381           4938   0.96229976   
    258300   312.09572      2959.3024           4938   0.96229976   
    258400   310.24235      2918.0591           4938   0.96229976   
    258500   306.14291      2719.6667           4938   0.96229976   
    258600   303.79625      2666.9112           4938   0.96229976   
    258700   306.94596      2744.6477           4938   0.96229976   
    258800   310.84124      2701.6506           4938   0.96229976   
    258900   308.83133      2858.4159           4938   0.96229976   
    259000   309.31183      2677.4231           4938   0.96229976   
    259100   295.83177      3010.3553           4938   0.96229976   
    259200   311.54509      2722.8217           4938   0.96229976   
    259300   311.54819      2732.3415           4938   0.96229976   
    259400   309.11599      2683.4093           4938   0.96229976   
    259500   304.38385      2774.3119           4938   0.96229976   
    259600   304.20142      2993.664            4938   0.96229976   
    259700   311.27503      2977.4243           4938   0.96229976   
    259800   312.23398      2838.4667           4938   0.96229976   
    259900   306.62637      2855.8915           4938   0.96229976   
    260000   307.57229      2728.9326           4938   0.96229976   
    260100   311.46207      2579.7116           4938   0.96229976   
    260200   306.52811      2654.1533           4938   0.96229976   
    260300   307.30604      2721.5991           4938   0.96229976   
    260400   311.99956      2862.1732           4938   0.96229976   
    260500   309.62396      3082.1298           4938   0.96229976   
    260600   312.97463      2958.9354           4938   0.96229976   
    260700   307.26197      2828.5504           4938   0.96229976   
    260800   300.28512      2988.639            4938   0.96229976   
    260900   313.98582      2661.9301           4938   0.96229976   
    261000   308.93285      2747.2356           4938   0.96229976   
    261100   305.98119      2764.8094           4938   0.96229976   
    261200   307.76322      2854.3997           4938   0.96229976   
    261300   316.43086      2955.8959           4938   0.96229976   
    261400   312.41955      3032.5029           4938   0.96229976   
    261500   309.03458      2921.0614           4938   0.96229976   
    261600   310.95752      2663.5545           4938   0.96229976   
    261700   304.98455      2764.2221           4938   0.96229976   
    261800   304.84094      2913.9132           4938   0.96229976   
    261900   310.86221      2792.5934           4938   0.96229976   
    262000   307.70963      2910.4247           4938   0.96229976   
    262100   309.37181      2926.0882           4944   0.96346902   
    262200   315.35226      2807.4155           4944   0.96346902   
    262300   303.98484      2930.4846           4944   0.96346902   
    262400   305.25013      2844.4547           4944   0.96346902   
    262500   308.9054       2820.5567           4944   0.96346902   
    262600   312.43198      2697.2934           4944   0.96346902   
    262700   303.97806      2786.0604           4944   0.96346902   
    262800   301.80087      2712.3118           4944   0.96346902   
    262900   305.03761      2808.801            4944   0.96346902   
    263000   308.05983      2931.5619           4944   0.96346902   
    263100   310.71743      2879.7036           4944   0.96346902   
    263200   309.7857       2811.8946           4944   0.96346902   
    263300   304.46732      2783.8906           4944   0.96346902   
    263400   302.64575      2737.1236           4944   0.96346902   
    263500   307.57051      2936.5748           4944   0.96346902   
    263600   312.33143      2940.2199           4944   0.96346902   
    263700   309.89156      2794.9592           4944   0.96346902   
    263800   305.70844      2714.4997           4944   0.96346902   
    263900   305.54063      2797.1156           4944   0.96346902   
    264000   311.93362      3063.8767           4944   0.96346902   
    264100   318.08022      2817.3697           4947   0.96405365   
    264200   308.83478      2833.3272           4947   0.96405365   
    264300   303.80788      2839.1636           4947   0.96405365   
    264400   310.2354       2775.54             4947   0.96405365   
    264500   313.80279      2694.3171           4947   0.96405365   
    264600   306.90742      2696.751            4947   0.96405365   
    264700   303.99066      2785.3513           4947   0.96405365   
    264800   309.30414      2686.8609           4947   0.96405365   
    264900   306.8021       2801.0268           4947   0.96405365   
    265000   313.00903      2853.5756           4947   0.96405365   
    265100   311.25217      2860.891            4947   0.96405365   
    265200   303.32551      2831.4033           4947   0.96405365   
    265300   305.07693      2905.0902           4947   0.96405365   
    265400   307.47802      3085.6899           4947   0.96405365   
    265500   315.72282      2748.1523           4947   0.96405365   
    265600   307.96666      2758.8317           4947   0.96405365   
    265700   307.11762      2791.5037           4947   0.96405365   
    265800   309.4163       2742.1937           4947   0.96405365   
    265900   306.80811      2830.7081           4947   0.96405365   
    266000   307.71567      2823.049            4947   0.96405365   
    266100   313.20918      2881.088            4950   0.96463828   
    266200   308.11784      3019.595            4950   0.96463828   
    266300   308.31861      2761.6639           4950   0.96463828   
    266400   301.83611      2836.8852           4950   0.96463828   
    266500   302.80115      3074.0209           4950   0.96463828   
    266600   309.05429      2998.4147           4950   0.96463828   
    266700   307.27453      2982.9463           4950   0.96463828   
    266800   307.39112      3027.9804           4950   0.96463828   
    266900   315.73583      2970.2203           4950   0.96463828   
    267000   312.06631      2871.2689           4950   0.96463828   
    267100   307.62345      2690.5189           4950   0.96463828   
    267200   302.34736      2861.7477           4950   0.96463828   
    267300   308.62706      2911.9147           4950   0.96463828   
    267400   312.26658      2910.9963           4950   0.96463828   
    267500   306.93033      2998.9633           4950   0.96463828   
    267600   306.43894      2941.323            4950   0.96463828   
    267700   307.65213      2952.1518           4950   0.96463828   
    267800   318.68763      2870.2783           4950   0.96463828   
    267900   311.87928      2922.5596           4950   0.96463828   
    268000   308.04263      2814.7774           4950   0.96463828   
    268100   304.93705      2974.3585           4950   0.96463828   
    268200   310.89765      2868.1456           4950   0.96463828   
    268300   309.59406      2830.6836           4950   0.96463828   
    268400   300.86375      2936.4824           4950   0.96463828   
    268500   305.25133      2894.4338           4950   0.96463828   
    268600   312.18029      2939.1876           4950   0.96463828   
    268700   309.16575      3075.5438           4950   0.96463828   
    268800   308.22093      2890.4393           4950   0.96463828   
    268900   304.07955      2942.997            4950   0.96463828   
    269000   307.92022      2950.7091           4950   0.96463828   
    269100   311.84625      2825.8384           4950   0.96463828   
    269200   308.00441      2864.1718           4950   0.96463828   
    269300   303.69338      2977.7742           4950   0.96463828   
    269400   312.95874      2686.2078           4950   0.96463828   
    269500   308.86397      2776.8381           4950   0.96463828   
    269600   306.9198       2738.0551           4950   0.96463828   
    269700   307.25944      2681.7717           4950   0.96463828   
    269800   303.45948      2917.8483           4950   0.96463828   
    269900   309.01542      3001.7871           4950   0.96463828   
    270000   313.32894      2891.1851           4950   0.96463828   
    270100   305.73518      2863.1463           4950   0.96463828   
    270200   303.22027      2522.8694           4950   0.96463828   
    270300   299.53086      2695.7983           4950   0.96463828   
    270400   304.52387      2952.0343           4950   0.96463828   
    270500   308.76755      2942.6691           4950   0.96463828   
    270600   309.71208      2841.9871           4950   0.96463828   
    270700   307.62047      2805.7575           4950   0.96463828   
    270800   310.10801      2710.0869           4950   0.96463828   
    270900   308.5381       2707.7488           4950   0.96463828   
    271000   301.09588      3000.9628           4950   0.96463828   
    271100   306.4107       3012.2741           4950   0.96463828   
    271200   312.75922      2745.6166           4950   0.96463828   
    271300   308.018        2687.6569           4950   0.96463828   
    271400   307.94141      2626.9977           4950   0.96463828   
    271500   308.50088      2666.5294           4950   0.96463828   
    271600   299.1537       2911.207            4950   0.96463828   
    271700   305.14237      2835.4479           4950   0.96463828   
    271800   309.35971      2784.3883           4950   0.96463828   
    271900   312.92333      2544.0111           4950   0.96463828   
    272000   302.80947      2821.4546           4950   0.96463828   
    272100   303.99099      3077.9085           4944   0.96346902   
    272200   311.63109      2933.9572           4944   0.96346902   
    272300   309.15218      2831.4046           4944   0.96346902   
    272400   310.93469      2518.5225           4944   0.96346902   
    272500   301.78072      2639.1467           4944   0.96346902   
    272600   305.38644      2829.7323           4944   0.96346902   
    272700   309.84424      2966.1088           4944   0.96346902   
    272800   308.1375       3043.2866           4944   0.96346902   
    272900   307.2773       2964.7993           4944   0.96346902   
    273000   311.86528      2785.7901           4944   0.96346902   
    273100   311.32419      2743.7667           4944   0.96346902   
    273200   302.59132      2903.9703           4944   0.96346902   
    273300   309.91582      2721.3913           4944   0.96346902   
    273400   308.56097      2792.2071           4944   0.96346902   
    273500   312.32786      2743.8116           4944   0.96346902   
    273600   316.7404       2705.4447           4944   0.96346902   
    273700   307.99332      2756.4767           4944   0.96346902   
    273800   302.77578      3130.1639           4944   0.96346902   
    273900   311.08327      3110.6049           4944   0.96346902   
    274000   310.40428      3036.0064           4944   0.96346902   
    274100   304.95417      2855.5754           4953   0.96522291   
    274200   301.65535      2657.6282           4953   0.96522291   
    274300   305.01154      2785.0287           4953   0.96522291   
    274400   310.60504      3035.3737           4953   0.96522291   
    274500   308.67163      3088.8608           4953   0.96522291   
    274600   307.56878      2700.0697           4953   0.96522291   
    274700   303.45527      2568.034            4953   0.96522291   
    274800   305.23397      2793.3752           4953   0.96522291   
    274900   311.23013      3009.0685           4953   0.96522291   
    275000   310.45042      3088.15             4953   0.96522291   
    275100   306.45021      2947.0046           4953   0.96522291   
    275200   300.97644      3003.0992           4953   0.96522291   
    275300   311.32855      2842.83             4953   0.96522291   
    275400   312.65693      2763.9322           4953   0.96522291   
    275500   309.78903      2770.4405           4953   0.96522291   
    275600   305.06471      2878.2495           4953   0.96522291   
    275700   306.7693       2800.1529           4953   0.96522291   
    275800   309.29163      2883.1838           4953   0.96522291   
    275900   312.80597      2869.3306           4953   0.96522291   
    276000   307.80383      2900.3826           4953   0.96522291   
    276100   307.46547      2910.2745           4953   0.96522291   
    276200   303.66404      3076.6775           4953   0.96522291   
    276300   312.60417      2952.9456           4953   0.96522291   
    276400   313.73268      2779.6894           4953   0.96522291   
    276500   310.02675      2619.1585           4953   0.96522291   
    276600   306.69966      2707.8261           4953   0.96522291   
    276700   304.12613      2998.1649           4953   0.96522291   
    276800   312.24317      3020.3386           4953   0.96522291   
    276900   313.15448      2875.4859           4953   0.96522291   
    277000   303.79006      2696.6336           4953   0.96522291   
    277100   302.78694      2690.2386           4953   0.96522291   
    277200   310.84648      2742.3692           4953   0.96522291   
    277300   313.6807       2799.9303           4953   0.96522291   
    277400   305.33248      2938.9599           4953   0.96522291   
    277500   305.43218      2820.758            4953   0.96522291   
    277600   308.17612      2722.4705           4953   0.96522291   
    277700   307.63769      2798.0187           4953   0.96522291   
    277800   307.27602      2910.1841           4953   0.96522291   
    277900   308.11716      2972.2677           4953   0.96522291   
    278000   308.01626      2942.7105           4953   0.96522291   
    278100   306.21299      2797.3127           4959   0.96639217   
    278200   305.49629      2703.7227           4959   0.96639217   
    278300   307.15418      2864.9364           4959   0.96639217   
    278400   312.81237      2962.1933           4959   0.96639217   
    278500   307.76294      2876.5969           4959   0.96639217   
    278600   302.03092      2846.5435           4959   0.96639217   
    278700   306.355        2810.6268           4959   0.96639217   
    278800   309.50952      2830.2961           4959   0.96639217   
    278900   309.26689      2870.0707           4959   0.96639217   
    279000   303.74284      3046.3336           4959   0.96639217   
    279100   307.50792      2829.7559           4959   0.96639217   
    279200   313.10294      2869.664            4959   0.96639217   
    279300   312.8676       2825.0904           4959   0.96639217   
    279400   308.96779      2656.8292           4959   0.96639217   
    279500   306.37933      2767.3166           4959   0.96639217   
    279600   304.5766       2957.8669           4959   0.96639217   
    279700   309.93852      2923.6052           4959   0.96639217   
    279800   311.66586      2835.6482           4959   0.96639217   
    279900   302.06696      2682.7094           4959   0.96639217   
    280000   305.76356      2526.3089           4959   0.96639217   
    280100   305.81028      2949.724            4959   0.96639217   
    280200   313.03011      2948.7001           4959   0.96639217   
    280300   307.5089       2937.7284           4959   0.96639217   
    280400   303.80772      2725.7312           4959   0.96639217   
    280500   305.05556      2728.385            4959   0.96639217   
    280600   306.99223      2925.6391           4959   0.96639217   
    280700   309.64867      3088.8062           4959   0.96639217   
    280800   310.09321      2910.6073           4959   0.96639217   
    280900   301.12038      2711.9713           4959   0.96639217   
    281000   302.11001      2706.2487           4959   0.96639217   
    281100   308.24814      2634.8427           4959   0.96639217   
    281200   308.69291      2826.7831           4959   0.96639217   
    281300   303.94943      3167.6331           4959   0.96639217   
    281400   310.30278      3017.096            4959   0.96639217   
    281500   311.15641      3085.9008           4959   0.96639217   
    281600   312.35042      2825.6597           4959   0.96639217   
    281700   305.34335      2766.1976           4959   0.96639217   
    281800   310.80676      2679.8198           4959   0.96639217   
    281900   303.44891      2900.2467           4959   0.96639217   
    282000   303.76634      2822.5416           4959   0.96639217   
    282100   310.10544      2676.6696           4965   0.96756142   
    282200   310.91043      2573.3661           4965   0.96756142   
    282300   301.66417      3025.1591           4965   0.96756142   
    282400   308.54447      3153.2975           4965   0.96756142   
    282500   311.77397      3201.9701           4965   0.96756142   
    282600   310.76747      2868.5744           4965   0.96756142   
    282700   304.4981       2822.9898           4965   0.96756142   
    282800   305.90154      2802.7396           4965   0.96756142   
    282900   311.66822      2847.2893           4965   0.96756142   
    283000   305.79736      3049.2826           4965   0.96756142   
    283100   299.94749      3097.0911           4965   0.96756142   
    283200   311.51666      2718.4291           4965   0.96756142   
    283300   308.64974      2709.4351           4965   0.96756142   
    283400   305.20968      2838.4675           4965   0.96756142   
    283500   308.36858      2930.8838           4965   0.96756142   
    283600   310.01386      3025.4597           4965   0.96756142   
    283700   298.64482      3121.8336           4965   0.96756142   
    283800   304.24033      2699.176            4965   0.96756142   
    283900   308.06701      2800.5854           4965   0.96756142   
    284000   312.36217      2776.1062           4965   0.96756142   
    284100   306.08615      2965.3989           4965   0.96756142   
    284200   303.24876      3113.8948           4965   0.96756142   
    284300   305.59097      3105.6574           4965   0.96756142   
    284400   310.99306      2769.7432           4965   0.96756142   
    284500   306.76336      2853.4523           4965   0.96756142   
    284600   309.43753      2821.8968           4965   0.96756142   
    284700   301.03122      3297.3801           4965   0.96756142   
    284800   311.77969      2991.9255           4965   0.96756142   
    284900   308.9284       2746.7884           4965   0.96756142   
    285000   296.29585      2683.2065           4965   0.96756142   
    285100   300.72249      2813.1809           4965   0.96756142   
    285200   309.65159      3017.1212           4965   0.96756142   
    285300   311.88395      2994.0301           4965   0.96756142   
    285400   300.87107      3057.0311           4965   0.96756142   
    285500   308.84164      2664.1989           4965   0.96756142   
    285600   309.91073      2625.9619           4965   0.96756142   
    285700   306.17527      2698.0795           4965   0.96756142   
    285800   295.35425      3037.116            4965   0.96756142   
    285900   304.13399      3064.5906           4965   0.96756142   
    286000   309.62392      2792.8542           4965   0.96756142   
    286100   306.16392      2780.0528           4959   0.96639217   
    286200   307.72732      2710.1426           4959   0.96639217   
    286300   307.18119      2877.0228           4959   0.96639217   
    286400   305.35943      3116.2347           4959   0.96639217   
    286500   308.20495      3095.8912           4959   0.96639217   
    286600   312.55818      2900.8717           4959   0.96639217   
    286700   306.161        2862.371            4959   0.96639217   
    286800   301.29682      2908.2463           4959   0.96639217   
    286900   312.88366      2806.3064           4959   0.96639217   
    287000   313.64203      3129.3221           4959   0.96639217   
    287100   305.23797      3029.3038           4959   0.96639217   
    287200   304.01038      2673.8166           4959   0.96639217   
    287300   306.48043      2698.7762           4959   0.96639217   
    287400   311.1561       2847.6295           4959   0.96639217   
    287500   308.45374      3062.61             4959   0.96639217   
    287600   305.53834      2861.524            4959   0.96639217   
    287700   300.94276      2690.9405           4959   0.96639217   
    287800   305.31353      2668.1797           4959   0.96639217   
    287900   305.84001      2929.9916           4959   0.96639217   
    288000   313.28718      2872.8043           4959   0.96639217   
    288100   309.77113      2835.0933           4956   0.96580754   
    288200   302.47611      2903.0333           4956   0.96580754   
    288300   307.7244       2671.3536           4956   0.96580754   
    288400   307.86504      2726.9496           4956   0.96580754   
    288500   307.06584      2977.3178           4956   0.96580754   
    288600   317.38909      3071.7595           4956   0.96580754   
    288700   318.30884      2966.6532           4956   0.96580754   
    288800   305.90156      3074.2033           4956   0.96580754   
    288900   307.82901      2761.8282           4956   0.96580754   
    289000   305.65978      2674.4266           4956   0.96580754   
    289100   304.68862      2781.0547           4956   0.96580754   
    289200   311.25364      2950.5519           4956   0.96580754   
    289300   311.73745      3043.6623           4956   0.96580754   
    289400   301.91458      2986.2243           4956   0.96580754   
    289500   304.46449      2577.1094           4956   0.96580754   
    289600   311.80497      2425.3283           4956   0.96580754   
    289700   314.10526      2556.6027           4956   0.96580754   
    289800   302.37691      2964.4592           4956   0.96580754   
    289900   304.65191      2851.0011           4956   0.96580754   
    290000   314.43378      2470.1289           4956   0.96580754   
    290100   302.82651      2562.3956           4956   0.96580754   
    290200   302.54119      2524.443            4956   0.96580754   
    290300   302.00742      2932.6294           4956   0.96580754   
    290400   308.0028       3109.8738           4956   0.96580754   
    290500   308.35509      3195.5423           4956   0.96580754   
    290600   313.56051      2786.0833           4956   0.96580754   
    290700   301.93727      2732.0071           4956   0.96580754   
    290800   307.19597      2672.9387           4956   0.96580754   
    290900   310.61409      2800.3205           4956   0.96580754   
    291000   303.76873      3147.2584           4956   0.96580754   
    291100   308.50314      3223.4245           4956   0.96580754   
    291200   311.94932      3130.9552           4956   0.96580754   
    291300   313.76978      2704.2972           4956   0.96580754   
    291400   306.58655      2855.2556           4956   0.96580754   
    291500   306.01176      2890.5477           4956   0.96580754   
    291600   308.50194      2873.2143           4956   0.96580754   
    291700   311.58352      2899.7242           4956   0.96580754   
    291800   312.02646      2751.1315           4956   0.96580754   
    291900   302.6344       2758.1499           4956   0.96580754   
    292000   304.47166      2901.4641           4956   0.96580754   
    292100   308.37419      3078.347            4950   0.96463828   
    292200   310.23614      3006.506            4950   0.96463828   
    292300   308.28895      2842.9209           4950   0.96463828   
    292400   304.89028      2571.7855           4950   0.96463828   
    292500   298.6495       2691.6452           4950   0.96463828   
    292600   305.16175      2812.421            4950   0.96463828   
    292700   311.9374       2826.252            4950   0.96463828   
    292800   309.3512       2767.2078           4950   0.96463828   
    292900   303.55345      2716.9068           4950   0.96463828   
    293000   308.56064      2670.1534           4950   0.96463828   
    293100   315.51614      2834.3901           4950   0.96463828   
    293200   307.79287      3104.4618           4950   0.96463828   
    293300   307.20531      3036.3036           4950   0.96463828   
    293400   306.55696      2955.6331           4950   0.96463828   
    293500   311.17949      2815.5399           4950   0.96463828   
    293600   310.12646      2900.4546           4950   0.96463828   
    293700   303.21347      3164.4574           4950   0.96463828   
    293800   309.58002      3046.4611           4950   0.96463828   
    293900   313.40335      2779.1732           4950   0.96463828   
    294000   301.9918       2844.932            4950   0.96463828   
    294100   307.62704      2514.5859           4941   0.96288439   
    294200   306.67656      2850.6016           4941   0.96288439   
    294300   312.12311      2879.8277           4941   0.96288439   
    294400   310.24271      2921.8627           4941   0.96288439   
    294500   308.83014      2746.3487           4941   0.96288439   
    294600   302.8345       2833.4321           4941   0.96288439   
    294700   312.9157       2813.1789           4941   0.96288439   
    294800   310.38555      3029.3547           4941   0.96288439   
    294900   310.25756      2825.7832           4941   0.96288439   
    295000   303.86911      2953.1456           4941   0.96288439   
    295100   308.40138      2869.5831           4941   0.96288439   
    295200   313.51507      2648.9757           4941   0.96288439   
    295300   307.97495      2753.4279           4941   0.96288439   
    295400   305.04621      3022.218            4941   0.96288439   
    295500   310.44615      2987.0728           4941   0.96288439   
    295600   306.7671       3160.458            4941   0.96288439   
    295700   313.34164      2763.4601           4941   0.96288439   
    295800   308.81631      2715.0322           4941   0.96288439   
    295900   305.97053      2900.7255           4941   0.96288439   
    296000   313.10762      2823.2373           4941   0.96288439   
    296100   306.61965      3056.0401           4947   0.96405365   
    296200   303.49946      3093.8765           4947   0.96405365   
    296300   312.62927      2823.2596           4947   0.96405365   
    296400   312.26434      2830.6988           4947   0.96405365   
    296500   303.11586      3005.0799           4947   0.96405365   
    296600   309.44281      2903.2488           4947   0.96405365   
    296700   316.79464      3083.7089           4947   0.96405365   
    296800   314.37927      3096.4083           4947   0.96405365   
    296900   307.78561      2918.0078           4947   0.96405365   
    297000   309.72523      2687.7984           4947   0.96405365   
    297100   305.61039      2819.468            4947   0.96405365   
    297200   307.22444      2925.6485           4947   0.96405365   
    297300   315.18045      2823.9865           4947   0.96405365   
    297400   312.11006      2551.4048           4947   0.96405365   
    297500   303.64682      2505.1114           4947   0.96405365   
    297600   304.03463      2765.6366           4947   0.96405365   
    297700   312.73366      2798.4532           4947   0.96405365   
    297800   308.50675      2928.4398           4947   0.96405365   
    297900   305.44494      2824.8381           4947   0.96405365   
    298000   303.72925      2933.1286           4947   0.96405365   
    298100   313.52903      2875.7              4953   0.96522291   
    298200   309.53058      2960.4998           4953   0.96522291   
    298300   305.21731      3027.5886           4953   0.96522291   
    298400   306.39326      3011.959            4953   0.96522291   
    298500   305.85015      3122.5105           4953   0.96522291   
    298600   318.21793      2712.8775           4953   0.96522291   
    298700   310.88829      2614.7864           4953   0.96522291   
    298800   307.23204      2718.2669           4953   0.96522291   
    298900   306.43017      2878.1804           4953   0.96522291   
    299000   308.16773      2972.7573           4953   0.96522291   
    299100   312.96515      2885.7596           4953   0.96522291   
    299200   311.12523      2635.1987           4953   0.96522291   
    299300   302.28154      2611.7266           4953   0.96522291   
    299400   304.32222      2907.9061           4953   0.96522291   
    299500   309.69876      3066.3911           4953   0.96522291   
    299600   312.0577       2947.2936           4953   0.96522291   
    299700   307.19742      2693.8697           4953   0.96522291   
    299800   305.55773      2531.1159           4953   0.96522291   
    299900   308.23873      2515.2408           4953   0.96522291   
    300000   308.85477      2600.5097           4953   0.96522291   
    300100   302.95564      2838.2922           4950   0.96463828   
    300200   304.04029      2759.0371           4950   0.96463828   
    300300   310.75743      2673.6095           4950   0.96463828   
    300400   310.41965      2706.3472           4950   0.96463828   
    300500   307.26222      2763.0913           4950   0.96463828   
    300600   301.91038      2897.1732           4950   0.96463828   
    300700   307.18804      2721.6604           4950   0.96463828   
    300800   311.50782      2827.8623           4950   0.96463828   
    300900   313.08814      2610.2159           4950   0.96463828   
    301000   304.15701      2708.9517           4950   0.96463828   
    301100   301.09456      3003.2568           4950   0.96463828   
    301200   310.20398      2981.1572           4950   0.96463828   
    301300   307.99974      3027.1272           4950   0.96463828   
    301400   303.47224      3062.2444           4950   0.96463828   
    301500   314.98774      2729.5978           4950   0.96463828   
    301600   310.16874      2920.4836           4950   0.96463828   
    301700   305.07178      2871.1891           4950   0.96463828   
    301800   303.79002      2932.9076           4950   0.96463828   
    301900   307.63167      2728.245            4950   0.96463828   
    302000   307.89304      2570.1319           4950   0.96463828   
    302100   309.80756      2509.1787           4941   0.96288439   
    302200   309.62031      2959.048            4941   0.96288439   
    302300   319.11973      2937.9289           4941   0.96288439   
    302400   308.19264      3105.3456           4941   0.96288439   
    302500   310.08781      2683.1244           4941   0.96288439   
    302600   305.7914       2547.0462           4941   0.96288439   
    302700   305.34823      2656.8243           4941   0.96288439   
    302800   311.70741      2960.2698           4941   0.96288439   
    302900   314.96898      2914.9956           4941   0.96288439   
    303000   305.98038      3009.3787           4941   0.96288439   
    303100   305.41472      2824.0901           4941   0.96288439   
    303200   311.0985       2712.8663           4941   0.96288439   
    303300   313.23284      2759.5499           4941   0.96288439   
    303400   308.30919      2915.3846           4941   0.96288439   
    303500   308.82175      3026.4686           4941   0.96288439   
    303600   308.75067      2885.6365           4941   0.96288439   
    303700   303.73526      2967.2969           4941   0.96288439   
    303800   317.05075      2556.2615           4941   0.96288439   
    303900   305.36846      3004.9056           4941   0.96288439   
    304000   306.84214      2832.2851           4941   0.96288439   
    304100   295.6674       2999.0327           4956   0.96580754   
    304200   304.68038      2825.7038           4956   0.96580754   
    304300   308.81486      2677.9274           4956   0.96580754   
    304400   306.42673      2847.7484           4956   0.96580754   
    304500   310.77207      2893.0331           4956   0.96580754   
    304600   310.67586      3168.9751           4956   0.96580754   
    304700   303.966        3112.8214           4956   0.96580754   
    304800   302.88066      2904.6604           4956   0.96580754   
    304900   310.15061      2608.8643           4956   0.96580754   
    305000   308.49089      2687.618            4956   0.96580754   
    305100   307.30935      2836.8802           4956   0.96580754   
    305200   310.21193      2829.7844           4956   0.96580754   
    305300   304.19303      2944.0495           4956   0.96580754   
    305400   302.48636      2785.6075           4956   0.96580754   
    305500   308.69098      2751.7787           4956   0.96580754   
    305600   311.65741      2739.6206           4956   0.96580754   
    305700   307.08915      2982.4124           4956   0.96580754   
    305800   307.64406      2863.3783           4956   0.96580754   
    305900   301.84726      2891.049            4956   0.96580754   
    306000   311.431        2706.3286           4956   0.96580754   
    306100   313.48562      2457.7527           4950   0.96463828   
    306200   306.99696      2471.2508           4950   0.96463828   
    306300   303.70766      2759.0701           4950   0.96463828   
    306400   306.20117      3072.6323           4950   0.96463828   
    306500   308.67684      3114.9431           4950   0.96463828   
    306600   314.4291       2687.6586           4950   0.96463828   
    306700   306.58513      2667.9409           4950   0.96463828   
    306800   307.2327       2695.2449           4950   0.96463828   
    306900   308.24889      2923.9363           4950   0.96463828   
    307000   311.25488      3017.882            4950   0.96463828   
    307100   317.3449       2864.2858           4950   0.96463828   
    307200   306.30089      2789.9506           4950   0.96463828   
    307300   303.16023      2761.376            4950   0.96463828   
    307400   312.29419      2703.4697           4950   0.96463828   
    307500   308.53784      3027.9696           4950   0.96463828   
    307600   300.61228      3043.7434           4950   0.96463828   
    307700   303.56784      2699.8779           4950   0.96463828   
    307800   311.52253      2717.3959           4950   0.96463828   
    307900   309.83385      2823.7506           4950   0.96463828   
    308000   308.91498      2818.1684           4950   0.96463828   
    308100   301.78251      3024.0645           4956   0.96580754   
    308200   310.18281      2819.1906           4956   0.96580754   
    308300   310.69432      2878.9841           4956   0.96580754   
    308400   319.45417      2800.9933           4956   0.96580754   
    308500   312.60479      2880.0936           4956   0.96580754   
    308600   307.08459      3005.5819           4956   0.96580754   
    308700   306.80247      2934.4911           4956   0.96580754   
    308800   304.91897      2851.5335           4956   0.96580754   
    308900   310.56366      2712.0884           4956   0.96580754   
    309000   311.43866      2651.9945           4956   0.96580754   
    309100   308.55756      2656.8578           4956   0.96580754   
    309200   302.9946       3016.1477           4956   0.96580754   
    309300   309.45613      2936.3236           4956   0.96580754   
    309400   309.7385       2817.6941           4956   0.96580754   
    309500   304.87453      2735.8816           4956   0.96580754   
    309600   300.58401      2777.1268           4956   0.96580754   
    309700   309.01666      2861.9088           4956   0.96580754   
    309800   312.63953      3027.4213           4956   0.96580754   
    309900   307.29527      3047.6671           4956   0.96580754   
    310000   303.96349      2935.837            4956   0.96580754   
    310100   306.34775      2875.5839           4956   0.96580754   
    310200   308.89145      2848.0881           4956   0.96580754   
    310300   309.09618      2871.1676           4956   0.96580754   
    310400   306.34115      2815.5385           4956   0.96580754   
    310500   303.32811      2872.2562           4956   0.96580754   
    310600   309.04522      2774.9654           4956   0.96580754   
    310700   311.60075      2720.4969           4956   0.96580754   
    310800   305.12558      2958.713            4956   0.96580754   
    310900   307.00911      2976.3456           4956   0.96580754   
    311000   307.01822      3035.3895           4956   0.96580754   
    311100   308.79839      2844.4995           4956   0.96580754   
    311200   303.71564      2857.3084           4956   0.96580754   
    311300   304.14084      2995.1202           4956   0.96580754   
    311400   313.4139       2995.3278           4956   0.96580754   
    311500   308.98825      3114.7077           4956   0.96580754   
    311600   309.63657      2781.3791           4956   0.96580754   
    311700   305.20872      2746.825            4956   0.96580754   
    311800   306.59642      2653.0469           4956   0.96580754   
    311900   309.56068      2690.0837           4956   0.96580754   
    312000   307.85994      2874.6117           4956   0.96580754   
    312100   301.20535      2874.4167           4956   0.96580754   
    312200   300.50952      2786.5068           4956   0.96580754   
    312300   306.24334      2813.9874           4956   0.96580754   
    312400   309.37148      2780.4115           4956   0.96580754   
    312500   309.16524      2712.9678           4956   0.96580754   
    312600   302.38714      2944.3301           4956   0.96580754   
    312700   308.45926      2976.0859           4956   0.96580754   
    312800   311.6333       3088.2555           4956   0.96580754   
    312900   310.40049      2779.6553           4956   0.96580754   
    313000   305.95135      2578.0647           4956   0.96580754   
    313100   307.54042      2518.376            4956   0.96580754   
    313200   305.92641      2814.1599           4956   0.96580754   
    313300   310.17701      2970.978            4956   0.96580754   
    313400   312.34981      2938.9669           4956   0.96580754   
    313500   307.71634      2888.8269           4956   0.96580754   
    313600   309.43833      2674.4947           4956   0.96580754   
    313700   306.18703      2680.3302           4956   0.96580754   
    313800   304.32996      2730.3357           4956   0.96580754   
    313900   302.85985      2986.8501           4956   0.96580754   
    314000   311.33622      2996.7348           4956   0.96580754   
    314100   310.09879      2800.4758           4953   0.96522291   
    314200   304.46165      2785.0062           4953   0.96522291   
    314300   305.93726      2729.9617           4953   0.96522291   
    314400   304.32265      2953.7317           4953   0.96522291   
    314500   312.56241      3009.2749           4953   0.96522291   
    314600   312.93796      2795.7393           4953   0.96522291   
    314700   305.57988      2681.5559           4953   0.96522291   
    314800   306.38967      2597.0617           4953   0.96522291   
    314900   308.7485       2667.2428           4953   0.96522291   
    315000   305.84563      3024.7886           4953   0.96522291   
    315100   314.30161      3097.6207           4953   0.96522291   
    315200   316.85017      2894.7311           4953   0.96522291   
    315300   310.48234      2706.8266           4953   0.96522291   
    315400   307.65217      2599.3017           4953   0.96522291   
    315500   302.55868      2810.8067           4953   0.96522291   
    315600   308.49011      2997.4601           4953   0.96522291   
    315700   313.36207      2968.7824           4953   0.96522291   
    315800   310.43591      2773.7777           4953   0.96522291   
    315900   306.68902      2673.8645           4953   0.96522291   
    316000   304.65941      2763.2124           4953   0.96522291   
    316100   308.52002      2941.8651           4956   0.96580754   
    316200   310.88286      3191.38             4956   0.96580754   
    316300   313.48301      2990.2604           4956   0.96580754   
    316400   303.68128      2794.6086           4956   0.96580754   
    316500   305.68112      2633.7715           4956   0.96580754   
    316600   309.52159      2754.9573           4956   0.96580754   
    316700   311.11139      2957.3756           4956   0.96580754   
    316800   309.81797      2912.473            4956   0.96580754   
    316900   302.6368       2742.0423           4956   0.96580754   
    317000   304.24516      2638.4987           4956   0.96580754   
    317100   310.8116       2603.5918           4956   0.96580754   
    317200   307.57638      2902.6015           4956   0.96580754   
    317300   309.57128      2954.3203           4956   0.96580754   
    317400   303.54505      3185.9652           4956   0.96580754   
    317500   310.23659      2995.3535           4956   0.96580754   
    317600   308.67546      2936.5689           4956   0.96580754   
    317700   309.51242      2783.958            4956   0.96580754   
    317800   307.33987      2870.2964           4956   0.96580754   
    317900   304.41934      2959.231            4956   0.96580754   
    318000   311.1056       2850.731            4956   0.96580754   
    318100   311.87713      2921.5507           4956   0.96580754   
    318200   313.33958      2758.1121           4956   0.96580754   
    318300   302.14071      2891.6211           4956   0.96580754   
    318400   308.52112      2822.0194           4956   0.96580754   
    318500   311.35918      2864.0533           4956   0.96580754   
    318600   303.23675      3042.2803           4956   0.96580754   
    318700   306.57759      2692.0739           4956   0.96580754   
    318800   307.35319      2737.3829           4956   0.96580754   
    318900   312.95764      2831.1086           4956   0.96580754   
    319000   307.71691      2998.9239           4956   0.96580754   
    319100   306.50578      2661.2077           4956   0.96580754   
    319200   300.93311      2761.1796           4956   0.96580754   
    319300   303.56227      2864.5403           4956   0.96580754   
    319400   309.16847      2898.6628           4956   0.96580754   
    319500   308.69068      3095.1947           4956   0.96580754   
    319600   307.07332      3153.233            4956   0.96580754   
    319700   302.30142      2972.0213           4956   0.96580754   
    319800   306.39085      2653.1322           4956   0.96580754   
    319900   304.74836      2886.7879           4956   0.96580754   
    320000   314.25982      2868.018            4956   0.96580754   
    320100   309.14996      2965.5836           4959   0.96639217   
    320200   307.68687      2728.0015           4959   0.96639217   
    320300   303.95389      2747.1849           4959   0.96639217   
    320400   305.20434      2809.4073           4959   0.96639217   
    320500   309.85647      2701.8096           4959   0.96639217   
    320600   308.87348      2650.8609           4959   0.96639217   
    320700   305.15674      2827.3654           4959   0.96639217   
    320800   308.0256       2882.2477           4959   0.96639217   
    320900   312.98442      3033.2665           4959   0.96639217   
    321000   312.1244       2802.3396           4959   0.96639217   
    321100   306.86413      2782.5198           4959   0.96639217   
    321200   305.13299      2837.4536           4959   0.96639217   
    321300   310.45391      2676.8238           4959   0.96639217   
    321400   300.89819      3033.1058           4959   0.96639217   
    321500   308.24079      2988.7181           4959   0.96639217   
    321600   314.86812      2733.2771           4959   0.96639217   
    321700   307.12108      2729.702            4959   0.96639217   
    321800   302.52072      2900.5636           4959   0.96639217   
    321900   307.37925      2947.3327           4959   0.96639217   
    322000   311.73847      2950.4418           4959   0.96639217   
    322100   312.30446      2646.3063           4962   0.96697679   
    322200   304.0286       2533.9059           4962   0.96697679   
    322300   302.53047      2887.7298           4962   0.96697679   
    322400   312.74427      2868.1102           4962   0.96697679   
    322500   308.70497      2975.1399           4962   0.96697679   
    322600   306.74545      2694.6295           4962   0.96697679   
    322700   303.40045      2644.0857           4962   0.96697679   
    322800   310.68398      2501.2543           4962   0.96697679   
    322900   313.37409      2777.7224           4962   0.96697679   
    323000   305.11556      3196.0171           4962   0.96697679   
    323100   311.34821      2903.9008           4962   0.96697679   
    323200   303.47126      3102.9025           4962   0.96697679   
    323300   309.20219      2851.2114           4962   0.96697679   
    323400   310.27337      2760.1773           4962   0.96697679   
    323500   299.89242      2868.7766           4962   0.96697679   
    323600   305.14823      2777.5267           4962   0.96697679   
    323700   306.29879      2933.6316           4962   0.96697679   
    323800   306.68082      3034.9641           4962   0.96697679   
    323900   309.76831      2821.7313           4962   0.96697679   
    324000   306.94002      2759.7053           4962   0.96697679   
    324100   301.35752      3035.5666           4968   0.96814605   
    324200   313.97268      3062.9655           4968   0.96814605   
    324300   312.81461      2993.4254           4968   0.96814605   
    324400   308.08624      2808.2799           4968   0.96814605   
    324500   304.39487      2747.9977           4968   0.96814605   
    324600   304.50838      2874.1314           4968   0.96814605   
    324700   311.99237      2893.4559           4968   0.96814605   
    324800   310.1664       2926.2801           4968   0.96814605   
    324900   307.84147      2872.4776           4968   0.96814605   
    325000   304.73157      2775.1814           4968   0.96814605   
    325100   306.55885      2590.194            4968   0.96814605   
    325200   310.06054      2763.7853           4968   0.96814605   
    325300   311.11307      3011.1121           4968   0.96814605   
    325400   310.20493      2885.3082           4968   0.96814605   
    325500   301.34206      2983.1436           4968   0.96814605   
    325600   307.67911      2802.0417           4968   0.96814605   
    325700   310.12962      2579.5555           4968   0.96814605   
    325800   304.29201      2589.2569           4968   0.96814605   
    325900   297.45328      3044.736            4968   0.96814605   
    326000   310.625        2976.5661           4968   0.96814605   
    326100   307.60038      2957.3354           4974   0.96931531   
    326200   302.27613      2755.7401           4974   0.96931531   
    326300   304.18701      2595.3749           4974   0.96931531   
    326400   304.58051      2984.6537           4974   0.96931531   
    326500   312.14502      2951.8023           4974   0.96931531   
    326600   307.59887      2984.0208           4974   0.96931531   
    326700   305.03442      2870.8116           4974   0.96931531   
    326800   305.10653      2722.0866           4974   0.96931531   
    326900   311.18299      2643.4278           4974   0.96931531   
    327000   317.3043       2666.7688           4974   0.96931531   
    327100   304.72863      2999.6006           4974   0.96931531   
    327200   302.88063      3201.3963           4974   0.96931531   
    327300   308.6917       3174.4889           4974   0.96931531   
    327400   314.4697       2752.1801           4974   0.96931531   
    327500   305.29504      2741.336            4974   0.96931531   
    327600   306.98391      2687.629            4974   0.96931531   
    327700   303.56646      2930.8007           4974   0.96931531   
    327800   309.43651      3033.3989           4974   0.96931531   
    327900   310.74393      3009.5349           4974   0.96931531   
    328000   311.24289      2624.2875           4974   0.96931531   
    328100   303.96817      2756.6669           4974   0.96931531   
    328200   304.66114      2942.9644           4974   0.96931531   
    328300   309.11642      3083.296            4974   0.96931531   
    328400   309.94443      2883.0726           4974   0.96931531   
    328500   301.48445      2879.4493           4974   0.96931531   
    328600   308.75612      2561.9193           4974   0.96931531   
    328700   306.47766      2719.8556           4974   0.96931531   
    328800   305.16724      2894.7101           4974   0.96931531   
    328900   304.39041      2996.7149           4974   0.96931531   
    329000   311.19247      2717.2498           4974   0.96931531   
    329100   306.69983      2604.0615           4974   0.96931531   
    329200   300.47889      2625.6238           4974   0.96931531   
    329300   303.94337      2884.4861           4974   0.96931531   
    329400   306.21692      3056.9017           4974   0.96931531   
    329500   306.68291      3095.8848           4974   0.96931531   
    329600   306.01885      3148.4088           4974   0.96931531   
    329700   314.71183      2799.6604           4974   0.96931531   
    329800   305.73995      2704.2737           4974   0.96931531   
    329900   303.99508      2809.9966           4974   0.96931531   
    330000   306.38838      3040.5701           4974   0.96931531   
    330100   309.54616      3066.756            4974   0.96931531   
    330200   312.31245      2718.0493           4974   0.96931531   
    330300   302.27144      2670.2394           4974   0.96931531   
    330400   305.86996      2640.1292           4974   0.96931531   
    330500   309.74603      2695.3253           4974   0.96931531   
    330600   303.43512      2914.8907           4974   0.96931531   
    330700   304.40237      2761.6507           4974   0.96931531   
    330800   311.13501      2574.5104           4974   0.96931531   
    330900   309.62643      2768.5961           4974   0.96931531   
    331000   305.56981      2940.8149           4974   0.96931531   
    331100   299.96387      3048.4342           4974   0.96931531   
    331200   309.09597      2843.6101           4974   0.96931531   
    331300   313.09226      2869.8159           4974   0.96931531   
    331400   307.36708      2870.4424           4974   0.96931531   
    331500   298.69745      2765.9831           4974   0.96931531   
    331600   302.91704      2816.808            4974   0.96931531   
    331700   308.95096      2887.4374           4974   0.96931531   
    331800   311.79387      2867.4776           4974   0.96931531   
    331900   299.49834      3072.0022           4974   0.96931531   
    332000   306.16978      2724.671            4974   0.96931531   
    332100   313.0902       2726.5229           4977   0.96989994   
    332200   309.82157      2842.1999           4977   0.96989994   
    332300   304.31398      2940.8446           4977   0.96989994   
    332400   304.51871      3012.1999           4977   0.96989994   
    332500   308.77388      2848.7579           4977   0.96989994   
    332600   307.78205      2886.1277           4977   0.96989994   
    332700   308.32468      2740.8489           4977   0.96989994   
    332800   300.24381      2858.9011           4977   0.96989994   
    332900   303.15472      3001.7853           4977   0.96989994   
    333000   308.48408      2990.7932           4977   0.96989994   
    333100   307.8674       2882.5805           4977   0.96989994   
    333200   307.5633       2694.0704           4977   0.96989994   
    333300   300.21258      2714.8952           4977   0.96989994   
    333400   299.26665      2841.8305           4977   0.96989994   
    333500   307.63246      2850.8              4977   0.96989994   
    333600   310.17476      2676.5456           4977   0.96989994   
    333700   301.36339      2766.515            4977   0.96989994   
    333800   301.39896      2840.2647           4977   0.96989994   
    333900   312.81871      2803.1324           4977   0.96989994   
    334000   307.3484       2969.7401           4977   0.96989994   
    334100   303.07133      2999.8164           4974   0.96931531   
    334200   302.29449      3103.3463           4974   0.96931531   
    334300   308.43302      3071.5567           4974   0.96931531   
    334400   311.45133      2702.8642           4974   0.96931531   
    334500   305.115        2757.1344           4974   0.96931531   
    334600   306.50841      2777.3322           4974   0.96931531   
    334700   305.4643       2938.032            4974   0.96931531   
    334800   313.17634      2927.5559           4974   0.96931531   
    334900   311.77192      2859.0171           4974   0.96931531   
    335000   305.29107      2652.9334           4974   0.96931531   
    335100   307.44021      2559.3773           4974   0.96931531   
    335200   303.29902      2764.3817           4974   0.96931531   
    335300   305.9591       2906.6568           4974   0.96931531   
    335400   311.70009      2896.5809           4974   0.96931531   
    335500   306.70232      2895.0952           4974   0.96931531   
    335600   305.36553      2874.1496           4974   0.96931531   
    335700   305.0718       2992.8916           4974   0.96931531   
    335800   308.66603      2983.0592           4974   0.96931531   
    335900   305.99916      3023.4678           4974   0.96931531   
    336000   302.33469      2716.0195           4974   0.96931531   
    336100   299.57577      2580.4992           4974   0.96931531   
    336200   305.64163      2814.119            4974   0.96931531   
    336300   309.1398       2890.2703           4974   0.96931531   
    336400   307.9301       2905.1312           4974   0.96931531   
    336500   301.25142      2973.5692           4974   0.96931531   
    336600   308.57945      2794.3483           4974   0.96931531   
    336700   312.15414      2840.4238           4974   0.96931531   
    336800   312.10694      2744.4347           4974   0.96931531   
    336900   301.99986      3095.673            4974   0.96931531   
    337000   306.38759      3044.6047           4974   0.96931531   
    337100   308.35589      3136.9254           4974   0.96931531   
    337200   312.39656      2918.2004           4974   0.96931531   
    337300   301.29843      2872.2049           4974   0.96931531   
    337400   304.38615      2811.6816           4974   0.96931531   
    337500   306.72488      2973.1744           4974   0.96931531   
    337600   310.91647      2890.3601           4974   0.96931531   
    337700   304.20571      2808.4273           4974   0.96931531   
    337800   297.40573      2607.1702           4974   0.96931531   
    337900   304.43162      2508.7592           4974   0.96931531   
    338000   306.94271      2800.9762           4974   0.96931531   
    338100   308.5945       3084.5542           4977   0.96989994   
    338200   307.22436      3107.1141           4977   0.96989994   
    338300   303.48005      2732.3609           4977   0.96989994   
    338400   299.05102      2634.7713           4977   0.96989994   
    338500   307.32981      2598.3746           4977   0.96989994   
    338600   306.70742      2934.9718           4977   0.96989994   
    338700   305.33575      3150.9523           4977   0.96989994   
    338800   306.60127      3214.0436           4977   0.96989994   
    338900   313.14918      2938.7639           4977   0.96989994   
    339000   306.2013       2701.7514           4977   0.96989994   
    339100   306.58358      2586.735            4977   0.96989994   
    339200   302.93028      2952.6022           4977   0.96989994   
    339300   306.70027      3245.2683           4977   0.96989994   
    339400   311.8939       3006.5618           4977   0.96989994   
    339500   305.27755      2821.4099           4977   0.96989994   
    339600   306.2348       2654.5684           4977   0.96989994   
    339700   304.54444      2995.861            4977   0.96989994   
    339800   309.5077       3161.942            4977   0.96989994   
    339900   317.08342      3290.4399           4977   0.96989994   
    340000   312.4398       2966.7836           4977   0.96989994   
    340100   306.53816      2579.6752           4980   0.97048457   
    340200   301.59542      2660.6116           4980   0.97048457   
    340300   308.04923      2776.8872           4980   0.97048457   
    340400   306.64657      3353.8899           4980   0.97048457   
    340500   310.81678      3198.2341           4980   0.97048457   
    340600   306.23299      2867.9787           4980   0.97048457   
    340700   302.60918      2508.4598           4980   0.97048457   
    340800   304.40087      2640.4209           4980   0.97048457   
    340900   311.28778      2814.8885           4980   0.97048457   
    341000   305.26494      3128.924            4980   0.97048457   
    341100   304.28723      2987.8036           4980   0.97048457   
    341200   304.3632       2773.5789           4980   0.97048457   
    341300   309.78876      2635.1532           4980   0.97048457   
    341400   307.33417      2793.6629           4980   0.97048457   
    341500   303.17605      2978.9851           4980   0.97048457   
    341600   303.33006      3059.0915           4980   0.97048457   
    341700   310.21363      2979.6673           4980   0.97048457   
    341800   313.36374      2682.4329           4980   0.97048457   
    341900   305.52137      2634.0931           4980   0.97048457   
    342000   301.88813      2939.8307           4980   0.97048457   
    342100   313.22246      2883.9438           4986   0.97165383   
    342200   306.03821      3064.9943           4986   0.97165383   
    342300   302.44027      2921.6887           4986   0.97165383   
    342400   306.79674      2555.5213           4986   0.97165383   
    342500   307.30296      2527.3998           4986   0.97165383   
    342600   299.74466      3007.1393           4986   0.97165383   
    342700   308.06921      3058.7734           4986   0.97165383   
    342800   308.32497      3042.7804           4986   0.97165383   
    342900   305.63814      2856.0714           4986   0.97165383   
    343000   303.76769      2753.1975           4986   0.97165383   
    343100   309.41653      2845.4178           4986   0.97165383   
    343200   314.7657       2974.2139           4986   0.97165383   
    343300   301.65026      3197.8553           4986   0.97165383   
    343400   304.44066      2980.6504           4986   0.97165383   
    343500   305.45625      2820.5406           4986   0.97165383   
    343600   309.50723      2720.5186           4986   0.97165383   
    343700   308.08631      2740.8286           4986   0.97165383   
    343800   301.62844      2804.6253           4986   0.97165383   
    343900   300.82062      2978.0563           4986   0.97165383   
    344000   307.44435      2888.9765           4986   0.97165383   
    344100   305.94043      2776.7922           4992   0.97282309   
    344200   304.66602      2651.0866           4992   0.97282309   
    344300   299.11221      2866.0908           4992   0.97282309   
    344400   298.29219      3035.68             4992   0.97282309   
    344500   308.63649      3098.5076           4992   0.97282309   
    344600   308.01202      2914.7594           4992   0.97282309   
    344700   300.46375      2816.4581           4992   0.97282309   
    344800   306.7879       2694.4872           4992   0.97282309   
    344900   310.13497      3005.3159           4992   0.97282309   
    345000   309.82181      3358.0609           4992   0.97282309   
    345100   312.32848      3080.8199           4992   0.97282309   
    345200   303.30645      2865.8533           4992   0.97282309   
    345300   303.85159      2560.745            4992   0.97282309   
    345400   304.80316      2684.9121           4992   0.97282309   
    345500   310.52618      2896.7583           4992   0.97282309   
    345600   304.71529      3096.1393           4992   0.97282309   
    345700   301.35926      2917.1875           4992   0.97282309   
    345800   300.11444      2942.1397           4992   0.97282309   
    345900   306.33876      2702.1859           4992   0.97282309   
    346000   304.84838      2870.4716           4992   0.97282309   
    346100   306.17891      3016.3209           4995   0.97340772   
    346200   300.09299      3267.3789           4995   0.97340772   
    346300   305.00849      3168.4238           4995   0.97340772   
    346400   311.33291      2876.6718           4995   0.97340772   
    346500   306.89173      2734.8371           4995   0.97340772   
    346600   300.98348      2860.0083           4995   0.97340772   
    346700   305.12732      2907.7369           4995   0.97340772   
    346800   308.97013      2830.4749           4995   0.97340772   
    346900   300.55826      2941.5327           4995   0.97340772   
    347000   302.44859      2655.1333           4995   0.97340772   
    347100   309.72982      2635.4251           4995   0.97340772   
    347200   303.58133      3159.1411           4995   0.97340772   
    347300   308.19542      3179.6023           4995   0.97340772   
    347400   309.17356      3056.7833           4995   0.97340772   
    347500   302.52842      2778.1534           4995   0.97340772   
    347600   302.82743      2564.0154           4995   0.97340772   
    347700   304.62773      2768.46             4995   0.97340772   
    347800   310.87517      2966.0787           4995   0.97340772   
    347900   310.13065      2997.4459           4995   0.97340772   
    348000   303.7742       2978.8364           4995   0.97340772   
    348100   301.5063       2853.3881           4998   0.97399235   
    348200   308.01576      2754.4017           4998   0.97399235   
    348300   311.17564      2843.8275           4998   0.97399235   
    348400   300.76196      3024.4123           4998   0.97399235   
    348500   300.23597      3143.0868           4998   0.97399235   
    348600   305.87413      2979.2504           4998   0.97399235   
    348700   308.99599      2753.2697           4998   0.97399235   
    348800   303.51868      2640.3968           4998   0.97399235   
    348900   299.69738      2937.2578           4998   0.97399235   
    349000   305.69748      3051.4321           4998   0.97399235   
    349100   307.55294      2956.1307           4998   0.97399235   
    349200   303.92634      2683.9725           4998   0.97399235   
    349300   299.02465      2560.8587           4998   0.97399235   
    349400   308.77847      2556.847            4998   0.97399235   
    349500   307.19034      3081.3086           4998   0.97399235   
    349600   306.89139      3069.3705           4998   0.97399235   
    349700   301.67531      3006.5663           4998   0.97399235   
    349800   304.5232       2712.4365           4998   0.97399235   
    349900   304.89393      2533.0823           4998   0.97399235   
    350000   305.68913      2552.3543           4998   0.97399235   
    350100   301.52646      3051.9719           5007   0.97574623   
    350200   312.6169       3256.1246           5007   0.97574623   
    350300   311.13714      3032.4568           5007   0.97574623   
    350400   301.64432      2810.7684           5007   0.97574623   
    350500   302.50291      2676.961            5007   0.97574623   
    350600   309.63604      2685.1945           5007   0.97574623   
    350700   304.40152      2992.9971           5007   0.97574623   
    350800   296.24524      3072.9934           5007   0.97574623   
    350900   300.77933      2954.7109           5007   0.97574623   
    351000   303.53117      2855.4372           5007   0.97574623   
    351100   306.12643      2751.6452           5007   0.97574623   
    351200   304.82499      3042.6363           5007   0.97574623   
    351300   305.3784       2977.8436           5007   0.97574623   
    351400   297.21406      2952.736            5007   0.97574623   
    351500   300.47948      2801.3914           5007   0.97574623   
    351600   304.98857      2691.4279           5007   0.97574623   
    351700   308.71661      2514.4962           5007   0.97574623   
    351800   302.26862      2817.7258           5007   0.97574623   
    351900   298.13993      3207.5901           5007   0.97574623   
    352000   309.45069      3212.0672           5007   0.97574623   
    352100   308.35717      2890.1865           5010   0.97633086   
    352200   301.61781      2661.1527           5010   0.97633086   
    352300   300.6509       2654.5795           5010   0.97633086   
    352400   303.55933      2992.7565           5010   0.97633086   
    352500   310.75711      3086.9014           5010   0.97633086   
    352600   306.65034      2983.2621           5010   0.97633086   
    352700   302.07888      2885.5766           5010   0.97633086   
    352800   306.82987      2550.9154           5010   0.97633086   
    352900   302.82907      2714.0145           5010   0.97633086   
    353000   300.15642      3011.4599           5010   0.97633086   
    353100   305.2872       3023.9625           5010   0.97633086   
    353200   308.71911      3002.2547           5010   0.97633086   
    353300   305.1372       2799.294            5010   0.97633086   
    353400   297.0329       2810.6357           5010   0.97633086   
    353500   306.06841      2890.1303           5010   0.97633086   
    353600   308.73156      3368.8527           5010   0.97633086   
    353700   307.0809       3253.0836           5010   0.97633086   
    353800   301.94479      3044.3419           5010   0.97633086   
    353900   305.16012      2718.4999           5010   0.97633086   
    354000   305.1134       2683.1747           5010   0.97633086   
    354100   301.91442      2865.7139           5010   0.97633086   
    354200   304.8913       2900.9715           5010   0.97633086   
    354300   304.2855       2840.2119           5010   0.97633086   
    354400   301.14914      2722.7163           5010   0.97633086   
    354500   302.44066      2811.0597           5010   0.97633086   
    354600   307.37992      2898.6094           5010   0.97633086   
    354700   303.85383      3169.4483           5010   0.97633086   
    354800   304.60321      3129.1758           5010   0.97633086   
    354900   295.18406      3075.8941           5010   0.97633086   
    355000   299.54759      2743.2661           5010   0.97633086   
    355100   305.32094      2768.4248           5010   0.97633086   
    355200   305.98738      2967.1748           5010   0.97633086   
    355300   303.21422      3167.8782           5010   0.97633086   
    355400   302.13319      3191.9993           5010   0.97633086   
    355500   306.10635      3019.891            5010   0.97633086   
    355600   309.81815      2882.6675           5010   0.97633086   
    355700   306.59068      2645.541            5010   0.97633086   
    355800   303.53816      2608.1724           5010   0.97633086   
    355900   302.18482      2951.8739           5010   0.97633086   
    356000   305.86844      3032.6316           5010   0.97633086   
    356100   305.90231      3000.5102           5016   0.97750012   
    356200   308.05183      2769.0067           5016   0.97750012   
    356300   308.73248      2684.1265           5016   0.97750012   
    356400   298.49719      3061.3896           5016   0.97750012   
    356500   306.11376      2927.5094           5016   0.97750012   
    356600   303.99183      2891.9884           5016   0.97750012   
    356700   297.40866      2875.1848           5016   0.97750012   
    356800   308.52282      2669.5907           5016   0.97750012   
    356900   310.24813      2597.5762           5016   0.97750012   
    357000   299.15498      3034.625            5016   0.97750012   
    357100   304.70071      3022.1166           5016   0.97750012   
    357200   303.96752      3189.656            5016   0.97750012   
    357300   311.17064      2756.4116           5016   0.97750012   
    357400   301.10661      2585.3645           5016   0.97750012   
    357500   300.6967       2798.2893           5016   0.97750012   
    357600   305.64596      3045.9432           5016   0.97750012   
    357700   307.90298      3137.3527           5016   0.97750012   
    357800   301.89687      3057.6658           5016   0.97750012   
    357900   299.51297      2689.9348           5016   0.97750012   
    358000   302.34604      2731.079            5016   0.97750012   
    358100   308.17689      3020.5414           5022   0.97866938   
    358200   306.2907       3247.8355           5022   0.97866938   
    358300   303.6356       3002.2787           5022   0.97866938   
    358400   299.71416      2823.174            5022   0.97866938   
    358500   303.10851      2585.7458           5022   0.97866938   
    358600   309.28461      2389.2006           5022   0.97866938   
    358700   296.97096      2929.904            5022   0.97866938   
    358800   301.52478      2963.4433           5022   0.97866938   
    358900   306.04799      3067.4912           5022   0.97866938   
    359000   309.05217      2837.6391           5022   0.97866938   
    359100   306.77282      2520.949            5022   0.97866938   
    359200   299.90089      2712.8923           5022   0.97866938   
    359300   300.83612      2904.4429           5022   0.97866938   
    359400   302.85423      3223.5596           5022   0.97866938   
    359500   308.57069      3084.9499           5022   0.97866938   
    359600   306.26129      2675.2383           5022   0.97866938   
    359700   299.99368      2704.0613           5022   0.97866938   
    359800   302.38015      2868.8779           5022   0.97866938   
    359900   305.9134       3069.4834           5022   0.97866938   
    360000   309.541        3007.9102           5022   0.97866938   
    360100   301.90513      3024.0889           5025   0.97925401   
    360200   298.73935      2805.2008           5025   0.97925401   
    360300   305.52236      2716.7579           5025   0.97925401   
    360400   308.2641       2907.509            5025   0.97925401   
    360500   297.10609      3196.3657           5025   0.97925401   
    360600   296.58334      3102.1235           5025   0.97925401   
    360700   302.33293      2931.5346           5025   0.97925401   
    360800   305.09015      2713.038            5025   0.97925401   
    360900   300.51167      2978.5342           5025   0.97925401   
    361000   306.91352      3061.9692           5025   0.97925401   
    361100   308.59465      3206.6448           5025   0.97925401   
    361200   298.94639      3336.1076           5025   0.97925401   
    361300   299.57784      2994.8209           5025   0.97925401   
    361400   306.54435      2811.8743           5025   0.97925401   
    361500   306.07263      3034.2444           5025   0.97925401   
    361600   299.2659       3050.8746           5025   0.97925401   
    361700   297.72796      3129.4082           5025   0.97925401   
    361800   300.6015       3241.5515           5025   0.97925401   
    361900   306.64293      3031.8298           5025   0.97925401   
    362000   306.74341      2918.1009           5025   0.97925401   
    362100   302.41207      2905.4664           5034   0.9810079    
    362200   301.08962      3043.3764           5034   0.9810079    
    362300   304.24947      2990.1135           5034   0.9810079    
    362400   300.51235      2946.8854           5034   0.9810079    
    362500   300.66974      2720.9246           5034   0.9810079    
    362600   305.28015      2826.3837           5034   0.9810079    
    362700   307.58663      3084.5563           5034   0.9810079    
    362800   302.13739      3152.7003           5034   0.9810079    
    362900   301.6261       2855.7619           5034   0.9810079    
    363000   301.40085      2754.6204           5034   0.9810079    
    363100   303.33513      2701.9747           5034   0.9810079    
    363200   306.85665      2776.9435           5034   0.9810079    
    363300   307.53493      3055.7709           5034   0.9810079    
    363400   299.40016      3200.5696           5034   0.9810079    
    363500   300.77356      2906.8451           5034   0.9810079    
    363600   302.45165      2706.9411           5034   0.9810079    
    363700   306.67547      2641                5034   0.9810079    
    363800   304.90817      2960.1315           5034   0.9810079    
    363900   298.20269      3132.7712           5034   0.9810079    
    364000   299.58143      2998.9314           5034   0.9810079    
    364100   305.54029      2793.1942           5031   0.98042327   
    364200   305.51116      2835.6087           5031   0.98042327   
    364300   317.58824      2715.0206           5031   0.98042327   
    364400   309.43031      2872.0013           5031   0.98042327   
    364500   301.216        3108.3609           5031   0.98042327   
    364600   298.68267      3109.726            5031   0.98042327   
    364700   306.00827      2903.0205           5031   0.98042327   
    364800   307.22292      2782.9093           5031   0.98042327   
    364900   297.8614       2926.8128           5031   0.98042327   
    365000   302.30312      2942.622            5031   0.98042327   
    365100   303.70534      3059.1716           5031   0.98042327   
    365200   308.65843      3028.5518           5031   0.98042327   
    365300   310.6907       3068.5625           5031   0.98042327   
    365400   304.17791      2819.7617           5031   0.98042327   
    365500   299.05448      2954.5554           5031   0.98042327   
    365600   302.7799       3070.1933           5031   0.98042327   
    365700   307.98015      3140.8215           5031   0.98042327   
    365800   304.00496      3066.0075           5031   0.98042327   
    365900   296.78229      2890.761            5031   0.98042327   
    366000   302.71551      2745.6823           5031   0.98042327   
    366100   303.01275      3111.8806           5040   0.98217716   
    366200   304.72195      3268.0271           5040   0.98217716   
    366300   299.53766      3286.2871           5040   0.98217716   
    366400   294.78912      2971.4134           5040   0.98217716   
    366500   303.53307      2656.6115           5040   0.98217716   
    366600   305.16745      2813.8376           5040   0.98217716   
    366700   303.54009      2898.3141           5040   0.98217716   
    366800   297.01019      3131.0547           5040   0.98217716   
    366900   305.46746      3054.8106           5040   0.98217716   
    367000   304.51517      3078.5628           5040   0.98217716   
    367100   300.43975      2899.1496           5040   0.98217716   
    367200   294.38966      2731.79             5040   0.98217716   
    367300   301.29962      2736.5739           5040   0.98217716   
    367400   305.20414      2881.4341           5040   0.98217716   
    367500   302.72826      3069.7866           5040   0.98217716   
    367600   303.88471      2860.6783           5040   0.98217716   
    367700   300.02792      2721.3676           5040   0.98217716   
    367800   293.62882      2790.2976           5040   0.98217716   
    367900   301.90051      2889.6969           5040   0.98217716   
    368000   304.94125      3038.0037           5040   0.98217716   
    368100   301.90933      3093.2062           5040   0.98217716   
    368200   303.91544      2766.4896           5040   0.98217716   
    368300   301.12148      2714.6234           5040   0.98217716   
    368400   298.76306      2712.0904           5040   0.98217716   
    368500   301.19199      2909.0034           5040   0.98217716   
    368600   309.73312      2972.5932           5040   0.98217716   
    368700   301.36123      3069.3067           5040   0.98217716   
    368800   300.61226      2807.2327           5040   0.98217716   
    368900   301.04286      2751.2917           5040   0.98217716   
    369000   302.5981       2907.6396           5040   0.98217716   
    369100   303.34894      2940.6715           5040   0.98217716   
    369200   295.64382      3090.3957           5040   0.98217716   
    369300   294.54665      3060.1279           5040   0.98217716   
    369400   299.89097      3002.6388           5040   0.98217716   
    369500   308.06387      2705.977            5040   0.98217716   
    369600   304.68802      2741.5746           5040   0.98217716   
    369700   301.11074      2715.7455           5040   0.98217716   
    369800   298.32644      2875.8831           5040   0.98217716   
    369900   302.32142      2873.1962           5040   0.98217716   
    370000   303.84026      2760.9028           5040   0.98217716   
    370100   300.82945      2801.6807           5040   0.98217716   
    370200   304.35808      2872.4665           5040   0.98217716   
    370300   302.16283      3225.6603           5040   0.98217716   
    370400   307.04589      3165.1092           5040   0.98217716   
    370500   305.29504      2943.3449           5040   0.98217716   
    370600   295.64975      2945.5728           5040   0.98217716   
    370700   300.03617      3015.2813           5040   0.98217716   
    370800   307.30343      3035.9594           5040   0.98217716   
    370900   304.25142      3174.6109           5040   0.98217716   
    371000   301.42351      3184.3849           5040   0.98217716   
    371100   300.58234      3021.6657           5040   0.98217716   
    371200   304.98547      2908.5094           5040   0.98217716   
    371300   313.01162      2973.9946           5040   0.98217716   
    371400   304.54678      3093.287            5040   0.98217716   
    371500   303.01963      3095.3404           5040   0.98217716   
    371600   298.939        3055.9561           5040   0.98217716   
    371700   303.71333      2845.6862           5040   0.98217716   
    371800   306.23144      2928.5857           5040   0.98217716   
    371900   305.98463      3010.8718           5040   0.98217716   
    372000   299.30052      3007.3563           5040   0.98217716   
    372100   298.37434      3090.59             5049   0.98393104   
    372200   304.48883      3026.6515           5049   0.98393104   
    372300   305.21647      2821.9488           5049   0.98393104   
    372400   300.67601      2842.0761           5049   0.98393104   
    372500   301.61289      2865.6759           5049   0.98393104   
    372600   302.66669      2985.859            5049   0.98393104   
    372700   301.1764       3124.575            5049   0.98393104   
    372800   302.10598      2910.9911           5049   0.98393104   
    372900   300.54652      2967.714            5049   0.98393104   
    373000   309.10664      2958.4088           5049   0.98393104   
    373100   306.09198      2996.7282           5049   0.98393104   
    373200   301.15018      2986.4401           5049   0.98393104   
    373300   299.41599      3028.0366           5049   0.98393104   
    373400   302.95718      2933.5782           5049   0.98393104   
    373500   306.35468      2849.5838           5049   0.98393104   
    373600   296.91278      2999.6461           5049   0.98393104   
    373700   298.73701      2894.0823           5049   0.98393104   
    373800   297.84687      3233.1054           5049   0.98393104   
    373900   305.44364      2907.1053           5049   0.98393104   
    374000   303.68285      2601.2642           5049   0.98393104   
    374100   299.70055      2527.1825           5049   0.98393104   
    374200   298.94098      2734.1634           5049   0.98393104   
    374300   305.83975      3116.0662           5049   0.98393104   
    374400   304.91722      3266.9684           5049   0.98393104   
    374500   304.40473      3010.903            5049   0.98393104   
    374600   299.55198      2873.7761           5049   0.98393104   
    374700   299.67705      2947.9946           5049   0.98393104   
    374800   304.37153      3149.4016           5049   0.98393104   
    374900   306.87272      3255.5559           5049   0.98393104   
    375000   304.36947      3194.6739           5049   0.98393104   
    375100   300.19585      2950.5899           5049   0.98393104   
    375200   299.35763      2800.6389           5049   0.98393104   
    375300   303.77464      2844.4888           5049   0.98393104   
    375400   305.97474      2976.6899           5049   0.98393104   
    375500   296.95318      3231.3327           5049   0.98393104   
    375600   297.7341       3057.6977           5049   0.98393104   
    375700   306.36324      2827.9256           5049   0.98393104   
    375800   303.50437      2822.4942           5049   0.98393104   
    375900   300.49132      2973.0513           5049   0.98393104   
    376000   301.41809      3144.5552           5049   0.98393104   
    376100   303.77166      3185.317            5052   0.98451567   
    376200   309.75176      2806.4839           5052   0.98451567   
    376300   299.07716      2687.3045           5052   0.98451567   
    376400   295.49884      2864.36             5052   0.98451567   
    376500   304.76722      2860.2235           5052   0.98451567   
    376600   303.87389      3053.2423           5052   0.98451567   
    376700   301.15687      2969.3304           5052   0.98451567   
    376800   301.37499      2732.7716           5052   0.98451567   
    376900   301.68465      2583.2673           5052   0.98451567   
    377000   299.30421      2689.7561           5052   0.98451567   
    377100   308.7975       2922.6999           5052   0.98451567   
    377200   302.93636      3263.3816           5052   0.98451567   
    377300   299.50836      3153.3334           5052   0.98451567   
    377400   302.17391      2656.8156           5052   0.98451567   
    377500   296.30299      2602.3275           5052   0.98451567   
    377600   297.47996      2901.1314           5052   0.98451567   
    377700   303.81058      3221.909            5052   0.98451567   
    377800   305.78316      3234.1602           5052   0.98451567   
    377900   302.2363       2936.128            5052   0.98451567   
    378000   298.2405       2720.9958           5052   0.98451567   
    378100   300.8733       2638.2148           5049   0.98393104   
    378200   305.78534      2612.1817           5049   0.98393104   
    378300   301.2106       2983.1028           5049   0.98393104   
    378400   302.54987      3022.4588           5049   0.98393104   
    378500   300.43494      2965.3922           5049   0.98393104   
    378600   298.53703      2945.9782           5049   0.98393104   
    378700   313.03668      2517.4998           5049   0.98393104   
    378800   299.4634       2952.857            5049   0.98393104   
    378900   304.45443      2815.8951           5049   0.98393104   
    379000   296.84987      3110.3371           5049   0.98393104   
    379100   304.14205      3010.4054           5049   0.98393104   
    379200   308.33629      2755.1695           5049   0.98393104   
    379300   301.74202      2708.9428           5049   0.98393104   
    379400   301.62345      2741.1423           5049   0.98393104   
    379500   300.2822       2937.5021           5049   0.98393104   
    379600   301.00092      3154.3035           5049   0.98393104   
    379700   310.37778      2899.5006           5049   0.98393104   
    379800   301.50427      2867.034            5049   0.98393104   
    379900   300.94459      2738.7867           5049   0.98393104   
    380000   300.46316      3006.251            5049   0.98393104   
    380100   302.1896       3214.2702           5055   0.9851003    
    380200   301.68487      3185.3327           5055   0.9851003    
    380300   301.19558      2656.5982           5055   0.9851003    
    380400   292.81611      2580.0566           5055   0.9851003    
    380500   302.33918      2658.1726           5055   0.9851003    
    380600   302.33174      3196.4792           5055   0.9851003    
    380700   304.39909      3207.1445           5055   0.9851003    
    380800   301.56703      2903.9669           5055   0.9851003    
    380900   297.41669      2707.6563           5055   0.9851003    
    381000   302.00472      2542.316            5055   0.9851003    
    381100   305.78774      2914.1262           5055   0.9851003    
    381200   308.92809      3286.3312           5055   0.9851003    
    381300   306.39248      3147.8893           5055   0.9851003    
    381400   303.4448       2726.5926           5055   0.9851003    
    381500   296.17372      2681.146            5055   0.9851003    
    381600   302.89681      2500.5085           5055   0.9851003    
    381700   304.45039      2876.2346           5055   0.9851003    
    381800   304.41621      3004.9263           5055   0.9851003    
    381900   296.67228      3224.479            5055   0.9851003    
    382000   303.41401      2799.3388           5055   0.9851003    
    382100   300.43605      2723.8539           5067   0.98743882   
    382200   297.54083      2848.4879           5067   0.98743882   
    382300   304.90864      3088.5837           5067   0.98743882   
    382400   307.4482       3159.8289           5067   0.98743882   
    382500   301.70569      2842.397            5067   0.98743882   
    382600   297.98834      2757.6021           5067   0.98743882   
    382700   301.60098      2762.0167           5067   0.98743882   
    382800   305.09744      2894.5047           5067   0.98743882   
    382900   300.24468      3126.7923           5067   0.98743882   
    383000   294.42125      3231.1107           5067   0.98743882   
    383100   299.75036      3112.6098           5067   0.98743882   
    383200   305.89202      2928.5538           5067   0.98743882   
    383300   298.96496      2945.5335           5067   0.98743882   
    383400   299.42248      2959.0726           5067   0.98743882   
    383500   297.98108      3245.9669           5067   0.98743882   
    383600   308.60416      3059.394            5067   0.98743882   
    383700   304.24412      2935.6685           5067   0.98743882   
    383800   301.51434      2698.0977           5067   0.98743882   
    383900   296.20783      3012.6911           5067   0.98743882   
    384000   304.52489      3162.5577           5067   0.98743882   
    384100   304.84363      3175.8148           5073   0.98860808   
    384200   299.96069      3053.5825           5073   0.98860808   
    384300   297.86469      2878.2109           5073   0.98860808   
    384400   304.202        2552.2012           5073   0.98860808   
    384500   297.89191      2816.2263           5073   0.98860808   
    384600   294.95636      3096.7715           5073   0.98860808   
    384700   304.86833      3121.4502           5073   0.98860808   
    384800   305.14726      3002.8997           5073   0.98860808   
    384900   296.68971      2951.8004           5073   0.98860808   
    385000   299.70298      2794.2459           5073   0.98860808   
    385100   300.45131      2941.1078           5073   0.98860808   
    385200   302.4571       3125.3697           5073   0.98860808   
    385300   299.23371      3252.5684           5073   0.98860808   
    385400   299.20725      3138.9006           5073   0.98860808   
    385500   312.78973      2729.0827           5073   0.98860808   
    385600   305.4367       2694.0813           5073   0.98860808   
    385700   298.49624      2948.9689           5073   0.98860808   
    385800   297.83737      3161.1654           5073   0.98860808   
    385900   302.93788      3119.0295           5073   0.98860808   
    386000   304.09438      2941.9535           5073   0.98860808   
    386100   297.94269      2818.399            5070   0.98802345   
    386200   298.86142      2547.5652           5070   0.98802345   
    386300   294.75315      2910.728            5070   0.98802345   
    386400   300.64502      3241.2781           5070   0.98802345   
    386500   304.65287      3083.8063           5070   0.98802345   
    386600   298.35664      2966.7245           5070   0.98802345   
    386700   297.01974      2806.9794           5070   0.98802345   
    386800   304.63682      2900.8992           5070   0.98802345   
    386900   305.43924      3097.4086           5070   0.98802345   
    387000   299.46125      3305.286            5070   0.98802345   
    387100   304.79181      2925.3545           5070   0.98802345   
    387200   297.84497      2733.2967           5070   0.98802345   
    387300   295.18181      2733.255            5070   0.98802345   
    387400   303.32904      2862.2203           5070   0.98802345   
    387500   302.48743      3191.3254           5070   0.98802345   
    387600   301.57242      3178.8922           5070   0.98802345   
    387700   294.79914      3202.7874           5070   0.98802345   
    387800   305.17786      2881.6693           5070   0.98802345   
    387900   305.26527      2965.6883           5070   0.98802345   
    388000   303.36205      3032.948            5070   0.98802345   
    388100   295.25441      3450.4187           5067   0.98743882   
    388200   305.52759      3122.5867           5067   0.98743882   
    388300   303.37048      2866.112            5067   0.98743882   
    388400   294.6867       2781.0814           5067   0.98743882   
    388500   297.07929      2868.1679           5067   0.98743882   
    388600   305.34375      2812.1453           5067   0.98743882   
    388700   298.78611      3066.176            5067   0.98743882   
    388800   296.76805      3004.3878           5067   0.98743882   
    388900   303.55538      2856.2583           5067   0.98743882   
    389000   305.97566      2571.3011           5067   0.98743882   
    389100   299.05439      2901.2015           5067   0.98743882   
    389200   298.6689       3311.886            5067   0.98743882   
    389300   305.62469      3258.6234           5067   0.98743882   
    389400   301.0375       3093.9233           5067   0.98743882   
    389500   298.25733      2511.0297           5067   0.98743882   
    389600   295.23628      2664.3903           5067   0.98743882   
    389700   299.86327      3099.8879           5067   0.98743882   
    389800   307.87664      2998.5823           5067   0.98743882   
    389900   299.13518      2999.5565           5067   0.98743882   
    390000   297.09442      2848.3049           5067   0.98743882   
    390100   299.46635      2861.1401           5070   0.98802345   
    390200   304.44589      2869.6844           5070   0.98802345   
    390300   301.04544      3149.7155           5070   0.98802345   
    390400   300.63914      3219.2791           5070   0.98802345   
    390500   301.15777      3076.6695           5070   0.98802345   
    390600   300.09525      2810.0111           5070   0.98802345   
    390700   293.67875      2679.999            5070   0.98802345   
    390800   298.01801      2856.5151           5070   0.98802345   
    390900   302.56967      3160.2626           5070   0.98802345   
    391000   302.49974      3036.5596           5070   0.98802345   
    391100   296.24897      3035.3751           5070   0.98802345   
    391200   302.9074       2826.226            5070   0.98802345   
    391300   306.98311      2905.996            5070   0.98802345   
    391400   301.87834      2999.4231           5070   0.98802345   
    391500   296.53989      3103.5638           5070   0.98802345   
    391600   299.00439      2982.4964           5070   0.98802345   
    391700   303.00434      2797.267            5070   0.98802345   
    391800   301.12583      2929.6328           5070   0.98802345   
    391900   307.78266      2890.5807           5070   0.98802345   
    392000   296.12356      3238.9542           5070   0.98802345   
    392100   297.64639      3166.6397           5067   0.98743882   
    392200   300.5654       2983.5327           5067   0.98743882   
    392300   304.71532      2599.5472           5067   0.98743882   
    392400   302.33098      2493.2214           5067   0.98743882   
    392500   301.17356      2652.7362           5067   0.98743882   
    392600   293.94338      3253.815            5067   0.98743882   
    392700   302.6179       3368.5111           5067   0.98743882   
    392800   302.37611      3112.716            5067   0.98743882   
    392900   303.00104      2675.8129           5067   0.98743882   
    393000   300.05304      2542.3094           5067   0.98743882   
    393100   296.82537      2830.0023           5067   0.98743882   
    393200   302.5364       3022.285            5067   0.98743882   
    393300   301.93051      3254.697            5067   0.98743882   
    393400   309.25168      3144.4113           5067   0.98743882   
    393500   313.89771      2788.291            5067   0.98743882   
    393600   304.51647      2735.6243           5067   0.98743882   
    393700   295.94842      3002.091            5067   0.98743882   
    393800   298.15302      3203.0885           5067   0.98743882   
    393900   302.54244      3247.7853           5067   0.98743882   
    394000   304.97612      2942.2169           5067   0.98743882   
    394100   296.49145      2920.4498           5067   0.98743882   
    394200   297.97273      2988.8758           5067   0.98743882   
    394300   304.97018      3001.0079           5067   0.98743882   
    394400   301.62227      3213.8424           5067   0.98743882   
    394500   299.45757      3163.5631           5067   0.98743882   
    394600   302.95106      2910.7554           5067   0.98743882   
    394700   302.60042      2655.0894           5067   0.98743882   
    394800   291.44655      2929.9345           5067   0.98743882   
    394900   297.04474      3116.5679           5067   0.98743882   
    395000   302.73916      3080.7678           5067   0.98743882   
    395100   301.74549      3014.8083           5067   0.98743882   
    395200   296.61739      2944.5302           5067   0.98743882   
    395300   304.43158      2843.9709           5067   0.98743882   
    395400   306.026        3162.7162           5067   0.98743882   
    395500   296.98868      3485.2938           5067   0.98743882   
    395600   300.54641      3001.683            5067   0.98743882   
    395700   295.01536      2725.7236           5067   0.98743882   
    395800   289.62359      2642.9795           5067   0.98743882   
    395900   300.73232      2647.6253           5067   0.98743882   
    396000   303.5285       2812.799            5067   0.98743882   
    396100   301.09167      2951.9718           5067   0.98743882   
    396200   295.5496       3026.4419           5067   0.98743882   
    396300   303.70947      2802.3562           5067   0.98743882   
    396400   302.21249      2852.5351           5067   0.98743882   
    396500   301.69808      2886.1049           5067   0.98743882   
    396600   301.83654      2924.4574           5067   0.98743882   
    396700   296.41029      3099.9619           5067   0.98743882   
    396800   294.68994      2977.7066           5067   0.98743882   
    396900   306.16109      2680.2207           5067   0.98743882   
    397000   304.88263      2617.7104           5067   0.98743882   
    397100   295.21612      2909.2419           5067   0.98743882   
    397200   296.47647      3274.516            5067   0.98743882   
    397300   301.53235      3368.3935           5067   0.98743882   
    397400   304.70394      3107.8757           5067   0.98743882   
    397500   299.6526       2850.2091           5067   0.98743882   
    397600   295.15786      2788.6988           5067   0.98743882   
    397700   295.27408      3167.594            5067   0.98743882   
    397800   305.37753      3283.4327           5067   0.98743882   
    397900   304.07581      3136.1423           5067   0.98743882   
    398000   297.17061      2887.0554           5067   0.98743882   
    398100   298.54297      2697.0236           5064   0.98685419   
    398200   304.6641       2732.0007           5064   0.98685419   
    398300   301.12451      3073.2823           5064   0.98685419   
    398400   299.65193      3034.0922           5064   0.98685419   
    398500   291.73337      3054.3105           5064   0.98685419   
    398600   297.2901       2915.6527           5064   0.98685419   
    398700   302.4487       2807.3873           5064   0.98685419   
    398800   304.44386      2762.406            5064   0.98685419   
    398900   297.5232       2980.3017           5064   0.98685419   
    399000   300.00653      2987.3115           5064   0.98685419   
    399100   306.33472      2937.9979           5064   0.98685419   
    399200   306.3339       2927.2991           5064   0.98685419   
    399300   303.41377      2629.4817           5064   0.98685419   
    399400   297.19107      2960.1429           5064   0.98685419   
    399500   306.04904      2979.3759           5064   0.98685419   
    399600   303.68168      3057.7607           5064   0.98685419   
    399700   295.3803       2923.7731           5064   0.98685419   
    399800   299.43663      2649.8727           5064   0.98685419   
    399900   303.05947      2674.5862           5064   0.98685419   
    400000   303.78463      2849.6135           5064   0.98685419   
    400100   301.6671       3050.882            5070   0.98802345   
    400200   296.40931      3322.3807           5070   0.98802345   
    400300   300.75591      3109.3518           5070   0.98802345   
    400400   303.48117      2918.7936           5070   0.98802345   
    400500   300.7057       2948.0508           5070   0.98802345   
    400600   295.05606      3070.8554           5070   0.98802345   
    400700   294.45352      3210.7254           5070   0.98802345   
    400800   306.45004      3089.3289           5070   0.98802345   
    400900   301.10405      2846.3433           5070   0.98802345   
    401000   300.14283      2556.6139           5070   0.98802345   
    401100   293.79727      2826.241            5070   0.98802345   
    401200   303.15035      2963.4558           5070   0.98802345   
    401300   302.16455      3225.4098           5070   0.98802345   
    401400   298.0774       3234.4994           5070   0.98802345   
    401500   301.43226      2925.8352           5070   0.98802345   
    401600   304.30736      2875.0451           5070   0.98802345   
    401700   301.73348      2973.8017           5070   0.98802345   
    401800   297.44778      3070.2406           5070   0.98802345   
    401900   298.52174      3057.9451           5070   0.98802345   
    402000   304.78603      2868.7655           5070   0.98802345   
    402100   299.96212      2944.9972           5067   0.98743882   
    402200   295.95641      2914.149            5067   0.98743882   
    402300   296.41238      2774.7086           5067   0.98743882   
    402400   297.09813      3128.7812           5067   0.98743882   
    402500   302.62829      3179.8064           5067   0.98743882   
    402600   303.0843       2921.0425           5067   0.98743882   
    402700   297.81124      2846.9961           5067   0.98743882   
    402800   300.79819      2759.3261           5067   0.98743882   
    402900   304.17645      3044.5868           5067   0.98743882   
    403000   306.00118      3266.7716           5067   0.98743882   
    403100   303.32713      3029.6648           5067   0.98743882   
    403200   299.1902       2728.7478           5067   0.98743882   
    403300   299.45737      2722.07             5067   0.98743882   
    403400   300.61822      2984.2843           5067   0.98743882   
    403500   303.75253      3203.6003           5067   0.98743882   
    403600   305.41646      3059.111            5067   0.98743882   
    403700   296.51404      2905.675            5067   0.98743882   
    403800   297.38175      2698.2489           5067   0.98743882   
    403900   301.92765      2844.7153           5067   0.98743882   
    404000   304.32707      3066.1771           5067   0.98743882   
    404100   303.7052       3061.2054           5073   0.98860808   
    404200   294.02229      3175.7005           5073   0.98860808   
    404300   299.93564      2918.7879           5073   0.98860808   
    404400   303.76619      2843.0489           5073   0.98860808   
    404500   301.9344       2973.812            5073   0.98860808   
    404600   293.29985      3344.4795           5073   0.98860808   
    404700   301.31253      3097.2167           5073   0.98860808   
    404800   305.86718      3141.7145           5073   0.98860808   
    404900   298.17145      3135.7091           5073   0.98860808   
    405000   300.41766      2809.7059           5073   0.98860808   
    405100   297.18197      2967.1176           5073   0.98860808   
    405200   297.81739      3182.0396           5073   0.98860808   
    405300   304.81794      3251.2152           5073   0.98860808   
    405400   305.17193      3007.9446           5073   0.98860808   
    405500   299.2261       2807.5804           5073   0.98860808   
    405600   300.09769      2750.9698           5073   0.98860808   
    405700   300.88581      2955.9512           5073   0.98860808   
    405800   306.71232      3158.9234           5073   0.98860808   
    405900   308.24902      3179.1997           5073   0.98860808   
    406000   298.06511      2971.2304           5073   0.98860808   
    406100   297.57816      2707.1906           5070   0.98802345   
    406200   301.35141      2680.4816           5070   0.98802345   
    406300   304.23947      2957.978            5070   0.98802345   
    406400   302.86615      3127.9765           5070   0.98802345   
    406500   296.18981      2891.9802           5070   0.98802345   
    406600   295.98237      2782.3271           5070   0.98802345   
    406700   301.5823       2800.7202           5070   0.98802345   
    406800   303.03943      2933.2856           5070   0.98802345   
    406900   302.06712      3011.8058           5070   0.98802345   
    407000   294.8581       3156.4525           5070   0.98802345   
    407100   294.48074      3103.0629           5070   0.98802345   
    407200   306.43352      2758.185            5070   0.98802345   
    407300   298.47951      2856.8939           5070   0.98802345   
    407400   297.56758      2927.9501           5070   0.98802345   
    407500   301.8344       3217.3406           5070   0.98802345   
    407600   309.3184       2992.0654           5070   0.98802345   
    407700   299.31015      2899.4419           5070   0.98802345   
    407800   296.60589      2829.3995           5070   0.98802345   
    407900   304.37937      2758.8162           5070   0.98802345   
    408000   303.02733      2951.0466           5070   0.98802345   
    408100   294.97957      3253.1115           5070   0.98802345   
    408200   302.12018      2980.2619           5070   0.98802345   
    408300   310.34063      2755.1867           5070   0.98802345   
    408400   300.77478      2687.9186           5070   0.98802345   
    408500   300.43829      2506.0548           5070   0.98802345   
    408600   295.04216      3005.2168           5070   0.98802345   
    408700   301.22012      3189.923            5070   0.98802345   
    408800   300.6821       3205.1135           5070   0.98802345   
    408900   301.39463      3030.4913           5070   0.98802345   
    409000   301.07029      3038.1418           5070   0.98802345   
    409100   309.76989      2750.3865           5070   0.98802345   
    409200   297.5815       3099.9038           5070   0.98802345   
    409300   296.89754      3271.6014           5070   0.98802345   
    409400   303.6237       3144.1433           5070   0.98802345   
    409500   302.58228      3093.346            5070   0.98802345   
    409600   301.45331      2834.598            5070   0.98802345   
    409700   295.55993      2795.8975           5070   0.98802345   
    409800   298.80475      2939.3089           5070   0.98802345   
    409900   301.31891      3139.8716           5070   0.98802345   
    410000   302.42485      3189.1084           5070   0.98802345   
    410100   307.73696      2729.1309           5076   0.98919271   
    410200   300.22606      2674.9866           5076   0.98919271   
    410300   295.77025      3090.7335           5076   0.98919271   
    410400   303.92508      3157.979            5076   0.98919271   
    410500   303.31595      3106.3352           5076   0.98919271   
    410600   298.46719      2792.5818           5076   0.98919271   
    410700   294.60165      2884.6948           5076   0.98919271   
    410800   295.93863      3159.4352           5076   0.98919271   
    410900   304.15446      3085.0633           5076   0.98919271   
    411000   298.07191      3348.1444           5076   0.98919271   
    411100   297.97905      3196.231            5076   0.98919271   
    411200   303.13215      3087.1613           5076   0.98919271   
    411300   308.02049      2929.8015           5076   0.98919271   
    411400   300.0801       3062.8837           5076   0.98919271   
    411500   301.14575      3059.1562           5076   0.98919271   
    411600   299.20529      2998.3163           5076   0.98919271   
    411700   296.32873      2979.7975           5076   0.98919271   
    411800   305.95179      2887.7039           5076   0.98919271   
    411900   303.2749       3036.8079           5076   0.98919271   
    412000   299.26019      3144.3653           5076   0.98919271   
    412100   299.50689      3100.2507           5073   0.98860808   
    412200   300.95577      2998.7917           5073   0.98860808   
    412300   306.10161      2958.9543           5073   0.98860808   
    412400   301.48674      3000.4481           5073   0.98860808   
    412500   300.18285      2932.4154           5073   0.98860808   
    412600   295.56917      2950.7987           5073   0.98860808   
    412700   292.65695      3020.8727           5073   0.98860808   
    412800   298.58155      3002.8801           5073   0.98860808   
    412900   298.84124      3061.9238           5073   0.98860808   
    413000   305.12667      2949.3401           5073   0.98860808   
    413100   299.35278      3176.1014           5073   0.98860808   
    413200   298.9645       3074.2137           5073   0.98860808   
    413300   292.72891      3173.7868           5073   0.98860808   
    413400   303.13517      2976.0086           5073   0.98860808   
    413500   303.86852      2816.5405           5073   0.98860808   
    413600   299.44177      2876.2145           5073   0.98860808   
    413700   300.09972      2869.9341           5073   0.98860808   
    413800   299.98259      3076.1429           5073   0.98860808   
    413900   308.56838      3018.4924           5073   0.98860808   
    414000   302.77438      2950.1296           5073   0.98860808   
    414100   299.78052      2736.3165           5067   0.98743882   
    414200   300.85098      2754.5757           5067   0.98743882   
    414300   303.46746      2730.2882           5067   0.98743882   
    414400   297.50301      2971.5776           5067   0.98743882   
    414500   299.20165      3092.0758           5067   0.98743882   
    414600   306.47925      2972.4357           5067   0.98743882   
    414700   303.06709      2853.7627           5067   0.98743882   
    414800   299.15954      2843.2304           5067   0.98743882   
    414900   298.23354      2977.4076           5067   0.98743882   
    415000   304.84423      2888.6477           5067   0.98743882   
    415100   301.93262      2960.353            5067   0.98743882   
    415200   304.70626      2755.3934           5067   0.98743882   
    415300   295.83338      2926.8819           5067   0.98743882   
    415400   301.72029      2671.7614           5067   0.98743882   
    415500   297.02554      2888.0893           5067   0.98743882   
    415600   300.10657      3100.5801           5067   0.98743882   
    415700   308.21698      2801.6028           5067   0.98743882   
    415800   299.77206      2870.7457           5067   0.98743882   
    415900   300.39704      2831.6198           5067   0.98743882   
    416000   299.63594      2940.3322           5067   0.98743882   
    416100   305.85594      2923.8685           5061   0.98626956   
    416200   307.56139      2947.4207           5061   0.98626956   
    416300   299.20996      2934.9378           5061   0.98626956   
    416400   296.93058      2858.4224           5061   0.98626956   
    416500   300.71796      2930.283            5061   0.98626956   
    416600   303.16138      3013.2423           5061   0.98626956   
    416700   301.75375      3029.3014           5061   0.98626956   
    416800   299.45771      2737.6508           5061   0.98626956   
    416900   286.01865      3003.5289           5061   0.98626956   
    417000   298.43187      2831.3283           5061   0.98626956   
    417100   304.05034      2889.5614           5061   0.98626956   
    417200   304.314        2945.6904           5061   0.98626956   
    417300   297.13304      3006.2662           5061   0.98626956   
    417400   299.42049      2967.6056           5061   0.98626956   
    417500   308.6715       2753.745            5061   0.98626956   
    417600   299.84594      2983.9256           5061   0.98626956   
    417700   301.13395      2966.6573           5061   0.98626956   
    417800   302.4729       2906.7124           5061   0.98626956   
    417900   297.22958      2862.9105           5061   0.98626956   
    418000   291.66869      2927.3572           5061   0.98626956   
    418100   298.73751      3063.2338           5055   0.9851003    
    418200   304.70476      2932.0465           5055   0.9851003    
    418300   300.15703      3029.8681           5055   0.9851003    
    418400   301.06278      2978.4218           5055   0.9851003    
    418500   303.34413      2888.7529           5055   0.9851003    
    418600   302.44452      3014.4254           5055   0.9851003    
    418700   306.52172      2902.0045           5055   0.9851003    
    418800   298.70635      2873.3251           5055   0.9851003    
    418900   295.38991      2952.4265           5055   0.9851003    
    419000   301.2667       3038.5289           5055   0.9851003    
    419100   302.46236      3060.9938           5055   0.9851003    
    419200   303.08765      2909.1982           5055   0.9851003    
    419300   294.40738      3145.6221           5055   0.9851003    
    419400   303.46677      2971.0971           5055   0.9851003    
    419500   310.60862      2779.555            5055   0.9851003    
    419600   301.92442      2858.7782           5055   0.9851003    
    419700   296.86239      2986.8478           5055   0.9851003    
    419800   303.44386      3019.1561           5055   0.9851003    
    419900   304.76982      3156.5405           5055   0.9851003    
    420000   302.95716      2984.2014           5055   0.9851003    
    420100   295.20643      2756.1366           5049   0.98393104   
    420200   297.97034      2871.559            5049   0.98393104   
    420300   301.62193      2970.9928           5049   0.98393104   
    420400   305.24977      3078.2962           5049   0.98393104   
    420500   307.64426      2771.8743           5049   0.98393104   
    420600   299.2521       2850.5694           5049   0.98393104   
    420700   301.49774      2917.8622           5049   0.98393104   
    420800   303.19546      2945.9994           5049   0.98393104   
    420900   304.71919      3085.5789           5049   0.98393104   
    421000   310.4604       2980.2208           5049   0.98393104   
    421100   302.3464       2810.6922           5049   0.98393104   
    421200   297.7005       2956.6889           5049   0.98393104   
    421300   304.27281      2800.45             5049   0.98393104   
    421400   303.41625      2906.1955           5049   0.98393104   
    421500   301.23495      2881.2843           5049   0.98393104   
    421600   297.26554      2846.0973           5049   0.98393104   
    421700   300.88927      2878.5129           5049   0.98393104   
    421800   306.07996      2995.0217           5049   0.98393104   
    421900   306.52946      2869.4899           5049   0.98393104   
    422000   298.61174      2807.8004           5049   0.98393104   
    422100   300.67723      2691.2339           5052   0.98451567   
    422200   300.26896      2835.6099           5052   0.98451567   
    422300   302.59567      3011.8544           5052   0.98451567   
    422400   307.54008      2922.5509           5052   0.98451567   
    422500   296.75501      2944.9394           5052   0.98451567   
    422600   295.98665      2858.9733           5052   0.98451567   
    422700   301.19571      2850.986            5052   0.98451567   
    422800   301.20559      2994.2917           5052   0.98451567   
    422900   303.17754      2983.673            5052   0.98451567   
    423000   302.45631      2980.5527           5052   0.98451567   
    423100   297.0822       2831.0535           5052   0.98451567   
    423200   295.4184       2809.2071           5052   0.98451567   
    423300   303.98405      2851.8186           5052   0.98451567   
    423400   305.55494      2876.6099           5052   0.98451567   
    423500   299.74145      3028.6082           5052   0.98451567   
    423600   298.85536      2924.2677           5052   0.98451567   
    423700   304.15756      2800.8447           5052   0.98451567   
    423800   309.8266       2815.8389           5052   0.98451567   
    423900   303.94896      2809.2566           5052   0.98451567   
    424000   298.5303       3042.7325           5052   0.98451567   
    424100   299.4935       3303.7453           5055   0.9851003    
    424200   305.81743      3111.4767           5055   0.9851003    
    424300   305.26278      2852.9443           5055   0.9851003    
    424400   301.57452      2809.2826           5055   0.9851003    
    424500   298.72222      2919.7371           5055   0.9851003    
    424600   302.66292      2911.8317           5055   0.9851003    
    424700   304.79354      2943.3001           5055   0.9851003    
    424800   300.75033      2894.7462           5055   0.9851003    
    424900   297.25021      2800.2506           5055   0.9851003    
    425000   303.80961      2792.932            5055   0.9851003    
    425100   305.14241      3062.2034           5055   0.9851003    
    425200   300.64978      3285.5843           5055   0.9851003    
    425300   300.67131      3065.6709           5055   0.9851003    
    425400   297.61137      2874.0454           5055   0.9851003    
    425500   299.46121      2835.8234           5055   0.9851003    
    425600   305.51522      2938.5648           5055   0.9851003    
    425700   304.26956      3050.518            5055   0.9851003    
    425800   302.73931      3048.3884           5055   0.9851003    
    425900   300.3583       2967.7579           5055   0.9851003    
    426000   301.23372      2791.0413           5055   0.9851003    
    426100   303.11984      2832.3642           5058   0.98568493   
    426200   308.37598      2972.5283           5058   0.98568493   
    426300   303.86         3088.4036           5058   0.98568493   
    426400   298.97155      3047.3815           5058   0.98568493   
    426500   301.06605      2861.7666           5058   0.98568493   
    426600   300.04276      2767.1813           5058   0.98568493   
    426700   304.71493      2913.0155           5058   0.98568493   
    426800   306.91151      3052.5736           5058   0.98568493   
    426900   300.82996      3060.0691           5058   0.98568493   
    427000   300.13211      3023.7509           5058   0.98568493   
    427100   303.41928      2806.9377           5058   0.98568493   
    427200   297.5496       2965.8708           5058   0.98568493   
    427300   309.89264      2729.9066           5058   0.98568493   
    427400   304.72281      2988.0394           5058   0.98568493   
    427500   299.23459      3001.7345           5058   0.98568493   
    427600   300.00046      2964.1835           5058   0.98568493   
    427700   301.4872       2869.5992           5058   0.98568493   
    427800   306.04611      2812.2882           5058   0.98568493   
    427900   306.43609      2935.8415           5058   0.98568493   
    428000   299.46891      3014.9654           5058   0.98568493   
    428100   298.51517      3028.0458           5064   0.98685419   
    428200   298.68045      3061.2809           5064   0.98685419   
    428300   307.04048      2862.4333           5064   0.98685419   
    428400   301.5711       2878.7584           5064   0.98685419   
    428500   298.30341      3022.5249           5064   0.98685419   
    428600   304.71712      2967.4356           5064   0.98685419   
    428700   301.72202      2886.4702           5064   0.98685419   
    428800   297.40757      2789.9541           5064   0.98685419   
    428900   302.1165       2510.012            5064   0.98685419   
    429000   297.38829      2719.703            5064   0.98685419   
    429100   305.12271      2659.4986           5064   0.98685419   
    429200   298.36324      3071.973            5064   0.98685419   
    429300   300.95384      2903.2636           5064   0.98685419   
    429400   298.12391      2914.037            5064   0.98685419   
    429500   302.94475      2823.0394           5064   0.98685419   
    429600   304.21279      2991.1862           5064   0.98685419   
    429700   305.61045      2892.1469           5064   0.98685419   
    429800   301.67932      2874.1339           5064   0.98685419   
    429900   299.02321      2871.7003           5064   0.98685419   
    430000   296.35805      3042.5437           5064   0.98685419   
    430100   302.44728      2961.8109           5064   0.98685419   
    430200   303.42929      2950.216            5064   0.98685419   
    430300   299.88547      3072.1556           5064   0.98685419   
    430400   299.09969      3031.3084           5064   0.98685419   
    430500   292.32185      3166.3669           5064   0.98685419   
    430600   302.32617      2971.7488           5064   0.98685419   
    430700   303.81577      3009.9952           5064   0.98685419   
    430800   300.10359      3062.3991           5064   0.98685419   
    430900   299.51392      3032.8452           5064   0.98685419   
    431000   297.87267      3134.8656           5064   0.98685419   
    431100   309.57955      2812.4336           5064   0.98685419   
    431200   303.31204      2738.3308           5064   0.98685419   
    431300   295.81942      2698.1193           5064   0.98685419   
    431400   297.88457      2894.4986           5064   0.98685419   
    431500   303.38298      3112.8687           5064   0.98685419   
    431600   302.41864      3151.8184           5064   0.98685419   
    431700   295.67049      3022.0274           5064   0.98685419   
    431800   298.58167      2638.3635           5064   0.98685419   
    431900   300.32597      2790.9176           5064   0.98685419   
    432000   304.90954      2982.8434           5064   0.98685419   
    432100   303.677        3047.3198           5070   0.98802345   
    432200   292.77556      3198.1328           5070   0.98802345   
    432300   300.7485       2864.8606           5070   0.98802345   
    432400   302.05617      2735.7113           5070   0.98802345   
    432500   297.45264      2986.4902           5070   0.98802345   
    432600   303.68969      3198.9386           5070   0.98802345   
    432700   310.93161      3206.7334           5070   0.98802345   
    432800   299.63669      3029.663            5070   0.98802345   
    432900   298.65744      2804.583            5070   0.98802345   
    433000   300.25854      2843.521            5070   0.98802345   
    433100   302.1251       3098.5583           5070   0.98802345   
    433200   306.89994      3151.5567           5070   0.98802345   
    433300   298.11856      3193.2288           5070   0.98802345   
    433400   298.6098       2874.4714           5070   0.98802345   
    433500   299.68776      2768.2544           5070   0.98802345   
    433600   304.23063      2593.2774           5070   0.98802345   
    433700   300.09514      2760.5988           5070   0.98802345   
    433800   292.44033      3004.8079           5070   0.98802345   
    433900   300.62873      2938.4882           5070   0.98802345   
    434000   301.35422      2914.9697           5070   0.98802345   
    434100   301.58516      2678.5169           5067   0.98743882   
    434200   302.94306      2607.2042           5067   0.98743882   
    434300   295.21115      2922.6672           5067   0.98743882   
    434400   295.68804      3146.1186           5067   0.98743882   
    434500   303.13276      3011.3535           5067   0.98743882   
    434600   302.87161      2773.9735           5067   0.98743882   
    434700   295.4176       2839.4536           5067   0.98743882   
    434800   307.34073      2752.9218           5067   0.98743882   
    434900   305.20073      3118.4702           5067   0.98743882   
    435000   298.53674      3025.4851           5067   0.98743882   
    435100   297.17923      2998.0937           5067   0.98743882   
    435200   304.24279      2684.7182           5067   0.98743882   
    435300   302.55532      2714.6164           5067   0.98743882   
    435400   296.24326      3049.6377           5067   0.98743882   
    435500   298.25738      3247.2857           5067   0.98743882   
    435600   305.3217       3338.4616           5067   0.98743882   
    435700   300.39         3277.0244           5067   0.98743882   
    435800   298.80423      2885.9124           5067   0.98743882   
    435900   295.81503      2860.74             5067   0.98743882   
    436000   305.01917      2965.9122           5067   0.98743882   
    436100   304.59809      3258.5745           5070   0.98802345   
    436200   297.91501      3196.322            5070   0.98802345   
    436300   297.77505      2844.3818           5070   0.98802345   
    436400   305.5531       2456.5571           5070   0.98802345   
    436500   301.75732      2947.8251           5070   0.98802345   
    436600   301.34291      3357.8486           5070   0.98802345   
    436700   302.52676      3424.1095           5070   0.98802345   
    436800   299.69633      3113.4002           5070   0.98802345   
    436900   294.38766      2799.798            5070   0.98802345   
    437000   298.77912      2779.1238           5070   0.98802345   
    437100   301.60743      3056.1008           5070   0.98802345   
    437200   299.88557      3414.3217           5070   0.98802345   
    437300   304.21434      3203.071            5070   0.98802345   
    437400   292.19256      3145.3476           5070   0.98802345   
    437500   299.75624      2745.2493           5070   0.98802345   
    437600   304.68698      2662.5679           5070   0.98802345   
    437700   300.12241      3100.195            5070   0.98802345   
    437800   300.30386      3442.4249           5070   0.98802345   
    437900   304.55325      3370.6305           5070   0.98802345   
    438000   299.95592      3117.0202           5070   0.98802345   
    438100   295.52256      2617.7867           5061   0.98626956   
    438200   299.78283      2595.5812           5061   0.98626956   
    438300   307.32369      2782.52             5061   0.98626956   
    438400   296.19577      3493.0771           5061   0.98626956   
    438500   304.15375      3122.7184           5061   0.98626956   
    438600   300.4917       2895.7748           5061   0.98626956   
    438700   302.29527      2532.9022           5061   0.98626956   
    438800   297.56312      2601.0152           5061   0.98626956   
    438900   293.70646      3126.7506           5061   0.98626956   
    439000   302.59434      3307.0418           5061   0.98626956   
    439100   305.31761      3113.033            5061   0.98626956   
    439200   300.53484      2719.3079           5061   0.98626956   
    439300   294.39188      2616.1985           5061   0.98626956   
    439400   302.49005      2822.0558           5061   0.98626956   
    439500   304.35837      3290.0452           5061   0.98626956   
    439600   299.61919      3446.4656           5061   0.98626956   
    439700   300.31986      3193.7919           5061   0.98626956   
    439800   306.38699      2774.009            5061   0.98626956   
    439900   300.84611      2818.2444           5061   0.98626956   
    440000   292.9953       3195.9749           5061   0.98626956   
    440100   301.43561      3387.5447           5064   0.98685419   
    440200   303.11519      3362.8076           5064   0.98685419   
    440300   300.46161      2933.9956           5064   0.98685419   
    440400   300.7284       2512.0405           5064   0.98685419   
    440500   296.56319      2603.6138           5064   0.98685419   
    440600   293.04826      3020.5098           5064   0.98685419   
    440700   300.21192      3430.2118           5064   0.98685419   
    440800   302.66825      3282.3151           5064   0.98685419   
    440900   302.72152      2731.1258           5064   0.98685419   
    441000   299.07076      2437.823            5064   0.98685419   
    441100   299.73848      2545.3537           5064   0.98685419   
    441200   300.21665      3207.03             5064   0.98685419   
    441300   309.26352      3275.338            5064   0.98685419   
    441400   301.63977      3079.8149           5064   0.98685419   
    441500   294.88983      2801.7084           5064   0.98685419   
    441600   301.8932       2723.2258           5064   0.98685419   
    441700   304.3571       3007.9336           5064   0.98685419   
    441800   300.38509      3368.7791           5064   0.98685419   
    441900   300.85156      3216.1875           5064   0.98685419   
    442000   298.90013      2961.9042           5064   0.98685419   
    442100   303.23497      2585.5881           5070   0.98802345   
    442200   305.14896      2766.551            5070   0.98802345   
    442300   299.95296      3121.5138           5070   0.98802345   
    442400   295.70528      3429.659            5070   0.98802345   
    442500   302.74048      3201.6543           5070   0.98802345   
    442600   302.45451      2867.6559           5070   0.98802345   
    442700   300.33994      2669.8788           5070   0.98802345   
    442800   300.54563      2946.239            5070   0.98802345   
    442900   309.00824      3375.7231           5070   0.98802345   
    443000   308.99069      3482.407            5070   0.98802345   
    443100   302.69834      3059.7595           5070   0.98802345   
    443200   297.7601       2628.1509           5070   0.98802345   
    443300   298.78829      2628.0371           5070   0.98802345   
    443400   303.47073      3168.3119           5070   0.98802345   
    443500   305.35747      3503.8692           5070   0.98802345   
    443600   300.07501      3404.297            5070   0.98802345   
    443700   295.57015      3059.5451           5070   0.98802345   
    443800   303.92202      2502.0555           5070   0.98802345   
    443900   302.80108      2527.7135           5070   0.98802345   
    444000   294.99324      3008.0415           5070   0.98802345   
    444100   299.03294      3226.3829           5079   0.98977734   
    444200   304.22144      3311.8846           5079   0.98977734   
    444300   301.37573      2891.8482           5079   0.98977734   
    444400   301.33823      2457.5476           5079   0.98977734   
    444500   298.32706      2585.6429           5079   0.98977734   
    444600   295.26469      2992.2867           5079   0.98977734   
    444700   297.44215      3319.3551           5079   0.98977734   
    444800   304.47209      3172.3793           5079   0.98977734   
    444900   297.84993      2862.7112           5079   0.98977734   
    445000   299.94372      2509.728            5079   0.98977734   
    445100   301.52689      2651.997            5079   0.98977734   
    445200   297.31098      3110.2291           5079   0.98977734   
    445300   294.14608      3345.0157           5079   0.98977734   
    445400   301.8304       2975.9803           5079   0.98977734   
    445500   303.91599      2597.1619           5079   0.98977734   
    445600   300.63332      2551.9045           5079   0.98977734   
    445700   297.16709      2861.5522           5079   0.98977734   
    445800   294.2059       3157.69             5079   0.98977734   
    445900   294.15196      3303.2074           5079   0.98977734   
    446000   302.89553      2891.9647           5079   0.98977734   
    446100   302.88221      2596.8791           5079   0.98977734   
    446200   298.31578      2720.0617           5079   0.98977734   
    446300   293.06511      3332.0533           5079   0.98977734   
    446400   305.58797      3467.2339           5079   0.98977734   
    446500   304.17512      3330.9263           5079   0.98977734   
    446600   297.86156      3027.8877           5079   0.98977734   
    446700   301.04949      2677.8444           5079   0.98977734   
    446800   299.76577      2971.9345           5079   0.98977734   
    446900   301.783        3171.5491           5079   0.98977734   
    447000   296.21659      3305.3082           5079   0.98977734   
    447100   295.77687      3030.4807           5079   0.98977734   
    447200   300.99454      2777.2181           5079   0.98977734   
    447300   304.81231      2644.948            5079   0.98977734   
    447400   300.68         2958.384            5079   0.98977734   
    447500   297.49933      3295.5531           5079   0.98977734   
    447600   300.13013      3309.6782           5079   0.98977734   
    447700   307.51791      3036.3061           5079   0.98977734   
    447800   300.37701      2947.4603           5079   0.98977734   
    447900   299.23766      2806.6803           5079   0.98977734   
    448000   295.96104      3065.7272           5079   0.98977734   
    448100   297.01073      3312.4388           5082   0.99036196   
    448200   299.74943      3424.129            5082   0.99036196   
    448300   305.79113      2972.1557           5082   0.99036196   
    448400   300.08633      2677.9409           5082   0.99036196   
    448500   297.86045      2713.3653           5082   0.99036196   
    448600   297.46999      3168.2174           5082   0.99036196   
    448700   304.67252      3467.1932           5082   0.99036196   
    448800   310.00505      3260.8132           5082   0.99036196   
    448900   306.8279       2572.2937           5082   0.99036196   
    449000   298.94671      2382.2925           5082   0.99036196   
    449100   295.37121      2642.0977           5082   0.99036196   
    449200   299.52607      3232.4105           5082   0.99036196   
    449300   303.17951      3441.6467           5082   0.99036196   
    449400   300.99868      3132.1958           5082   0.99036196   
    449500   298.38267      2435.0108           5082   0.99036196   
    449600   292.2836       2394.8857           5082   0.99036196   
    449700   297.10263      2797.1778           5082   0.99036196   
    449800   298.43968      3503.4823           5082   0.99036196   
    449900   306.44673      3323.3797           5082   0.99036196   
    450000   298.86879      2937.0444           5082   0.99036196   
    450100   299.65809      2315.1926           5082   0.99036196   
    450200   295.84873      2523.2468           5082   0.99036196   
    450300   300.86688      3060.5613           5082   0.99036196   
    450400   302.73775      3508.8185           5082   0.99036196   
    450500   299.18577      3584.3921           5082   0.99036196   
    450600   301.69677      2966.3552           5082   0.99036196   
    450700   299.17133      2594.284            5082   0.99036196   
    450800   296.10843      2785.909            5082   0.99036196   
    450900   301.94969      3200.9822           5082   0.99036196   
    451000   309.38873      3350.8765           5082   0.99036196   
    451100   296.7271       3286.056            5082   0.99036196   
    451200   296.19593      2704.8359           5082   0.99036196   
    451300   303.80123      2379.1375           5082   0.99036196   
    451400   299.31764      2868.4133           5082   0.99036196   
    451500   300.65955      3070.5974           5082   0.99036196   
    451600   293.05795      3197.9013           5082   0.99036196   
    451700   299.65954      2793.3589           5082   0.99036196   
    451800   299.15537      2575.7394           5082   0.99036196   
    451900   302.71893      2502.4354           5082   0.99036196   
    452000   296.29502      3144.9894           5082   0.99036196   
    452100   301.6594       3544.5747           5079   0.98977734   
    452200   308.66467      3517.704            5079   0.98977734   
    452300   301.41468      2996.0495           5079   0.98977734   
    452400   299.9668       2540.891            5079   0.98977734   
    452500   299.07247      2618.5352           5079   0.98977734   
    452600   301.31284      3035.0543           5079   0.98977734   
    452700   303.75895      3470.9489           5079   0.98977734   
    452800   297.3534       3360.9898           5079   0.98977734   
    452900   295.39713      2778.0712           5079   0.98977734   
    453000   302.83009      2261.9978           5079   0.98977734   
    453100   300.36083      2644.2236           5079   0.98977734   
    453200   301.21459      3021.687            5079   0.98977734   
    453300   296.22886      3192.6474           5079   0.98977734   
    453400   292.94542      3146.3894           5079   0.98977734   
    453500   301.84996      2714.1143           5079   0.98977734   
    453600   302.00398      2639.6692           5079   0.98977734   
    453700   300.53993      2972.2326           5079   0.98977734   
    453800   293.90098      3511.6602           5079   0.98977734   
    453900   297.51019      3514.1945           5079   0.98977734   
    454000   305.57975      2975.3517           5079   0.98977734   
    454100   299.27607      2608.6136           5082   0.99036196   
    454200   300.143        2473.4489           5082   0.99036196   
    454300   298.49451      3026.8683           5082   0.99036196   
    454400   299.98938      3401.8303           5082   0.99036196   
    454500   303.77005      3220.4652           5082   0.99036196   
    454600   300.00814      2739.8005           5082   0.99036196   
    454700   298.41629      2192.0243           5082   0.99036196   
    454800   293.32446      2602.7992           5082   0.99036196   
    454900   300.13458      3380.9574           5082   0.99036196   
    455000   304.12532      3574.9892           5082   0.99036196   
    455100   299.64569      3123.1851           5082   0.99036196   
    455200   296.97926      2547.2562           5082   0.99036196   
    455300   299.94994      2401.7756           5082   0.99036196   
    455400   304.34772      2804.7784           5082   0.99036196   
    455500   301.77569      3379.717            5082   0.99036196   
    455600   290.06001      3683.472            5082   0.99036196   
    455700   304.39689      3045.0332           5082   0.99036196   
    455800   303.76984      2591.5883           5082   0.99036196   
    455900   299.45172      2486.8382           5082   0.99036196   
    456000   297.45706      2883.4311           5082   0.99036196   
    456100   294.11271      3554.4944           5082   0.99036196   
    456200   305.03922      3414.5638           5082   0.99036196   
    456300   301.83151      2958.8481           5082   0.99036196   
    456400   301.20551      2377.365            5082   0.99036196   
    456500   295.96272      2574.8438           5082   0.99036196   
    456600   299.28194      3019.1201           5082   0.99036196   
    456700   304.12292      3378.3688           5082   0.99036196   
    456800   296.96265      3329.0981           5082   0.99036196   
    456900   289.37951      2803.8456           5082   0.99036196   
    457000   301.20777      2326.3418           5082   0.99036196   
    457100   301.662        2748.8882           5082   0.99036196   
    457200   301.99157      3252.0114           5082   0.99036196   
    457300   295.02241      3519.381            5082   0.99036196   
    457400   299.67064      3035.2864           5082   0.99036196   
    457500   304.88008      2742.6247           5082   0.99036196   
    457600   305.21544      2508.0925           5082   0.99036196   
    457700   300.22794      2874.4552           5082   0.99036196   
    457800   298.24024      3302.6189           5082   0.99036196   
    457900   303.49216      3047.3108           5082   0.99036196   
    458000   291.86987      2877.8652           5082   0.99036196   
    458100   300.56906      2236.0273           5073   0.98860808   
    458200   303.24931      2504.6883           5073   0.98860808   
    458300   299.64839      3025.6655           5073   0.98860808   
    458400   298.27162      3550.9592           5073   0.98860808   
    458500   306.50739      3322.4335           5073   0.98860808   
    458600   304.30759      2932.6298           5073   0.98860808   
    458700   301.27686      2291.8489           5073   0.98860808   
    458800   298.58743      2518.1046           5073   0.98860808   
    458900   300.3193       3020.0654           5073   0.98860808   
    459000   301.79087      3476.0122           5073   0.98860808   
    459100   309.15377      3131.5984           5073   0.98860808   
    459200   299.52006      2635.9039           5073   0.98860808   
    459300   298.05981      2388.4823           5073   0.98860808   
    459400   297.57749      2866.1864           5073   0.98860808   
    459500   303.50009      3404.1491           5073   0.98860808   
    459600   305.72168      3423.1369           5073   0.98860808   
    459700   294.73244      3022.4598           5073   0.98860808   
    459800   298.83767      2516.8741           5073   0.98860808   
    459900   301.91087      2466.5562           5073   0.98860808   
    460000   300.50151      2984.4692           5073   0.98860808   
    460100   303.91311      3428.8844           5082   0.99036196   
    460200   302.62569      3329.9835           5082   0.99036196   
    460300   297.31422      2797.9066           5082   0.99036196   
    460400   295.60387      2486.1976           5082   0.99036196   
    460500   301.60611      2598.1531           5082   0.99036196   
    460600   302.57087      3129.1843           5082   0.99036196   
    460700   304.77202      3144.5864           5082   0.99036196   
    460800   297.17637      3140.3624           5082   0.99036196   
    460900   299.46608      2697.6191           5082   0.99036196   
    461000   303.36734      2474.1649           5082   0.99036196   
    461100   301.34031      2674.1797           5082   0.99036196   
    461200   296.6085       2934.604            5082   0.99036196   
    461300   294.67902      3227.6843           5082   0.99036196   
    461400   299.13228      3177.8975           5082   0.99036196   
    461500   301.28174      2806.3922           5082   0.99036196   
    461600   303.07411      2548.2851           5082   0.99036196   
    461700   297.40732      2826.284            5082   0.99036196   
    461800   296.3213       3382.8502           5082   0.99036196   
    461900   301.89804      3361.3813           5082   0.99036196   
    462000   300.36657      2997.6581           5082   0.99036196   
    462100   299.68799      2588.4941           5082   0.99036196   
    462200   301.60322      2476.7306           5082   0.99036196   
    462300   296.76758      3013.5709           5082   0.99036196   
    462400   295.06337      3446.276            5082   0.99036196   
    462500   304.95426      3236.6959           5082   0.99036196   
    462600   303.35371      2790.9171           5082   0.99036196   
    462700   301.34858      2308.9655           5082   0.99036196   
    462800   295.70532      2696.2505           5082   0.99036196   
    462900   297.56633      3185.9548           5082   0.99036196   
    463000   302.69251      3319.3019           5082   0.99036196   
    463100   299.40681      3259.8051           5082   0.99036196   
    463200   301.84341      2619.9827           5082   0.99036196   
    463300   295.60125      2622.6272           5082   0.99036196   
    463400   294.50396      2798.7084           5082   0.99036196   
    463500   302.42202      3073.2642           5082   0.99036196   
    463600   305.79752      3161.8829           5082   0.99036196   
    463700   293.24425      3160.1698           5082   0.99036196   
    463800   302.97053      2552.6429           5082   0.99036196   
    463900   302.99442      2634.0262           5082   0.99036196   
    464000   303.91048      2927.2063           5082   0.99036196   
    464100   298.84165      3230.9171           5079   0.98977734   
    464200   294.57933      3219.2392           5079   0.98977734   
    464300   302.72609      2764.1857           5079   0.98977734   
    464400   302.72259      2514.0558           5079   0.98977734   
    464500   297.90524      2706.3195           5079   0.98977734   
    464600   299.63817      3059.6596           5079   0.98977734   
    464700   308.70966      3404.688            5079   0.98977734   
    464800   303.60513      3321.7205           5079   0.98977734   
    464900   298.89825      2849.6445           5079   0.98977734   
    465000   301.63874      2352.3644           5079   0.98977734   
    465100   297.45893      2514.9029           5079   0.98977734   
    465200   299.24818      2819.53             5079   0.98977734   
    465300   303.41144      3279.733            5079   0.98977734   
    465400   304.446        3161.4881           5079   0.98977734   
    465500   298.24013      2695.3544           5079   0.98977734   
    465600   296.8068       2377.63             5079   0.98977734   
    465700   298.26057      2723.3543           5079   0.98977734   
    465800   301.79539      3166.8143           5079   0.98977734   
    465900   304.20088      3142.5442           5079   0.98977734   
    466000   294.91185      2953.8269           5079   0.98977734   
    466100   295.65226      2558.1873           5088   0.99153122   
    466200   303.07218      2313.6727           5088   0.99153122   
    466300   298.77758      2914.1396           5088   0.99153122   
    466400   299.94637      3259.2713           5088   0.99153122   
    466500   300.6136       3277.6364           5088   0.99153122   
    466600   299.59654      2921.2829           5088   0.99153122   
    466700   303.73092      2566.8618           5088   0.99153122   
    466800   300.98549      2638.9734           5088   0.99153122   
    466900   293.81676      3130.0362           5088   0.99153122   
    467000   299.27234      3393.7075           5088   0.99153122   
    467100   301.50533      3236.5486           5088   0.99153122   
    467200   301.55439      2650.7984           5088   0.99153122   
    467300   300.85006      2395.0992           5088   0.99153122   
    467400   301.60271      2582.5979           5088   0.99153122   
    467500   295.50775      3206.1267           5088   0.99153122   
    467600   296.88865      3463.0568           5088   0.99153122   
    467700   304.95548      3078.9859           5088   0.99153122   
    467800   301.82886      2561.8401           5088   0.99153122   
    467900   293.83536      2682.4442           5088   0.99153122   
    468000   302.64985      2878.7762           5088   0.99153122   
    468100   299.3613       3512.1667           5076   0.98919271   
    468200   302.46553      3481.8299           5076   0.98919271   
    468300   306.00389      3080.2602           5076   0.98919271   
    468400   302.29586      2797.7424           5076   0.98919271   
    468500   301.64166      2569.3804           5076   0.98919271   
    468600   294.98415      3192.8927           5076   0.98919271   
    468700   302.02321      3491.9028           5076   0.98919271   
    468800   302.02424      3412.227            5076   0.98919271   
    468900   303.77739      2666.9545           5076   0.98919271   
    469000   298.64622      2459.8315           5076   0.98919271   
    469100   300.21024      2704.2556           5076   0.98919271   
    469200   302.75967      3198.5396           5076   0.98919271   
    469300   299.02739      3471.6075           5076   0.98919271   
    469400   294.52258      3120.9694           5076   0.98919271   
    469500   302.45296      2437.7692           5076   0.98919271   
    469600   303.96039      2392.6835           5076   0.98919271   
    469700   298.4527       2959.2048           5076   0.98919271   
    469800   303.75384      3179.8464           5076   0.98919271   
    469900   300.30716      3296.7428           5076   0.98919271   
    470000   295.19994      3107.9495           5076   0.98919271   
    470100   300.81555      2469.587            5076   0.98919271   
    470200   301.93978      2292.9785           5076   0.98919271   
    470300   296.43024      2886.01             5076   0.98919271   
    470400   301.14599      3391.8215           5076   0.98919271   
    470500   306.66847      3484.1645           5076   0.98919271   
    470600   304.18304      2864.8186           5076   0.98919271   
    470700   298.45447      2496.7857           5076   0.98919271   
    470800   300.52685      2511.9963           5076   0.98919271   
    470900   302.95534      3005.9823           5076   0.98919271   
    471000   304.55455      3560.0994           5076   0.98919271   
    471100   304.85743      3532.8752           5076   0.98919271   
    471200   303.87418      2804.8987           5076   0.98919271   
    471300   299.33964      2329.9869           5076   0.98919271   
    471400   295.654        2685.3839           5076   0.98919271   
    471500   301.28335      3257.4244           5076   0.98919271   
    471600   302.43483      3623.3079           5076   0.98919271   
    471700   303.20934      3337.7834           5076   0.98919271   
    471800   302.35545      2658.6649           5076   0.98919271   
    471900   301.86205      2249.4887           5076   0.98919271   
    472000   299.66346      2590.0261           5076   0.98919271   
    472100   299.68413      3129.3508           5073   0.98860808   
    472200   303.79876      3481.7042           5073   0.98860808   
    472300   303.54982      3253.7497           5073   0.98860808   
    472400   299.89262      2850.6349           5073   0.98860808   
    472500   300.18771      2685.4313           5073   0.98860808   
    472600   301.47431      3005.3551           5073   0.98860808   
    472700   304.68392      3197.1043           5073   0.98860808   
    472800   295.14957      3371.538            5073   0.98860808   
    472900   300.57393      2822.8463           5073   0.98860808   
    473000   298.7112       2611.1061           5073   0.98860808   
    473100   303.46338      2700.191            5073   0.98860808   
    473200   304.36286      3202.3897           5073   0.98860808   
    473300   299.24715      3399.7252           5073   0.98860808   
    473400   296.55363      3202.7853           5073   0.98860808   
    473500   298.54331      2823.1185           5073   0.98860808   
    473600   303.03052      2579.6003           5073   0.98860808   
    473700   304.48822      2628.8483           5073   0.98860808   
    473800   301.39216      2972.3199           5073   0.98860808   
    473900   299.04321      3221.9809           5073   0.98860808   
    474000   299.64664      3084.9685           5073   0.98860808   
    474100   299.80671      2800.9328           5073   0.98860808   
    474200   306.00594      2753.8473           5073   0.98860808   
    474300   305.62745      2977.1903           5073   0.98860808   
    474400   298.8305       3472.9474           5073   0.98860808   
    474500   296.52766      3614.2004           5073   0.98860808   
    474600   302.11405      3062.6558           5073   0.98860808   
    474700   304.68562      2700.8378           5073   0.98860808   
    474800   305.95989      2564.52             5073   0.98860808   
    474900   294.79119      3058.8658           5073   0.98860808   
    475000   299.5481       3358.8021           5073   0.98860808   
    475100   305.47841      3302.73             5073   0.98860808   
    475200   302.75584      2819.9211           5073   0.98860808   
    475300   296.90398      2562.2608           5073   0.98860808   
    475400   301.81675      2528.3152           5073   0.98860808   
    475500   299.14628      3168.0109           5073   0.98860808   
    475600   303.50154      3448.2026           5073   0.98860808   
    475700   306.20521      3288.6899           5073   0.98860808   
    475800   298.03656      2756.5957           5073   0.98860808   
    475900   295.53011      2475.3923           5073   0.98860808   
    476000   300.30389      2707.3458           5073   0.98860808   
    476100   305.82188      3011.2278           5073   0.98860808   
    476200   299.47036      3362.1693           5073   0.98860808   
    476300   298.52507      3164.3593           5073   0.98860808   
    476400   300.30659      2743.2222           5073   0.98860808   
    476500   312.13918      2446.575            5073   0.98860808   
    476600   305.0766       2820.6906           5073   0.98860808   
    476700   299.24528      3257.78             5073   0.98860808   
    476800   297.60153      3448.8107           5073   0.98860808   
    476900   298.28608      3193.4589           5073   0.98860808   
    477000   307.72048      2548.9453           5073   0.98860808   
    477100   302.90025      2472.7874           5073   0.98860808   
    477200   299.33665      2847.5413           5073   0.98860808   
    477300   299.06814      3274.251            5073   0.98860808   
    477400   302.18488      3254.6112           5073   0.98860808   
    477500   304.28105      2853.0146           5073   0.98860808   
    477600   304.05114      2359.2545           5073   0.98860808   
    477700   294.81904      2552.2724           5073   0.98860808   
    477800   296.783        3162.2962           5073   0.98860808   
    477900   304.09125      3400.4306           5073   0.98860808   
    478000   298.84862      3392.8335           5073   0.98860808   
    478100   301.50617      2803.3628           5073   0.98860808   
    478200   302.171        2538.5277           5073   0.98860808   
    478300   299.48751      2791.2272           5073   0.98860808   
    478400   299.89321      3066.3699           5073   0.98860808   
    478500   295.60427      3292.5099           5073   0.98860808   
    478600   301.73932      2971.5178           5073   0.98860808   
    478700   304.33838      2615.902            5073   0.98860808   
    478800   300.13441      2664.7279           5073   0.98860808   
    478900   298.7423       3022.3099           5073   0.98860808   
    479000   300.63813      3306.5905           5073   0.98860808   
    479100   302.77499      3232.9849           5073   0.98860808   
    479200   299.5032       2727.55             5073   0.98860808   
    479300   297.01289      2331.4108           5073   0.98860808   
    479400   301.48218      2408.0437           5073   0.98860808   
    479500   306.81634      2919.6223           5073   0.98860808   
    479600   299.4186       3514.9778           5073   0.98860808   
    479700   294.05636      3224.98             5073   0.98860808   
    479800   298.33109      2720.3857           5073   0.98860808   
    479900   302.02433      2479.9604           5073   0.98860808   
    480000   302.40143      2679.9236           5073   0.98860808   
    480100   296.70912      3259.5867           5076   0.98919271   
    480200   298.55053      3614.5479           5076   0.98919271   
    480300   306.19846      3401.1127           5076   0.98919271   
    480400   304.11689      2805.7192           5076   0.98919271   
    480500   299.74756      2556.6686           5076   0.98919271   
    480600   300.85397      2733.6102           5076   0.98919271   
    480700   298.32045      3335.7088           5076   0.98919271   
    480800   304.87701      3393.518            5076   0.98919271   
    480900   308.24766      3103.1917           5076   0.98919271   
    481000   301.26396      2537.549            5076   0.98919271   
    481100   295.92222      2555.7383           5076   0.98919271   
    481200   299.66379      3032.1394           5076   0.98919271   
    481300   307.3249       3342.9273           5076   0.98919271   
    481400   301.02289      3324.9326           5076   0.98919271   
    481500   297.65428      2871.2935           5076   0.98919271   
    481600   302.03967      2286.2946           5076   0.98919271   
    481700   301.32308      2300.1464           5076   0.98919271   
    481800   294.55057      2879.3036           5076   0.98919271   
    481900   292.78543      3313.928            5076   0.98919271   
    482000   303.47334      3213.0979           5076   0.98919271   
    482100   302.06665      2778.4461           5079   0.98977734   
    482200   299.20663      2419.3028           5079   0.98977734   
    482300   296.29407      2597.4873           5079   0.98977734   
    482400   294.13288      3208.675            5079   0.98977734   
    482500   304.80132      3491.0471           5079   0.98977734   
    482600   303.51509      3170.2138           5079   0.98977734   
    482700   296.74211      2640.7254           5079   0.98977734   
    482800   296.28458      2565.46             5079   0.98977734   
    482900   307.56651      2737.1929           5079   0.98977734   
    483000   303.96858      3254.5297           5079   0.98977734   
    483100   297.03977      3628.9394           5079   0.98977734   
    483200   303.65798      2900.9225           5079   0.98977734   
    483300   298.32881      2390.0123           5079   0.98977734   
    483400   291.46938      2586.3716           5079   0.98977734   
    483500   303.1942       2910.7577           5079   0.98977734   
    483600   303.33671      3354.5926           5079   0.98977734   
    483700   298.50983      3353.1885           5079   0.98977734   
    483800   297.82         2760.7404           5079   0.98977734   
    483900   304.32437      2349.9023           5079   0.98977734   
    484000   304.80589      2656.3596           5079   0.98977734   
    484100   301.67323      3026.5336           5073   0.98860808   
    484200   295.16496      3335.2599           5073   0.98860808   
    484300   296.6201       3192.1111           5073   0.98860808   
    484400   303.68391      2532.3283           5073   0.98860808   
    484500   300.21707      2452.1714           5073   0.98860808   
    484600   297.70339      2797.7964           5073   0.98860808   
    484700   302.37447      3351.6613           5073   0.98860808   
    484800   304.31383      3753.2886           5073   0.98860808   
    484900   305.25145      3152.4558           5073   0.98860808   
    485000   294.71933      2635.8733           5073   0.98860808   
    485100   301.28417      2429.9178           5073   0.98860808   
    485200   301.12171      2929.1107           5073   0.98860808   
    485300   297.46669      3517.4156           5073   0.98860808   
    485400   300.03177      3409.8304           5073   0.98860808   
    485500   302.79972      2964.539            5073   0.98860808   
    485600   305.18545      2426.5459           5073   0.98860808   
    485700   298.44518      2438.1383           5073   0.98860808   
    485800   300.86418      2741.881            5073   0.98860808   
    485900   295.62915      3361.8527           5073   0.98860808   
    486000   304.00889      3420.1206           5073   0.98860808   
    486100   308.70735      2620.6684           5067   0.98743882   
    486200   297.44482      2377.3516           5067   0.98743882   
    486300   301.96671      2338.602            5067   0.98743882   
    486400   293.88734      3328.199            5067   0.98743882   
    486500   307.57302      3457.8035           5067   0.98743882   
    486600   304.15947      3155.8989           5067   0.98743882   
    486700   298.69079      2436.912            5067   0.98743882   
    486800   299.56433      2168.4135           5067   0.98743882   
    486900   299.69317      2860.1674           5067   0.98743882   
    487000   306.00814      3458.6298           5067   0.98743882   
    487100   302.51959      3601.6969           5067   0.98743882   
    487200   297.30386      3231.5691           5067   0.98743882   
    487300   304.15134      2403.8645           5067   0.98743882   
    487400   303.0246       2339.2858           5067   0.98743882   
    487500   294.02033      2973.4078           5067   0.98743882   
    487600   297.29718      3511.6818           5067   0.98743882   
    487700   303.13692      3478.0921           5067   0.98743882   
    487800   302.45108      2801.9226           5067   0.98743882   
    487900   298.15929      2356.9779           5067   0.98743882   
    488000   296.54161      2778.4044           5067   0.98743882   
    488100   306.38578      3333.3097           5064   0.98685419   
    488200   307.03539      3368.1106           5064   0.98685419   
    488300   296.84773      3183.5884           5064   0.98685419   
    488400   300.66192      2405.5394           5064   0.98685419   
    488500   304.76903      2039.0662           5064   0.98685419   
    488600   299.86166      2650.4819           5064   0.98685419   
    488700   295.78137      3229.7595           5064   0.98685419   
    488800   299.77126      3396.5812           5064   0.98685419   
    488900   303.59572      3127.7857           5064   0.98685419   
    489000   303.86097      2450.7852           5064   0.98685419   
    489100   301.34344      2165.9413           5064   0.98685419   
    489200   294.75485      2906.8013           5064   0.98685419   
    489300   300.81787      3494.1911           5064   0.98685419   
    489400   303.40185      3539.5425           5064   0.98685419   
    489500   299.41841      2991.2208           5064   0.98685419   
    489600   298.92277      2440.2426           5064   0.98685419   
    489700   308.7847       2431.6363           5064   0.98685419   
    489800   308.34456      2954.7663           5064   0.98685419   
    489900   299.47678      3676.7341           5064   0.98685419   
    490000   300.91884      3338.973            5064   0.98685419   
    490100   297.98037      2656.331            5064   0.98685419   
    490200   307.35926      2145.2119           5064   0.98685419   
    490300   304.11033      2436.7883           5064   0.98685419   
    490400   299.11201      3229.5646           5064   0.98685419   
    490500   303.36321      3423.1169           5064   0.98685419   
    490600   297.30161      3265.0005           5064   0.98685419   
    490700   301.39786      2455.1428           5064   0.98685419   
    490800   306.45945      2330.1828           5064   0.98685419   
    490900   304.36563      2717.3197           5064   0.98685419   
    491000   300.65748      3346.0127           5064   0.98685419   
    491100   300.03558      3538.042            5064   0.98685419   
    491200   302.15239      2955.3124           5064   0.98685419   
    491300   302.27632      2322.986            5064   0.98685419   
    491400   302.75619      2268.275            5064   0.98685419   
    491500   301.39931      2912.1778           5064   0.98685419   
    491600   299.16145      3627.4337           5064   0.98685419   
    491700   302.92624      3599.6378           5064   0.98685419   
    491800   303.33019      3011.5203           5064   0.98685419   
    491900   298.49563      2419.1952           5064   0.98685419   
    492000   300.19256      2479.9861           5064   0.98685419   
    492100   305.40452      3167.2112           5061   0.98626956   
    492200   304.82428      3715.7404           5061   0.98626956   
    492300   300.6849       3244.9029           5061   0.98626956   
    492400   297.35537      2491.7242           5061   0.98626956   
    492500   301.04227      2059.7316           5061   0.98626956   
    492600   301.81867      2500.3183           5061   0.98626956   
    492700   307.60786      3173.6131           5061   0.98626956   
    492800   297.2001       3761.6142           5061   0.98626956   
    492900   295.96698      3280.2952           5061   0.98626956   
    493000   303.28248      2470.6461           5061   0.98626956   
    493100   303.89037      2235.1379           5061   0.98626956   
    493200   298.92104      2772.5784           5061   0.98626956   
    493300   294.52658      3483.2945           5061   0.98626956   
    493400   299.61621      3598.2927           5061   0.98626956   
    493500   305.74402      3072.5531           5061   0.98626956   
    493600   298.81901      2606.1692           5061   0.98626956   
    493700   301.58377      2339.6343           5061   0.98626956   
    493800   297.03224      2833.1538           5061   0.98626956   
    493900   294.03355      3628.2266           5061   0.98626956   
    494000   305.32095      3419.4819           5061   0.98626956   
    494100   302.26611      2721.1793           5055   0.9851003    
    494200   299.95799      2111.2803           5055   0.9851003    
    494300   298.63699      2332.4722           5055   0.9851003    
    494400   306.94329      3182.2646           5055   0.9851003    
    494500   305.14195      3725.1236           5055   0.9851003    
    494600   298.47812      3495.9462           5055   0.9851003    
    494700   300.82558      2705.9991           5055   0.9851003    
    494800   305.38054      2099.868            5055   0.9851003    
    494900   297.05206      2378.0083           5055   0.9851003    
    495000   292.83526      3220.4771           5055   0.9851003    
    495100   299.79801      3519.8848           5055   0.9851003    
    495200   302.25775      3164.4294           5055   0.9851003    
    495300   304.77857      2469.1651           5055   0.9851003    
    495400   298.27665      2373.6787           5055   0.9851003    
    495500   298.66305      2724.5545           5055   0.9851003    
    495600   294.6687       3518.9735           5055   0.9851003    
    495700   300.96052      3668.5168           5055   0.9851003    
    495800   307.2615       2868.5904           5055   0.9851003    
    495900   303.07542      2121.8256           5055   0.9851003    
    496000   295.55034      2366.7727           5055   0.9851003    
    496100   300.96182      2960.7375           5052   0.98451567   
    496200   307.12593      3302.6105           5052   0.98451567   
    496300   299.51013      3303.6476           5052   0.98451567   
    496400   299.2937       2565.2821           5052   0.98451567   
    496500   303.24976      2082.6056           5052   0.98451567   
    496600   302.99615      2424.0664           5052   0.98451567   
    496700   303.58842      3157.7496           5052   0.98451567   
    496800   303.36725      3526.0999           5052   0.98451567   
    496900   298.61038      3211.2699           5052   0.98451567   
    497000   298.9288       2657.4031           5052   0.98451567   
    497100   306.439        2472.3704           5052   0.98451567   
    497200   303.6931       2914.0468           5052   0.98451567   
    497300   304.62132      3377.8478           5052   0.98451567   
    497400   296.88566      3794.984            5052   0.98451567   
    497500   301.76983      3109.2723           5052   0.98451567   
    497600   304.51678      2258.0008           5052   0.98451567   
    497700   300.82702      2183.2334           5052   0.98451567   
    497800   297.50566      2989.4738           5052   0.98451567   
    497900   304.07469      3425.7345           5052   0.98451567   
    498000   302.93589      3366.2313           5052   0.98451567   
    498100   298.89528      2614.7886           5058   0.98568493   
    498200   299.1864       2160.8646           5058   0.98568493   
    498300   303.8776       2624.3049           5058   0.98568493   
    498400   306.74198      3253.7159           5058   0.98568493   
    498500   299.53503      3666.7754           5058   0.98568493   
    498600   297.42281      3476.0643           5058   0.98568493   
    498700   305.34261      2502.8778           5058   0.98568493   
    498800   298.912        2362.9939           5058   0.98568493   
    498900   298.05674      2668.6362           5058   0.98568493   
    499000   307.43347      3374.0389           5058   0.98568493   
    499100   302.61601      3837.2326           5058   0.98568493   
    499200   302.10524      3136.771            5058   0.98568493   
    499300   297.5424       2467.7989           5058   0.98568493   
    499400   301.6131       2399.5367           5058   0.98568493   
    499500   309.40769      2679.0534           5058   0.98568493   
    499600   301.46239      3496.1355           5058   0.98568493   
    499700   301.28235      3426.9271           5058   0.98568493   
    499800   298.21293      2878.1323           5058   0.98568493   
    499900   301.54739      2400.4424           5058   0.98568493   
    500000   307.60116      2478.8839           5058   0.98568493   
    500100   300.64574      3212.3136           5058   0.98568493   
    500200   297.73946      3615.0663           5058   0.98568493   
    500300   294.54453      3195.9847           5058   0.98568493   
    500400   292.93772      2701.4633           5058   0.98568493   
    500500   303.39642      2344.7173           5058   0.98568493   
    500600   301.23913      2684.2525           5058   0.98568493   
    500700   301.0815       3220.5544           5058   0.98568493   
    500800   296.35652      3667.058            5058   0.98568493   
    500900   302.94304      3038.9024           5058   0.98568493   
    501000   302.99147      2632.5968           5058   0.98568493   
    501100   307.21877      2283.6039           5058   0.98568493   
    501200   295.72414      2676.4278           5058   0.98568493   
    501300   298.36762      3284.9291           5058   0.98568493   
    501400   301.22704      3493.6118           5058   0.98568493   
    501500   307.40236      2811.4332           5058   0.98568493   
    501600   297.01512      2493.8097           5058   0.98568493   
    501700   299.60326      2361.114            5058   0.98568493   
    501800   303.98182      2702.3632           5058   0.98568493   
    501900   298.61006      3436.7349           5058   0.98568493   
    502000   304.27597      3232.8336           5058   0.98568493   
    502100   307.54615      2557.0843           5055   0.9851003    
    502200   296.20483      2380.6371           5055   0.9851003    
    502300   296.7495       2602.3791           5055   0.9851003    
    502400   304.83375      3069.0897           5055   0.9851003    
    502500   305.01103      3362.6467           5055   0.9851003    
    502600   300.44411      3075.2898           5055   0.9851003    
    502700   299.21793      2523.4873           5055   0.9851003    
    502800   302.57335      2173.2148           5055   0.9851003    
    502900   301.5951       2643.3754           5055   0.9851003    
    503000   301.36493      3406.6441           5055   0.9851003    
    503100   300.14016      3759.4478           5055   0.9851003    
    503200   304.40546      3301.1767           5055   0.9851003    
    503300   307.97816      2630.1182           5055   0.9851003    
    503400   297.73799      2577.8062           5055   0.9851003    
    503500   299.69744      2849.2379           5055   0.9851003    
    503600   300.34797      3455.9145           5055   0.9851003    
    503700   306.72967      3448.639            5055   0.9851003    
    503800   304.07418      3123.2918           5055   0.9851003    
    503900   299.66973      2423.9344           5055   0.9851003    
    504000   295.49159      2427.9921           5055   0.9851003    
    504100   300.88001      3000.7095           5058   0.98568493   
    504200   302.06588      3664.8662           5058   0.98568493   
    504300   302.71222      3485.6379           5058   0.98568493   
    504400   302.76827      2780.8559           5058   0.98568493   
    504500   296.23599      2479.7744           5058   0.98568493   
    504600   297.0298       2705.2373           5058   0.98568493   
    504700   307.31988      3248.1758           5058   0.98568493   
    504800   300.75475      3778.5088           5058   0.98568493   
    504900   299.99806      3149.029            5058   0.98568493   
    505000   296.42758      2484.9475           5058   0.98568493   
    505100   305.47427      2106.1076           5058   0.98568493   
    505200   308.16858      2819.2356           5058   0.98568493   
    505300   303.65951      3518.3861           5058   0.98568493   
    505400   298.94029      3316.6157           5058   0.98568493   
    505500   300.94374      2801.7661           5058   0.98568493   
    505600   305.21247      2145.1982           5058   0.98568493   
    505700   296.59757      2197.0539           5058   0.98568493   
    505800   294.86992      2875.1322           5058   0.98568493   
    505900   306.8766       3461.0131           5058   0.98568493   
    506000   301.07359      3588.859            5058   0.98568493   
    506100   298.04121      3030.7944           5055   0.9851003    
    506200   301.46517      2537.3463           5055   0.9851003    
    506300   307.77121      2562.8628           5055   0.9851003    
    506400   301.28969      3255.8722           5055   0.9851003    
    506500   297.16819      3546.6199           5055   0.9851003    
    506600   300.48171      3249.4826           5055   0.9851003    
    506700   302.34525      2681.8397           5055   0.9851003    
    506800   306.37108      2286.1264           5055   0.9851003    
    506900   301.62176      2582.9189           5055   0.9851003    
    507000   295.01129      3163.6139           5055   0.9851003    
    507100   301.3394       3415.9538           5055   0.9851003    
    507200   303.71785      3122.9727           5055   0.9851003    
    507300   302.69216      2533.3333           5055   0.9851003    
    507400   297.78962      2276.4846           5055   0.9851003    
    507500   294.72608      2692.6025           5055   0.9851003    
    507600   304.08813      3324.6215           5055   0.9851003    
    507700   303.27319      3542.9842           5055   0.9851003    
    507800   304.30353      2887.5202           5055   0.9851003    
    507900   299.04038      2367.9537           5055   0.9851003    
    508000   299.23483      2313.4749           5055   0.9851003    
    508100   305.28852      2699.5131           5061   0.98626956   
    508200   308.10323      3362.6023           5061   0.98626956   
    508300   300.98893      3408.701            5061   0.98626956   
    508400   298.16399      2794.7673           5061   0.98626956   
    508500   298.77286      2342.6139           5061   0.98626956   
    508600   299.86612      2619.5662           5061   0.98626956   
    508700   303.34569      3149.0311           5061   0.98626956   
    508800   300.55262      3578.665            5061   0.98626956   
    508900   298.00858      3343.6657           5061   0.98626956   
    509000   305.49905      2512.6112           5061   0.98626956   
    509100   301.3632       2381.8102           5061   0.98626956   
    509200   299.228        2736.2844           5061   0.98626956   
    509300   304.27131      3345.827            5061   0.98626956   
    509400   304.79976      3523.2991           5061   0.98626956   
    509500   298.02979      3089.5774           5061   0.98626956   
    509600   297.5597       2455.2886           5061   0.98626956   
    509700   301.3873       2409.3518           5061   0.98626956   
    509800   308.06564      2985.0538           5061   0.98626956   
    509900   305.04679      3521.5672           5061   0.98626956   
    510000   302.61991      3528.5188           5061   0.98626956   
    510100   297.9742       3010.9019           5061   0.98626956   
    510200   299.70525      2429.505            5061   0.98626956   
    510300   304.50401      2646.5513           5061   0.98626956   
    510400   306.30515      3182.0022           5061   0.98626956   
    510500   300.7237       3517.6448           5061   0.98626956   
    510600   299.98661      3281.7959           5061   0.98626956   
    510700   300.99915      2779.2908           5061   0.98626956   
    510800   305.34024      2316.8206           5061   0.98626956   
    510900   304.86947      2400.9938           5061   0.98626956   
    511000   298.03513      2910.8785           5061   0.98626956   
    511100   295.45537      3528.5923           5061   0.98626956   
    511200   301.93152      3255.5219           5061   0.98626956   
    511300   307.95751      2492.2337           5061   0.98626956   
    511400   299.44499      2208.9802           5061   0.98626956   
    511500   300.27651      2577.4549           5061   0.98626956   
    511600   299.42929      3401.8586           5061   0.98626956   
    511700   304.36891      3597.6712           5061   0.98626956   
    511800   305.81765      2815.282            5061   0.98626956   
    511900   292.55531      2495.8339           5061   0.98626956   
    512000   299.61625      2467.7052           5061   0.98626956   
    512100   306.99053      2954.5775           5061   0.98626956   
    512200   301.91138      3540.8618           5061   0.98626956   
    512300   296.08851      3492.9463           5061   0.98626956   
    512400   306.77994      2728.1294           5061   0.98626956   
    512500   303.21273      2330.6392           5061   0.98626956   
    512600   292.61047      2479.1825           5061   0.98626956   
    512700   301.59869      2885.8612           5061   0.98626956   
    512800   302.22916      3356.3308           5061   0.98626956   
    512900   300.72092      3157.2987           5061   0.98626956   
    513000   299.76277      2648.5271           5061   0.98626956   
    513100   303.77273      2249.2086           5061   0.98626956   
    513200   305.47141      2677.8093           5061   0.98626956   
    513300   305.11141      3010.519            5061   0.98626956   
    513400   296.14244      3361.4259           5061   0.98626956   
    513500   300.59986      2923.1451           5061   0.98626956   
    513600   301.30612      2545.219            5061   0.98626956   
    513700   309.02453      2307.1119           5061   0.98626956   
    513800   306.16263      2696.5421           5061   0.98626956   
    513900   298.92113      3125.6875           5061   0.98626956   
    514000   298.16772      3263.7893           5061   0.98626956   
    514100   304.21548      2820.2999           5061   0.98626956   
    514200   300.50308      2622.6009           5061   0.98626956   
    514300   302.37156      2536.8425           5061   0.98626956   
    514400   302.64493      2986.3868           5061   0.98626956   
    514500   294.93976      3433.055            5061   0.98626956   
    514600   296.2409       3459.6095           5061   0.98626956   
    514700   304.12364      2808.3092           5061   0.98626956   
    514800   301.66912      2391.6005           5061   0.98626956   
    514900   299.04099      2562.1456           5061   0.98626956   
    515000   298.90646      3164.7149           5061   0.98626956   
    515100   306.24597      3558.4798           5061   0.98626956   
    515200   304.38085      3436.7949           5061   0.98626956   
    515300   298.90375      2883.8013           5061   0.98626956   
    515400   298.45341      2585.8427           5061   0.98626956   
    515500   304.78979      3049.3453           5061   0.98626956   
    515600   309.93692      3492.5808           5061   0.98626956   
    515700   304.36521      3441.7035           5061   0.98626956   
    515800   298.18103      3024.1377           5061   0.98626956   
    515900   300.37975      2400.8232           5061   0.98626956   
    516000   304.84823      2243.5829           5061   0.98626956   
    516100   300.94098      2830.9428           5064   0.98685419   
    516200   293.21572      3413.505            5064   0.98685419   
    516300   300.19471      3499.077            5064   0.98685419   
    516400   301.45695      3138.8373           5064   0.98685419   
    516500   302.91269      2464.4844           5064   0.98685419   
    516600   300.09707      2402.8475           5064   0.98685419   
    516700   297.05062      2922.5355           5064   0.98685419   
    516800   299.83571      3473.3063           5064   0.98685419   
    516900   310.02943      3298.3952           5064   0.98685419   
    517000   304.37618      2613.5827           5064   0.98685419   
    517100   295.70423      2385.5939           5064   0.98685419   
    517200   301.59775      2582.4809           5064   0.98685419   
    517300   301.66923      3364.9039           5064   0.98685419   
    517400   304.62218      3619.6951           5064   0.98685419   
    517500   301.10769      3081.4303           5064   0.98685419   
    517600   294.85086      2535.2433           5064   0.98685419   
    517700   300.29469      2273.1393           5064   0.98685419   
    517800   303.83225      2742.7561           5064   0.98685419   
    517900   304.99751      3094.6278           5064   0.98685419   
    518000   295.28523      3392.6669           5064   0.98685419   
    518100   297.35112      3093.2453           5064   0.98685419   
    518200   303.19807      2452.4719           5064   0.98685419   
    518300   300.34012      2439.5885           5064   0.98685419   
    518400   301.17681      2847.3171           5064   0.98685419   
    518500   297.75726      3312.4041           5064   0.98685419   
    518600   294.97827      3295.8407           5064   0.98685419   
    518700   303.74029      2758.3066           5064   0.98685419   
    518800   301.27982      2463.6587           5064   0.98685419   
    518900   306.33316      2271.4402           5064   0.98685419   
    519000   299.24708      3019.7555           5064   0.98685419   
    519100   296.20736      3639.0474           5064   0.98685419   
    519200   304.53789      3313.4539           5064   0.98685419   
    519300   303.39974      2703.7174           5064   0.98685419   
    519400   302.00795      2175.3842           5064   0.98685419   
    519500   295.68709      2719.9028           5064   0.98685419   
    519600   304.21515      3129.9339           5064   0.98685419   
    519700   299.18512      3643.9517           5064   0.98685419   
    519800   298.76216      3459.8569           5064   0.98685419   
    519900   306.22707      2618.8158           5064   0.98685419   
    520000   302.5342       2254.8897           5064   0.98685419   
    520100   295.41171      2837.1842           5064   0.98685419   
    520200   300.01091      3459.834            5064   0.98685419   
    520300   305.98796      3416.3928           5064   0.98685419   
    520400   301.68321      2860.3914           5064   0.98685419   
    520500   295.82709      2368.0425           5064   0.98685419   
    520600   300.95461      2302.3754           5064   0.98685419   
    520700   303.22874      2798.0194           5064   0.98685419   
    520800   300.73079      3328.98             5064   0.98685419   
    520900   297.8961       3422.9489           5064   0.98685419   
    521000   308.23212      2889.751            5064   0.98685419   
    521100   304.37347      2470.434            5064   0.98685419   
    521200   304.54635      2325.9054           5064   0.98685419   
    521300   295.5904       3156.8233           5064   0.98685419   
    521400   299.48275      3509.0845           5064   0.98685419   
    521500   306.02142      3120.4177           5064   0.98685419   
    521600   303.92211      2503.6397           5064   0.98685419   
    521700   298.91559      2338.9377           5064   0.98685419   
    521800   301.31775      2635.1306           5064   0.98685419   
    521900   301.30664      3190.079            5064   0.98685419   
    522000   297.11571      3344.7366           5064   0.98685419   
    522100   297.13133      2817.3384           5067   0.98743882   
    522200   304.51344      2263.4373           5067   0.98743882   
    522300   305.96496      2103.4903           5067   0.98743882   
    522400   299.22252      2686.2367           5067   0.98743882   
    522500   296.08193      3369.7485           5067   0.98743882   
    522600   299.62261      3456.8085           5067   0.98743882   
    522700   304.28988      2858.6388           5067   0.98743882   
    522800   303.68427      2234.7937           5067   0.98743882   
    522900   296.5425       2518.3876           5067   0.98743882   
    523000   299.6471       3128.8661           5067   0.98743882   
    523100   302.95855      3482.6184           5067   0.98743882   
    523200   302.96765      3209.1364           5067   0.98743882   
    523300   301.31292      2606.4265           5067   0.98743882   
    523400   298.67959      2277.2529           5067   0.98743882   
    523500   296.40274      2746.6861           5067   0.98743882   
    523600   308.93593      3229.5667           5067   0.98743882   
    523700   305.00545      3401.7777           5067   0.98743882   
    523800   298.6829       3023.834            5067   0.98743882   
    523900   302.00339      2317.5281           5067   0.98743882   
    524000   300.37951      2307.8398           5067   0.98743882   
    524100   307.80556      2714.8139           5067   0.98743882   
    524200   302.17315      3354.0874           5067   0.98743882   
    524300   296.49592      3326.4296           5067   0.98743882   
    524400   299.37343      2803.1104           5067   0.98743882   
    524500   304.71952      2307.6898           5067   0.98743882   
    524600   305.91999      2299.6567           5067   0.98743882   
    524700   301.8004       2868.3363           5067   0.98743882   
    524800   298.80673      3362.6021           5067   0.98743882   
    524900   300.00261      3229.251            5067   0.98743882   
    525000   303.09355      2832.0428           5067   0.98743882   
    525100   309.11954      2315.3007           5067   0.98743882   
    525200   301.19864      2693.455            5067   0.98743882   
    525300   301.21527      3218.9785           5067   0.98743882   
    525400   303.24047      3297.1797           5067   0.98743882   
    525500   296.9544       3080.7399           5067   0.98743882   
    525600   300.68324      2487.9575           5067   0.98743882   
    525700   306.1357       2402.7093           5067   0.98743882   
    525800   307.41702      2624.4475           5067   0.98743882   
    525900   301.24358      3171.7741           5067   0.98743882   
    526000   296.49295      3475.2819           5067   0.98743882   
    526100   301.44218      3038.8517           5073   0.98860808   
    526200   303.27241      2498.9686           5073   0.98860808   
    526300   301.75076      2378.1669           5073   0.98860808   
    526400   301.9833       2779.0486           5073   0.98860808   
    526500   297.80605      3387.8972           5073   0.98860808   
    526600   301.98722      3273.4676           5073   0.98860808   
    526700   302.12186      2758.0532           5073   0.98860808   
    526800   298.1366       2296.9157           5073   0.98860808   
    526900   295.57906      2401.9903           5073   0.98860808   
    527000   302.55899      3083.5078           5073   0.98860808   
    527100   305.00026      3527.4537           5073   0.98860808   
    527200   302.89883      3126.7472           5073   0.98860808   
    527300   297.53973      2596.1307           5073   0.98860808   
    527400   298.41477      2384.408            5073   0.98860808   
    527500   302.48384      2728.6289           5073   0.98860808   
    527600   301.43902      3391.5789           5073   0.98860808   
    527700   300.62156      3478.0198           5073   0.98860808   
    527800   299.26869      3214.4283           5073   0.98860808   
    527900   301.91327      2614.4888           5073   0.98860808   
    528000   301.28085      2345.291            5073   0.98860808   
    528100   298.61128      2741.6517           5073   0.98860808   
    528200   296.17599      3241.5453           5073   0.98860808   
    528300   301.03023      3501.0703           5073   0.98860808   
    528400   303.81101      3166.3291           5073   0.98860808   
    528500   301.56984      2575.5525           5073   0.98860808   
    528600   296.77254      2557.9906           5073   0.98860808   
    528700   298.73151      3078.8261           5073   0.98860808   
    528800   307.9417       3606.2043           5073   0.98860808   
    528900   304.47354      3533.2867           5073   0.98860808   
    529000   299.83708      2878.4398           5073   0.98860808   
    529100   298.92389      2385.1922           5073   0.98860808   
    529200   297.52372      2726.3406           5073   0.98860808   
    529300   305.36851      3360.3119           5073   0.98860808   
    529400   306.83391      3575.0049           5073   0.98860808   
    529500   300.77112      3321.9058           5073   0.98860808   
    529600   300.05923      2776.7245           5073   0.98860808   
    529700   299.4403       2528.3409           5073   0.98860808   
    529800   303.29704      2778.6606           5073   0.98860808   
    529900   300.43386      3473.8735           5073   0.98860808   
    530000   298.48188      3586.1452           5073   0.98860808   
    530100   301.7786       2832.8889           5076   0.98919271   
    530200   296.51735      2253.3744           5076   0.98919271   
    530300   292.7126       2433.9373           5076   0.98919271   
    530400   304.21341      2832.5389           5076   0.98919271   
    530500   303.36744      3285.3566           5076   0.98919271   
    530600   298.60684      3278.3577           5076   0.98919271   
    530700   298.36497      2683.8313           5076   0.98919271   
    530800   297.89047      2213.8053           5076   0.98919271   
    530900   303.42547      2409.4397           5076   0.98919271   
    531000   303.93962      3133.1846           5076   0.98919271   
    531100   301.74886      3356.7087           5076   0.98919271   
    531200   297.05423      3159.2195           5076   0.98919271   
    531300   299.22352      2599.2593           5076   0.98919271   
    531400   298.82349      2398.5237           5076   0.98919271   
    531500   305.06276      2607.0864           5076   0.98919271   
    531600   304.14964      3168.5047           5076   0.98919271   
    531700   293.22183      3481.1021           5076   0.98919271   
    531800   300.73429      3054.0307           5076   0.98919271   
    531900   301.38892      2675.634            5076   0.98919271   
    532000   301.79742      2469.361            5076   0.98919271   
    532100   300.54387      2797.5591           5070   0.98802345   
    532200   298.56678      3172.5195           5070   0.98802345   
    532300   296.59159      3284.4962           5070   0.98802345   
    532400   302.17145      2877.1342           5070   0.98802345   
    532500   303.37551      2487.0059           5070   0.98802345   
    532600   299.53661      2541.2381           5070   0.98802345   
    532700   295.69956      2878.4536           5070   0.98802345   
    532800   292.9314       3159.2982           5070   0.98802345   
    532900   299.40754      3161.6775           5070   0.98802345   
    533000   301.45764      2831.366            5070   0.98802345   
    533100   299.12059      2627.6612           5070   0.98802345   
    533200   306.24723      2634.5266           5070   0.98802345   
    533300   299.74216      3050.0975           5070   0.98802345   
    533400   298.66104      3363.7925           5070   0.98802345   
    533500   301.95281      3247.9288           5070   0.98802345   
    533600   302.9461       2593.5784           5070   0.98802345   
    533700   294.79347      2381.8819           5070   0.98802345   
    533800   301.41051      2648.4001           5070   0.98802345   
    533900   305.20602      3326.7228           5070   0.98802345   
    534000   298.4333       3777.373            5070   0.98802345   
    534100   301.73596      3227.0222           5070   0.98802345   
    534200   301.06215      2539.0594           5070   0.98802345   
    534300   293.09481      2516.1407           5070   0.98802345   
    534400   302.87414      2639.4241           5070   0.98802345   
    534500   303.21443      3296.5227           5070   0.98802345   
    534600   300.01329      3413.4656           5070   0.98802345   
    534700   295.74957      2825.1248           5070   0.98802345   
    534800   289.82379      2479.0688           5070   0.98802345   
    534900   301.30251      2362.5991           5070   0.98802345   
    535000   303.01224      2890.3172           5070   0.98802345   
    535100   300.22344      3380.8411           5070   0.98802345   
    535200   302.94758      3147.097            5070   0.98802345   
    535300   296.37776      2675.5541           5070   0.98802345   
    535400   296.30073      2179.0497           5070   0.98802345   
    535500   303.94014      2462.2758           5070   0.98802345   
    535600   303.98332      3088.9878           5070   0.98802345   
    535700   300.08119      3403.2117           5070   0.98802345   
    535800   299.05398      3080.8288           5070   0.98802345   
    535900   296.64569      2701.3632           5070   0.98802345   
    536000   307.23234      2422.3366           5070   0.98802345   
    536100   304.59239      2674.1111           5067   0.98743882   
    536200   297.76034      3175.5663           5067   0.98743882   
    536300   299.38999      3282.1661           5067   0.98743882   
    536400   301.43058      3189.1524           5067   0.98743882   
    536500   310.08422      2540.483            5067   0.98743882   
    536600   297.72486      2629.7087           5067   0.98743882   
    536700   301.19768      2779.7201           5067   0.98743882   
    536800   301.71784      3058.204            5067   0.98743882   
    536900   298.99962      3142.0846           5067   0.98743882   
    537000   299.02211      2736.0977           5067   0.98743882   
    537100   297.56879      2648.4072           5067   0.98743882   
    537200   307.72263      2527.1371           5067   0.98743882   
    537300   301.56603      3019.5391           5067   0.98743882   
    537400   300.54342      3251.4607           5067   0.98743882   
    537500   300.8174       3098.8783           5067   0.98743882   
    537600   299.38115      2710.6786           5067   0.98743882   
    537700   306.23399      2379.9264           5067   0.98743882   
    537800   306.06403      2556.3241           5067   0.98743882   
    537900   299.27702      3012.6451           5067   0.98743882   
    538000   297.78236      3349.1785           5067   0.98743882   
    538100   302.61787      3003.1655           5067   0.98743882   
    538200   304.4759       2588.2411           5067   0.98743882   
    538300   311.64529      2378.1278           5067   0.98743882   
    538400   300.01885      2819.6701           5067   0.98743882   
    538500   295.37337      3386.7272           5067   0.98743882   
    538600   304.11892      3396.1094           5067   0.98743882   
    538700   302.15684      3063.8669           5067   0.98743882   
    538800   297.21485      2571.1718           5067   0.98743882   
    538900   293.57749      2563.4286           5067   0.98743882   
    539000   302.49003      2902.007            5067   0.98743882   
    539100   304.63599      3386.806            5067   0.98743882   
    539200   302.17181      3274.4674           5067   0.98743882   
    539300   296.07617      2931.4722           5067   0.98743882   
    539400   300.10138      2510.1529           5067   0.98743882   
    539500   300.21465      2717.5707           5067   0.98743882   
    539600   300.75041      3177.4234           5067   0.98743882   
    539700   301.84337      3501.7297           5067   0.98743882   
    539800   301.76208      3242.2442           5067   0.98743882   
    539900   296.75789      2786.2983           5067   0.98743882   
    540000   299.88108      2541.7535           5067   0.98743882   
    540100   304.43724      2722.6852           5070   0.98802345   
    540200   301.2871       3240.2878           5070   0.98802345   
    540300   293.53645      3489.2767           5070   0.98802345   
    540400   296.88099      3064.7435           5070   0.98802345   
    540500   304.40375      2646.4733           5070   0.98802345   
    540600   304.97448      2436.2685           5070   0.98802345   
    540700   299.51485      2773.0831           5070   0.98802345   
    540800   296.759        3298.4409           5070   0.98802345   
    540900   301.24794      3396.3945           5070   0.98802345   
    541000   302.35982      2997.3301           5070   0.98802345   
    541100   301.61781      2609.0393           5070   0.98802345   
    541200   301.54438      2582.2471           5070   0.98802345   
    541300   299.31378      3071.5612           5070   0.98802345   
    541400   300.99571      3516.8317           5070   0.98802345   
    541500   307.22741      3393.1251           5070   0.98802345   
    541600   296.98785      2983.1205           5070   0.98802345   
    541700   296.81206      2595.0782           5070   0.98802345   
    541800   301.71411      2804.896            5070   0.98802345   
    541900   304.80867      3063.4381           5070   0.98802345   
    542000   297.97393      3422.1217           5070   0.98802345   
    542100   298.61985      3191.6957           5073   0.98860808   
    542200   301.94481      2572.1782           5073   0.98860808   
    542300   298.62211      2531.0393           5073   0.98860808   
    542400   301.18628      2883.5889           5073   0.98860808   
    542500   306.99894      3380.3185           5073   0.98860808   
    542600   304.72621      3435.459            5073   0.98860808   
    542700   299.51514      3050.8966           5073   0.98860808   
    542800   296.5286       2719.717            5073   0.98860808   
    542900   305.42644      2510.8477           5073   0.98860808   
    543000   304.24652      2818.2338           5073   0.98860808   
    543100   299.57623      3149.5417           5073   0.98860808   
    543200   298.34692      3209.9219           5073   0.98860808   
    543300   301.41198      2740.4958           5073   0.98860808   
    543400   300.14516      2491.0047           5073   0.98860808   
    543500   305.14557      2653.2576           5073   0.98860808   
    543600   304.76116      3347.8497           5073   0.98860808   
    543700   303.38362      3502.8977           5073   0.98860808   
    543800   300.78558      3145.7617           5073   0.98860808   
    543900   301.94184      2497.0838           5073   0.98860808   
    544000   296.62329      2247.4327           5073   0.98860808   
    544100   295.70601      2552.6932           5073   0.98860808   
    544200   301.78665      3185.6857           5073   0.98860808   
    544300   300.51284      3578.5295           5073   0.98860808   
    544400   300.84656      3321.5603           5073   0.98860808   
    544500   300.35481      2562.7498           5073   0.98860808   
    544600   294.59567      2308.2369           5073   0.98860808   
    544700   297.36793      2617.2508           5073   0.98860808   
    544800   300.37712      3159.3716           5073   0.98860808   
    544900   300.95303      3427.6426           5073   0.98860808   
    545000   298.08296      3211.9114           5073   0.98860808   
    545100   302.87096      2530.4251           5073   0.98860808   
    545200   304.42445      2453.7877           5073   0.98860808   
    545300   299.2107       2786.4393           5073   0.98860808   
    545400   296.82887      3255.0734           5073   0.98860808   
    545500   300.74623      3262.6151           5073   0.98860808   
    545600   305.40506      2894.5932           5073   0.98860808   
    545700   301.96095      2518.7235           5073   0.98860808   
    545800   301.76126      2500.6003           5073   0.98860808   
    545900   299.37055      2913.3325           5073   0.98860808   
    546000   299.91967      3215.8773           5073   0.98860808   
    546100   296.57698      3255.3038           5082   0.99036196   
    546200   302.89717      2803.7121           5082   0.99036196   
    546300   304.21442      2524.5538           5082   0.99036196   
    546400   299.54638      2728.2817           5082   0.99036196   
    546500   300.71923      3070.1037           5082   0.99036196   
    546600   299.48545      3358.1613           5082   0.99036196   
    546700   299.77998      3101.3416           5082   0.99036196   
    546800   299.76496      2648.198            5082   0.99036196   
    546900   302.96476      2468.2802           5082   0.99036196   
    547000   301.94478      3000.5346           5082   0.99036196   
    547100   307.46277      3335.0323           5082   0.99036196   
    547200   300.79014      3280.527            5082   0.99036196   
    547300   297.71182      2809.9753           5082   0.99036196   
    547400   295.29047      2550.0159           5082   0.99036196   
    547500   301.70706      2549.241            5082   0.99036196   
    547600   306.52361      2674.9545           5082   0.99036196   
    547700   297.1196       3338.8276           5082   0.99036196   
    547800   297.4207       3392.2213           5082   0.99036196   
    547900   301.82639      3072.3385           5082   0.99036196   
    548000   303.47972      2546.5179           5082   0.99036196   
    548100   301.1813       2513.4905           5082   0.99036196   
    548200   300.55802      2935.0192           5082   0.99036196   
    548300   293.86847      3578.8033           5082   0.99036196   
    548400   304.14055      3316.698            5082   0.99036196   
    548500   306.29433      2676.7249           5082   0.99036196   
    548600   299.8166       2346.0078           5082   0.99036196   
    548700   296.36574      2603.7532           5082   0.99036196   
    548800   300.9093       3152.6142           5082   0.99036196   
    548900   304.90593      3467.6897           5082   0.99036196   
    549000   301.54225      3142.9779           5082   0.99036196   
    549100   296.77672      2448.0054           5082   0.99036196   
    549200   298.58313      2275.8468           5082   0.99036196   
    549300   300.04337      2883.8456           5082   0.99036196   
    549400   303.78313      3264.2853           5082   0.99036196   
    549500   302.00285      3147.9781           5082   0.99036196   
    549600   299.39096      2752.594            5082   0.99036196   
    549700   296.18668      2519.2631           5082   0.99036196   
    549800   300.59961      2600.8385           5082   0.99036196   
    549900   304.63211      2924.1862           5082   0.99036196   
    550000   300.13349      3369.3053           5082   0.99036196   
    550100   298.22199      3256.5878           5085   0.99094659   
    550200   299.31438      2800.8403           5085   0.99094659   
    550300   300.53355      2649.7651           5085   0.99094659   
    550400   306.47038      2908.8232           5085   0.99094659   
    550500   302.39803      3322.7553           5085   0.99094659   
    550600   300.57054      3525.6305           5085   0.99094659   
    550700   301.44308      3108.1337           5085   0.99094659   
    550800   298.32875      2544.0795           5085   0.99094659   
    550900   295.00974      2467.5758           5085   0.99094659   
    551000   307.1901       2676.4744           5085   0.99094659   
    551100   302.51026      3323.6555           5085   0.99094659   
    551200   301.25143      3258.957            5085   0.99094659   
    551300   297.12146      2860.0453           5085   0.99094659   
    551400   298.65505      2475.2495           5085   0.99094659   
    551500   301.89917      2684.3042           5085   0.99094659   
    551600   307.14412      3074.5513           5085   0.99094659   
    551700   301.53306      3289.5477           5085   0.99094659   
    551800   298.60552      3149.0173           5085   0.99094659   
    551900   297.75261      2837.0099           5085   0.99094659   
    552000   299.35111      2669.6758           5085   0.99094659   
    552100   304.54498      2686.7676           5085   0.99094659   
    552200   300.29691      3124.966            5085   0.99094659   
    552300   296.98348      3192.6009           5085   0.99094659   
    552400   297.7603       2910.2653           5085   0.99094659   
    552500   300.60206      2480.2951           5085   0.99094659   
    552600   303.24027      2549.313            5085   0.99094659   
    552700   309.03264      2987.4678           5085   0.99094659   
    552800   301.90079      3392.0511           5085   0.99094659   
    552900   304.13966      3131.4807           5085   0.99094659   
    553000   294.39513      3052.019            5085   0.99094659   
    553100   297.90425      2619.5883           5085   0.99094659   
    553200   304.14012      2544.0136           5085   0.99094659   
    553300   301.98793      2786.6993           5085   0.99094659   
    553400   299.02803      3105.2318           5085   0.99094659   
    553500   294.36991      3381.6703           5085   0.99094659   
    553600   302.92701      2887.7464           5085   0.99094659   
    553700   302.92294      2483.8236           5085   0.99094659   
    553800   298.58601      2402.5892           5085   0.99094659   
    553900   295.30773      2842.181            5085   0.99094659   
    554000   293.71475      3392.0978           5085   0.99094659   
    554100   303.40815      3172.8723           5085   0.99094659   
    554200   303.98048      2630.1293           5085   0.99094659   
    554300   294.16463      2536.4667           5085   0.99094659   
    554400   296.52459      2838.0477           5085   0.99094659   
    554500   302.94247      3201.0757           5085   0.99094659   
    554600   300.11172      3411.9343           5085   0.99094659   
    554700   298.27312      3155.7941           5085   0.99094659   
    554800   301.37562      2505.4387           5085   0.99094659   
    554900   291.9401       2461.1335           5085   0.99094659   
    555000   293.53185      2965.4085           5085   0.99094659   
    555100   300.52648      3296.1648           5085   0.99094659   
    555200   300.58082      3395.9831           5085   0.99094659   
    555300   300.41765      3044.9483           5085   0.99094659   
    555400   297.9761       2598.549            5085   0.99094659   
    555500   293.10153      2669.3399           5085   0.99094659   
    555600   301.72328      2936.4818           5085   0.99094659   
    555700   304.21538      3302.7251           5085   0.99094659   
    555800   298.76105      3335.4472           5085   0.99094659   
    555900   299.51521      2857.0455           5085   0.99094659   
    556000   299.26691      2536.3821           5085   0.99094659   
    556100   291.90002      2565.758            5076   0.98919271   
    556200   300.6906       2639.0389           5076   0.98919271   
    556300   300.83422      3257.8668           5076   0.98919271   
    556400   301.37074      3268.8256           5076   0.98919271   
    556500   304.73195      2680.8335           5076   0.98919271   
    556600   301.39413      2331.5697           5076   0.98919271   
    556700   299.90274      2597.3038           5076   0.98919271   
    556800   300.37424      3029.8914           5076   0.98919271   
    556900   301.52592      3293.2798           5076   0.98919271   
    557000   301.71793      3051.0239           5076   0.98919271   
    557100   294.67031      2714.9223           5076   0.98919271   
    557200   298.18038      2501.9493           5076   0.98919271   
    557300   303.30071      2990.5143           5076   0.98919271   
    557400   303.22529      3379.0203           5076   0.98919271   
    557500   302.44168      3225.6332           5076   0.98919271   
    557600   302.67252      2639.5342           5076   0.98919271   
    557700   297.09963      2424.0093           5076   0.98919271   
    557800   297.77692      2539.913            5076   0.98919271   
    557900   300.34804      2962.1266           5076   0.98919271   
    558000   303.54184      3168.9199           5076   0.98919271   
    558100   296.56195      3109.3806           5082   0.99036196   
    558200   296.21288      2676.7094           5082   0.99036196   
    558300   303.64082      2539.8577           5082   0.99036196   
    558400   304.53095      2823.4529           5082   0.99036196   
    558500   295.87786      3434.7055           5082   0.99036196   
    558600   300.74816      3396.9727           5082   0.99036196   
    558700   305.93343      3122.9121           5082   0.99036196   
    558800   305.48578      2813.609            5082   0.99036196   
    558900   295.13248      2805.1437           5082   0.99036196   
    559000   299.28685      2951.49             5082   0.99036196   
    559100   303.96389      3253.3002           5082   0.99036196   
    559200   302.61642      3334.5255           5082   0.99036196   
    559300   295.3711       2838.3056           5082   0.99036196   
    559400   297.16758      2507.3112           5082   0.99036196   
    559500   300.58822      2631.0236           5082   0.99036196   
    559600   302.22572      3030.3494           5082   0.99036196   
    559700   300.63542      3339.4746           5082   0.99036196   
    559800   299.1135       3248.5519           5082   0.99036196   
    559900   302.23904      2799.3474           5082   0.99036196   
    560000   303.0345       2384.7625           5082   0.99036196   
    560100   298.59627      2546.7945           5085   0.99094659   
    560200   296.13856      3146.7877           5085   0.99094659   
    560300   302.40923      3224.1856           5085   0.99094659   
    560400   303.81247      2926.8483           5085   0.99094659   
    560500   298.29724      2553.6685           5085   0.99094659   
    560600   298.43649      2361.7412           5085   0.99094659   
    560700   297.20806      2862.6535           5085   0.99094659   
    560800   301.41255      3238.9148           5085   0.99094659   
    560900   300.63761      3368.0758           5085   0.99094659   
    561000   299.29562      2970.4252           5085   0.99094659   
    561100   292.79957      2699.0753           5085   0.99094659   
    561200   297.93965      2704.3507           5085   0.99094659   
    561300   302.57712      3063.2013           5085   0.99094659   
    561400   299.95123      3430.4638           5085   0.99094659   
    561500   302.35239      3173.9521           5085   0.99094659   
    561600   294.99017      2680.4999           5085   0.99094659   
    561700   294.24699      2476.889            5085   0.99094659   
    561800   301.95853      2453.5864           5085   0.99094659   
    561900   299.60138      3011.2348           5085   0.99094659   
    562000   301.24533      3218.9279           5085   0.99094659   
    562100   299.96985      3363.4087           5088   0.99153122   
    562200   310.15864      2774.864            5088   0.99153122   
    562300   303.11169      2378.9689           5088   0.99153122   
    562400   295.77435      2755.6615           5088   0.99153122   
    562500   300.25923      3071.701            5088   0.99153122   
    562600   299.05897      3430.6861           5088   0.99153122   
    562700   304.24432      3205.5203           5088   0.99153122   
    562800   301.72024      2988.9053           5088   0.99153122   
    562900   294.33363      2764.0796           5088   0.99153122   
    563000   298.77454      2681.0181           5088   0.99153122   
    563100   301.02844      2985.2971           5088   0.99153122   
    563200   297.84783      3336.7965           5088   0.99153122   
    563300   305.0779       3130.2173           5088   0.99153122   
    563400   302.11888      2820.4844           5088   0.99153122   
    563500   300.82469      2596.5734           5088   0.99153122   
    563600   297.48722      2880.0125           5088   0.99153122   
    563700   297.97863      3178.0972           5088   0.99153122   
    563800   298.68894      3221.7404           5088   0.99153122   
    563900   302.30044      2831.8289           5088   0.99153122   
    564000   299.5166       2643.7843           5088   0.99153122   
    564100   298.91309      2715.4471           5094   0.99270048   
    564200   296.51952      3260.974            5094   0.99270048   
    564300   306.37416      3448.6218           5094   0.99270048   
    564400   302.09828      3349.4398           5094   0.99270048   
    564500   295.92088      3111.0372           5094   0.99270048   
    564600   303.20865      2501.1801           5094   0.99270048   
    564700   295.25267      2767.1045           5094   0.99270048   
    564800   295.16657      3077.2387           5094   0.99270048   
    564900   300.06041      3044.1888           5094   0.99270048   
    565000   299.42176      2841.9445           5094   0.99270048   
    565100   297.86815      2599.3125           5094   0.99270048   
    565200   305.25222      2495.6061           5094   0.99270048   
    565300   301.09873      2983.3569           5094   0.99270048   
    565400   295.22925      3268.1995           5094   0.99270048   
    565500   298.0261       3209.4076           5094   0.99270048   
    565600   299.20689      2971.5622           5094   0.99270048   
    565700   300.34093      2603.9504           5094   0.99270048   
    565800   301.56284      2479.4052           5094   0.99270048   
    565900   299.45826      2901.8402           5094   0.99270048   
    566000   294.98281      3517.7283           5094   0.99270048   
    566100   300.79131      3343.7279           5097   0.99328511   
    566200   304.08827      2726.83             5097   0.99328511   
    566300   298.94248      2393.3231           5097   0.99328511   
    566400   296.87489      2639.0702           5097   0.99328511   
    566500   299.44964      3148.7319           5097   0.99328511   
    566600   302.07913      3438.7651           5097   0.99328511   
    566700   305.32159      3401.0684           5097   0.99328511   
    566800   309.55623      2785.1621           5097   0.99328511   
    566900   300.11709      2454.0012           5097   0.99328511   
    567000   298.93203      2651.4685           5097   0.99328511   
    567100   294.28579      3267.2791           5097   0.99328511   
    567200   299.45516      3437.6353           5097   0.99328511   
    567300   302.19988      3181.4839           5097   0.99328511   
    567400   302.72168      2445.9347           5097   0.99328511   
    567500   295.38877      2564.8159           5097   0.99328511   
    567600   296.78957      3173.0754           5097   0.99328511   
    567700   302.35983      3493.8085           5097   0.99328511   
    567800   299.56983      3595.5251           5097   0.99328511   
    567900   294.65223      3029.5925           5097   0.99328511   
    568000   292.74524      2506.5366           5097   0.99328511   
    568100   301.81583      2528.9869           5097   0.99328511   
    568200   302.86275      3129.6067           5097   0.99328511   
    568300   300.73367      3284.8173           5097   0.99328511   
    568400   293.24463      3310.8282           5097   0.99328511   
    568500   300.43895      2740.4737           5097   0.99328511   
    568600   298.46887      2621.1325           5097   0.99328511   
    568700   300.89535      2746.9946           5097   0.99328511   
    568800   298.11795      3322.0935           5097   0.99328511   
    568900   297.92646      3359.8993           5097   0.99328511   
    569000   295.84821      3053.5325           5097   0.99328511   
    569100   296.07109      2809.3704           5097   0.99328511   
    569200   300.72795      2706.4955           5097   0.99328511   
    569300   303.34214      2908.2253           5097   0.99328511   
    569400   299.37403      3298.7595           5097   0.99328511   
    569500   295.3679       3334.8945           5097   0.99328511   
    569600   296.94359      3047.7726           5097   0.99328511   
    569700   297.16526      2744.8116           5097   0.99328511   
    569800   301.13601      2708.4576           5097   0.99328511   
    569900   302.69876      3097.0047           5097   0.99328511   
    570000   299.08364      3161.3358           5097   0.99328511   
    570100   295.24048      3011.8853           5082   0.99036196   
    570200   300.31042      2628.8188           5082   0.99036196   
    570300   301.45325      2454.6453           5082   0.99036196   
    570400   301.39478      2588.6834           5082   0.99036196   
    570500   297.43854      3012.1206           5082   0.99036196   
    570600   293.30803      3197.9491           5082   0.99036196   
    570700   299.78569      3018.6568           5082   0.99036196   
    570800   302.76159      2699.3248           5082   0.99036196   
    570900   301.92512      2453.6776           5082   0.99036196   
    571000   294.34922      2885.5155           5082   0.99036196   
    571100   299.24073      3324.8824           5082   0.99036196   
    571200   306.30371      3377.12             5082   0.99036196   
    571300   301.78211      3024.0937           5082   0.99036196   
    571400   297.34874      2626.7002           5082   0.99036196   
    571500   296.38797      2641.5306           5082   0.99036196   
    571600   304.08969      2950.8306           5082   0.99036196   
    571700   301.86226      3418.7886           5082   0.99036196   
    571800   301.42263      3268.7195           5082   0.99036196   
    571900   299.14877      2900.5301           5082   0.99036196   
    572000   300.59747      2377.8265           5082   0.99036196   
    572100   292.47296      2425.3549           5082   0.99036196   
    572200   294.31832      2935.7783           5082   0.99036196   
    572300   302.13552      3274.3245           5082   0.99036196   
    572400   302.51947      3038.3677           5082   0.99036196   
    572500   297.59744      2629.0064           5082   0.99036196   
    572600   295.19582      2474.3601           5082   0.99036196   
    572700   298.57421      3105.2391           5082   0.99036196   
    572800   305.18154      3353.7882           5082   0.99036196   
    572900   297.93319      3568.6973           5082   0.99036196   
    573000   301.27173      2955.9773           5082   0.99036196   
    573100   296.91831      2411.7548           5082   0.99036196   
    573200   291.22644      2471.004            5082   0.99036196   
    573300   301.2499       3057.4641           5082   0.99036196   
    573400   302.76868      3462.2666           5082   0.99036196   
    573500   301.25283      3336.0717           5082   0.99036196   
    573600   296.15949      2930.4596           5082   0.99036196   
    573700   297.28106      2538.2601           5082   0.99036196   
    573800   305.29568      2552.6187           5082   0.99036196   
    573900   303.62746      3072.3113           5082   0.99036196   
    574000   300.64267      3350.4241           5082   0.99036196   
    574100   299.74664      3130.2335           5079   0.98977734   
    574200   295.94329      2830.8846           5079   0.98977734   
    574300   301.95878      2547.3779           5079   0.98977734   
    574400   306.55606      2740.2741           5079   0.98977734   
    574500   298.12644      3427.8383           5079   0.98977734   
    574600   301.28378      3485.9459           5079   0.98977734   
    574700   302.27555      3149.1008           5079   0.98977734   
    574800   294.24197      2581.2723           5079   0.98977734   
    574900   296.70386      2366.1793           5079   0.98977734   
    575000   302.04339      2728.6798           5079   0.98977734   
    575100   300.65188      3322.6101           5079   0.98977734   
    575200   300.88179      3382.8547           5079   0.98977734   
    575300   299.75507      2935.0249           5079   0.98977734   
    575400   290.48692      2400.3291           5079   0.98977734   
    575500   296.77591      2257.2212           5079   0.98977734   
    575600   298.31941      2878.4525           5079   0.98977734   
    575700   299.10871      3424.1201           5079   0.98977734   
    575800   303.95362      3367.6757           5079   0.98977734   
    575900   303.41792      2767.4538           5079   0.98977734   
    576000   293.89121      2495.4047           5079   0.98977734   
    576100   296.64818      2590.1756           5076   0.98919271   
    576200   302.83622      3032.8858           5076   0.98919271   
    576300   302.47017      3288.4155           5076   0.98919271   
    576400   296.91317      3187.6553           5076   0.98919271   
    576500   300.71186      2584.322            5076   0.98919271   
    576600   310.09916      2299.902            5076   0.98919271   
    576700   300.58648      2809.7153           5076   0.98919271   
    576800   299.57887      3169.3898           5076   0.98919271   
    576900   298.14663      3380.664            5076   0.98919271   
    577000   300.4184       3096.1283           5076   0.98919271   
    577100   303.02623      2578.9036           5076   0.98919271   
    577200   292.70224      2529.1222           5076   0.98919271   
    577300   293.78509      2736.6635           5076   0.98919271   
    577400   302.25045      3123.9961           5076   0.98919271   
    577500   301.33672      3126.3766           5076   0.98919271   
    577600   299.28787      2760.8642           5076   0.98919271   
    577700   298.69906      2451.2523           5076   0.98919271   
    577800   299.81732      2706.7031           5076   0.98919271   
    577900   309.33054      2937.3752           5076   0.98919271   
    578000   301.4086       3286.9669           5076   0.98919271   
    578100   298.47928      3230.4048           5076   0.98919271   
    578200   301.53194      2793.1706           5076   0.98919271   
    578300   301.37637      2490.2188           5076   0.98919271   
    578400   299.71797      2726.2077           5076   0.98919271   
    578500   303.53676      2972.4951           5076   0.98919271   
    578600   298.03307      3263.7952           5076   0.98919271   
    578700   297.93635      2913.5899           5076   0.98919271   
    578800   292.66071      2842.8683           5076   0.98919271   
    578900   303.72833      2616.7653           5076   0.98919271   
    579000   304.24968      2653.6477           5076   0.98919271   
    579100   295.80691      3169.0568           5076   0.98919271   
    579200   298.18597      3305.9535           5076   0.98919271   
    579300   302.49354      3185.9436           5076   0.98919271   
    579400   302.27907      2965.1734           5076   0.98919271   
    579500   302.6296       2643.1617           5076   0.98919271   
    579600   300.23814      2951.6299           5076   0.98919271   
    579700   299.65326      3317.7131           5076   0.98919271   
    579800   296.29092      3597.1392           5076   0.98919271   
    579900   308.88332      3103.0472           5076   0.98919271   
    580000   302.70066      2764.3719           5076   0.98919271   
    580100   301.54498      2606.4182           5076   0.98919271   
    580200   300.29742      3060.0024           5076   0.98919271   
    580300   301.36002      3392.4114           5076   0.98919271   
    580400   303.9272       3205.9405           5076   0.98919271   
    580500   295.81848      2835.8181           5076   0.98919271   
    580600   298.08399      2326.9221           5076   0.98919271   
    580700   303.48824      2450.5431           5076   0.98919271   
    580800   298.84325      3113.881            5076   0.98919271   
    580900   297.90872      3362.9209           5076   0.98919271   
    581000   298.3251       3308.0643           5076   0.98919271   
    581100   302.22461      2937.5923           5076   0.98919271   
    581200   305.0599       2560.7876           5076   0.98919271   
    581300   300.03699      2650.677            5076   0.98919271   
    581400   295.79336      3224.403            5076   0.98919271   
    581500   296.96529      3541.7071           5076   0.98919271   
    581600   307.28169      2959.7536           5076   0.98919271   
    581700   299.72629      2632.1705           5076   0.98919271   
    581800   300.1908       2358.5942           5076   0.98919271   
    581900   298.68931      2871.6102           5076   0.98919271   
    582000   302.38468      3244.184            5076   0.98919271   
    582100   298.21678      3513.1879           5070   0.98802345   
    582200   303.40941      2930.3406           5070   0.98802345   
    582300   301.58565      2474.7864           5070   0.98802345   
    582400   298.38438      2529.3826           5070   0.98802345   
    582500   299.17799      3104.0863           5070   0.98802345   
    582600   311.97595      3260.0402           5070   0.98802345   
    582700   302.02981      3250.1365           5070   0.98802345   
    582800   300.79375      2666.8363           5070   0.98802345   
    582900   300.37278      2132.112            5070   0.98802345   
    583000   296.38897      2384.2747           5070   0.98802345   
    583100   304.6263       2913.922            5070   0.98802345   
    583200   302.46266      3427.0163           5070   0.98802345   
    583300   302.49958      3082.291            5070   0.98802345   
    583400   298.39252      2584.7895           5070   0.98802345   
    583500   296.7177       2587.2362           5070   0.98802345   
    583600   301.19435      2934.8436           5070   0.98802345   
    583700   301.19035      3355.353            5070   0.98802345   
    583800   298.53143      3493.952            5070   0.98802345   
    583900   303.87709      2896.7936           5070   0.98802345   
    584000   300.57706      2438.4547           5070   0.98802345   
    584100   296.50663      2298.193            5073   0.98860808   
    584200   297.94366      2785.536            5073   0.98860808   
    584300   302.89805      3289.0176           5073   0.98860808   
    584400   303.01722      3229.7876           5073   0.98860808   
    584500   302.10683      2733.0028           5073   0.98860808   
    584600   298.8098       2352.1              5073   0.98860808   
    584700   298.1648       2540.3019           5073   0.98860808   
    584800   306.73619      3068.8236           5073   0.98860808   
    584900   306.54526      3375.862            5073   0.98860808   
    585000   296.22967      3239.7708           5073   0.98860808   
    585100   297.98969      2775.0475           5073   0.98860808   
    585200   304.27398      2410.1295           5073   0.98860808   
    585300   301.73676      2663.2111           5073   0.98860808   
    585400   297.29823      2994.5613           5073   0.98860808   
    585500   295.00544      3140.0756           5073   0.98860808   
    585600   305.35945      2964.2973           5073   0.98860808   
    585700   303.11764      2657.0579           5073   0.98860808   
    585800   298.46996      2596.2063           5073   0.98860808   
    585900   297.0481       2891.2573           5073   0.98860808   
    586000   301.6558       3225.7187           5073   0.98860808   
    586100   307.70815      3271.3325           5067   0.98743882   
    586200   304.38222      2893.4028           5067   0.98743882   
    586300   298.68353      2348.9484           5067   0.98743882   
    586400   298.59162      2431.2123           5067   0.98743882   
    586500   299.15872      3124.3063           5067   0.98743882   
    586600   307.80333      3297.4827           5067   0.98743882   
    586700   301.2571       3224.6617           5067   0.98743882   
    586800   300.7423       2691.8282           5067   0.98743882   
    586900   297.76496      2555.8253           5067   0.98743882   
    587000   302.8566       2698.9141           5067   0.98743882   
    587100   300.65635      3370.1387           5067   0.98743882   
    587200   306.12683      3434.0035           5067   0.98743882   
    587300   299.03289      3327.5352           5067   0.98743882   
    587400   298.11127      2696.5036           5067   0.98743882   
    587500   303.64908      2206.6385           5067   0.98743882   
    587600   295.69639      2825.4785           5067   0.98743882   
    587700   306.73104      3103.8747           5067   0.98743882   
    587800   303.52019      3421.1921           5067   0.98743882   
    587900   298.84434      2915.5957           5067   0.98743882   
    588000   297.14738      2413.9146           5067   0.98743882   
    588100   301.22272      2360.0854           5067   0.98743882   
    588200   307.55475      2915.8819           5067   0.98743882   
    588300   304.11995      3442.5415           5067   0.98743882   
    588400   299.44056      3382.5296           5067   0.98743882   
    588500   299.32333      2762.4893           5067   0.98743882   
    588600   300.21804      2327.8445           5067   0.98743882   
    588700   303.77299      2513.5306           5067   0.98743882   
    588800   303.48874      3218.9011           5067   0.98743882   
    588900   298.93307      3438.6564           5067   0.98743882   
    589000   296.89837      3136.9195           5067   0.98743882   
    589100   298.2609       2761.7751           5067   0.98743882   
    589200   301.98778      2478.3537           5067   0.98743882   
    589300   303.81645      2594.1902           5067   0.98743882   
    589400   297.51018      3256.6302           5067   0.98743882   
    589500   300.20976      3484.6833           5067   0.98743882   
    589600   307.13559      3372.1114           5067   0.98743882   
    589700   302.91639      2950.5496           5067   0.98743882   
    589800   302.4702       2545.8035           5067   0.98743882   
    589900   297.04987      3070.509            5067   0.98743882   
    590000   299.62013      3537.4663           5067   0.98743882   
    590100   306.20516      3429.5084           5064   0.98685419   
    590200   300.59473      3161.7033           5064   0.98685419   
    590300   300.14098      2641.1034           5064   0.98685419   
    590400   300.15623      2550.2647           5064   0.98685419   
    590500   303.51945      2712.4482           5064   0.98685419   
    590600   293.99272      3153.2551           5064   0.98685419   
    590700   289.13804      3209.5441           5064   0.98685419   
    590800   297.06994      2964.8383           5064   0.98685419   
    590900   304.59853      2373.2853           5064   0.98685419   
    591000   304.20387      2451.9291           5064   0.98685419   
    591100   298.4822       2887.0209           5064   0.98685419   
    591200   294.80714      3355.7096           5064   0.98685419   
    591300   304.68789      3124.8202           5064   0.98685419   
    591400   305.6713       2574.4821           5064   0.98685419   
    591500   296.87414      2383.5748           5064   0.98685419   
    591600   300.15735      2579.2099           5064   0.98685419   
    591700   301.6091       3244.6751           5064   0.98685419   
    591800   303.26949      3523.8187           5064   0.98685419   
    591900   301.25155      3005.8637           5064   0.98685419   
    592000   297.45993      2392.2471           5064   0.98685419   
    592100   295.4469       2603.2879           5067   0.98743882   
    592200   302.72108      3045.9837           5067   0.98743882   
    592300   304.63186      3305.0081           5067   0.98743882   
    592400   300.68756      3131.9101           5067   0.98743882   
    592500   295.91503      2872.8041           5067   0.98743882   
    592600   299.9178       2470.7143           5067   0.98743882   
    592700   301.16952      2619.6601           5067   0.98743882   
    592800   303.63848      3046.8844           5067   0.98743882   
    592900   301.47147      3230.9393           5067   0.98743882   
    593000   293.82541      3145.5318           5067   0.98743882   
    593100   300.87516      2542.3558           5067   0.98743882   
    593200   298.86597      2515.0206           5067   0.98743882   
    593300   305.7732       2610.8754           5067   0.98743882   
    593400   298.18777      3225.9132           5067   0.98743882   
    593500   294.80055      3295.6714           5067   0.98743882   
    593600   305.12921      2918.5531           5067   0.98743882   
    593700   304.77121      2649.6051           5067   0.98743882   
    593800   301.42419      2583.2325           5067   0.98743882   
    593900   299.53223      2958.2381           5067   0.98743882   
    594000   302.04734      3297.1672           5067   0.98743882   
    594100   309.29867      3372.4045           5064   0.98685419   
    594200   306.81989      2818.5487           5064   0.98685419   
    594300   300.61126      2322.3845           5064   0.98685419   
    594400   298.54503      2333.2069           5064   0.98685419   
    594500   299.55145      2851.6369           5064   0.98685419   
    594600   303.87044      3388.4095           5064   0.98685419   
    594700   304.67247      3336.0986           5064   0.98685419   
    594800   300.245        3013.9856           5064   0.98685419   
    594900   299.60756      2714.2237           5064   0.98685419   
    595000   303.38015      2681.1737           5064   0.98685419   
    595100   299.0735       3189.6463           5064   0.98685419   
    595200   301.05788      3193.1901           5064   0.98685419   
    595300   294.00984      3065.1306           5064   0.98685419   
    595400   299.74777      2602.678            5064   0.98685419   
    595500   302.56945      2536.3093           5064   0.98685419   
    595600   301.08219      2887.7838           5064   0.98685419   
    595700   302.86482      3162.3676           5064   0.98685419   
    595800   296.73494      3243.5069           5064   0.98685419   
    595900   294.647        2958.5664           5064   0.98685419   
    596000   302.83259      2493.0776           5064   0.98685419   
    596100   301.43786      2499.8298           5067   0.98743882   
    596200   299.73168      2842.6327           5067   0.98743882   
    596300   299.86476      3192.3074           5067   0.98743882   
    596400   301.23853      3323.8607           5067   0.98743882   
    596500   309.81256      2886.6439           5067   0.98743882   
    596600   295.46803      2770.947            5067   0.98743882   
    596700   298.74951      2684.1782           5067   0.98743882   
    596800   303.52051      2962.2949           5067   0.98743882   
    596900   299.4172       3482.8833           5067   0.98743882   
    597000   301.36027      3384.0856           5067   0.98743882   
    597100   302.40341      2951.9345           5067   0.98743882   
    597200   301.88503      2619.8383           5067   0.98743882   
    597300   296.71326      2703.0576           5067   0.98743882   
    597400   299.6088       3076.9821           5067   0.98743882   
    597500   301.64473      3491.6772           5067   0.98743882   
    597600   309.65485      2969.8663           5067   0.98743882   
    597700   297.83334      2695.5725           5067   0.98743882   
    597800   298.13305      2599.5671           5067   0.98743882   
    597900   302.11361      2801.3279           5067   0.98743882   
    598000   302.78216      3148.6505           5067   0.98743882   
    598100   304.21775      2933.1187           5073   0.98860808   
    598200   293.97451      2874.6361           5073   0.98860808   
    598300   299.04388      2609.4313           5073   0.98860808   
    598400   302.58386      2633.254            5073   0.98860808   
    598500   303.37701      2896.3879           5073   0.98860808   
    598600   297.09625      3272.0174           5073   0.98860808   
    598700   295.20864      3151.5686           5073   0.98860808   
    598800   297.9517       3001.447            5073   0.98860808   
    598900   309.4889       2421.0971           5073   0.98860808   
    599000   298.93289      2591.2981           5073   0.98860808   
    599100   298.11302      2910.8316           5073   0.98860808   
    599200   299.02333      3266.1336           5073   0.98860808   
    599300   305.28296      3206.8108           5073   0.98860808   
    599400   306.78937      2705.9676           5073   0.98860808   
    599500   299.51586      2542.2495           5073   0.98860808   
    599600   298.85631      2824.2471           5073   0.98860808   
    599700   300.22171      3241.0502           5073   0.98860808   
    599800   304.75596      3400.0437           5073   0.98860808   
    599900   306.24329      3070.9302           5073   0.98860808   
    600000   295.88146      2688.4814           5073   0.98860808   
    600100   297.72159      2663.1158           5070   0.98802345   
    600200   302.47147      2961.5103           5070   0.98802345   
    600300   305.40975      3201.1098           5070   0.98802345   
    600400   300.65226      3128.2331           5070   0.98802345   
    600500   298.99905      2777.9239           5070   0.98802345   
    600600   299.70647      2515.636            5070   0.98802345   
    600700   303.80171      2520.4176           5070   0.98802345   
    600800   302.32144      2865.7285           5070   0.98802345   
    600900   292.81033      3108.6978           5070   0.98802345   
    601000   296.85164      3031.2991           5070   0.98802345   
    601100   299.69673      2858.5558           5070   0.98802345   
    601200   302.52679      2597.8113           5070   0.98802345   
    601300   305.01816      2481.8837           5070   0.98802345   
    601400   296.13183      2978.9113           5070   0.98802345   
    601500   294.97465      3294.3588           5070   0.98802345   
    601600   300.66758      3033.3312           5070   0.98802345   
    601700   301.65149      2624.6712           5070   0.98802345   
    601800   298.13491      2703.2115           5070   0.98802345   
    601900   308.59691      2792.7341           5070   0.98802345   
    602000   299.531        3242.6434           5070   0.98802345   
    602100   296.40935      3244.5676           5070   0.98802345   
    602200   298.62673      3065.885            5070   0.98802345   
    602300   303.17939      2657.1195           5070   0.98802345   
    602400   302.56902      2645.9515           5070   0.98802345   
    602500   299.50898      2977.163            5070   0.98802345   
    602600   301.84123      3184.3311           5070   0.98802345   
    602700   300.18346      3232.1453           5070   0.98802345   
    602800   301.81287      2751.2089           5070   0.98802345   
    602900   300.49465      2406.7608           5070   0.98802345   
    603000   299.34385      2571.0866           5070   0.98802345   
    603100   299.49241      3035.7722           5070   0.98802345   
    603200   305.08241      3397.5348           5070   0.98802345   
    603300   303.54231      3432.3948           5070   0.98802345   
    603400   300.89237      2728.1902           5070   0.98802345   
    603500   296.26597      2504.2486           5070   0.98802345   
    603600   299.67389      2739.8726           5070   0.98802345   
    603700   301.10021      3180.3725           5070   0.98802345   
    603800   305.33617      3162.9521           5070   0.98802345   
    603900   296.94357      2902.88             5070   0.98802345   
    604000   295.21209      2552.7932           5070   0.98802345   
    604100   301.3479       2278.9291           5067   0.98743882   
    604200   301.47879      2772.8829           5067   0.98743882   
    604300   301.69082      3254.1703           5067   0.98743882   
    604400   308.13213      3203.2965           5067   0.98743882   
    604500   299.76072      2899.8212           5067   0.98743882   
    604600   297.0924       2546.7298           5067   0.98743882   
    604700   299.76201      2684.6527           5067   0.98743882   
    604800   305.12479      2883.035            5067   0.98743882   
    604900   301.56612      3151.4251           5067   0.98743882   
    605000   299.11102      3087.811            5067   0.98743882   
    605100   299.44791      2702.8291           5067   0.98743882   
    605200   300.15956      2538.776            5067   0.98743882   
    605300   301.47647      2664.6448           5067   0.98743882   
    605400   300.92392      3085.3533           5067   0.98743882   
    605500   301.32154      3246.9727           5067   0.98743882   
    605600   299.69381      3016.0213           5067   0.98743882   
    605700   292.653        3035.5068           5067   0.98743882   
    605800   307.99014      2615.4831           5067   0.98743882   
    605900   302.75602      2845.434            5067   0.98743882   
    606000   298.83687      3046.7458           5067   0.98743882   
    606100   299.99101      3023.8222           5070   0.98802345   
    606200   300.12175      2904.9872           5070   0.98802345   
    606300   304.89807      2758.5715           5070   0.98802345   
    606400   303.96189      2664.2946           5070   0.98802345   
    606500   301.30059      2855.0163           5070   0.98802345   
    606600   299.63295      3224.2631           5070   0.98802345   
    606700   305.16545      3088.372            5070   0.98802345   
    606800   299.3354       2990.7115           5070   0.98802345   
    606900   295.12342      2602.1996           5070   0.98802345   
    607000   299.45416      2352.7672           5070   0.98802345   
    607100   299.36714      2857.2724           5070   0.98802345   
    607200   305.41302      3237.3531           5070   0.98802345   
    607300   298.60917      3407.5495           5070   0.98802345   
    607400   300.62939      2776.6133           5070   0.98802345   
    607500   297.16878      2452.0947           5070   0.98802345   
    607600   298.45914      2515.5689           5070   0.98802345   
    607700   303.2852       2998.7255           5070   0.98802345   
    607800   304.50122      3315.191            5070   0.98802345   
    607900   298.28526      3073.2064           5070   0.98802345   
    608000   293.9366       2619.7359           5070   0.98802345   
    608100   297.33267      2517.3057           5079   0.98977734   
    608200   300.57459      2841.8341           5079   0.98977734   
    608300   301.65487      3274.7981           5079   0.98977734   
    608400   301.4161       3186.8223           5079   0.98977734   
    608500   293.13103      2880.3054           5079   0.98977734   
    608600   297.60698      2507.0535           5079   0.98977734   
    608700   302.3573       2463.989            5079   0.98977734   
    608800   298.24773      3002.4481           5079   0.98977734   
    608900   299.22923      3366.2924           5079   0.98977734   
    609000   303.6422       3278.32             5079   0.98977734   
    609100   306.54565      2890.0254           5079   0.98977734   
    609200   299.53297      2472.5998           5079   0.98977734   
    609300   295.54609      2642.4319           5079   0.98977734   
    609400   301.2542       3065.7906           5079   0.98977734   
    609500   303.53649      3227.5275           5079   0.98977734   
    609600   296.15539      3221.2155           5079   0.98977734   
    609700   304.04686      2584.8209           5079   0.98977734   
    609800   304.06606      2547.2656           5079   0.98977734   
    609900   300.52511      2797.396            5079   0.98977734   
    610000   298.74334      2989.7979           5079   0.98977734   
    610100   294.26288      3417.947            5085   0.99094659   
    610200   305.11991      3069.092            5085   0.99094659   
    610300   302.35624      2737.1676           5085   0.99094659   
    610400   299.47111      2603.6214           5085   0.99094659   
    610500   298.36462      2907.495            5085   0.99094659   
    610600   299.19922      3293.5122           5085   0.99094659   
    610700   299.4663       3421.5474           5085   0.99094659   
    610800   304.27787      2767.1174           5085   0.99094659   
    610900   296.98662      2536.73             5085   0.99094659   
    611000   298.23705      2556.4669           5085   0.99094659   
    611100   297.48584      3072.2064           5085   0.99094659   
    611200   301.17512      3355.091            5085   0.99094659   
    611300   301.34752      3217.4403           5085   0.99094659   
    611400   300.2861       2782.3012           5085   0.99094659   
    611500   297.37305      2555.1047           5085   0.99094659   
    611600   294.3186       2830.1456           5085   0.99094659   
    611700   306.85625      3000.0985           5085   0.99094659   
    611800   298.23045      3510.7517           5085   0.99094659   
    611900   301.08178      2992.4098           5085   0.99094659   
    612000   296.5842       2484.7362           5085   0.99094659   
    612100   292.3041       2392.5539           5082   0.99036196   
    612200   303.19039      2665.142            5082   0.99036196   
    612300   301.57417      3150.6114           5082   0.99036196   
    612400   298.8626       3150.6185           5082   0.99036196   
    612500   295.50711      2902.3784           5082   0.99036196   
    612600   298.80327      2735.5942           5082   0.99036196   
    612700   305.43995      2515.746            5082   0.99036196   
    612800   299.90703      2990.7471           5082   0.99036196   
    612900   298.78946      3332.2973           5082   0.99036196   
    613000   297.69996      3352.1372           5082   0.99036196   
    613100   308.86103      2806.628            5082   0.99036196   
    613200   306.0467       2530.2908           5082   0.99036196   
    613300   299.9342       2767.3302           5082   0.99036196   
    613400   298.83986      3236.4796           5082   0.99036196   
    613500   300.48969      3371.8646           5082   0.99036196   
    613600   300.28591      3072.1728           5082   0.99036196   
    613700   300.28267      2469.0678           5082   0.99036196   
    613800   293.6312       2353.2567           5082   0.99036196   
    613900   302.50639      2613.9652           5082   0.99036196   
    614000   303.85526      3164.7461           5082   0.99036196   
    614100   296.72294      3602.5473           5088   0.99153122   
    614200   298.68043      3311.3933           5088   0.99153122   
    614300   309.05197      2535.1869           5088   0.99153122   
    614400   293.06492      2541.2263           5088   0.99153122   
    614500   297.49961      2726.9351           5088   0.99153122   
    614600   301.45304      3331.1121           5088   0.99153122   
    614700   303.51852      3470.3343           5088   0.99153122   
    614800   298.38731      3087.992            5088   0.99153122   
    614900   294.21236      2474.9053           5088   0.99153122   
    615000   303.22274      2260.1133           5088   0.99153122   
    615100   307.97855      2907.4664           5088   0.99153122   
    615200   300.54686      3339.8302           5088   0.99153122   
    615300   296.46959      3232.2737           5088   0.99153122   
    615400   297.38661      2861.0963           5088   0.99153122   
    615500   302.38131      2439.4242           5088   0.99153122   
    615600   301.63603      2675.9036           5088   0.99153122   
    615700   296.64524      3006.5978           5088   0.99153122   
    615800   292.68967      3424.3278           5088   0.99153122   
    615900   299.46562      3216.5638           5088   0.99153122   
    616000   300.32046      2792.1607           5088   0.99153122   
    616100   302.1904       2489.1936           5088   0.99153122   
    616200   298.55566      2747.4206           5088   0.99153122   
    616300   294.17724      3107.1992           5088   0.99153122   
    616400   296.88103      3398.0306           5088   0.99153122   
    616500   300.6408       3113.9337           5088   0.99153122   
    616600   299.83664      2653.2985           5088   0.99153122   
    616700   300.59944      2388.1466           5088   0.99153122   
    616800   301.07261      2646.522            5088   0.99153122   
    616900   293.10981      3180.8834           5088   0.99153122   
    617000   295.58319      3287.4605           5088   0.99153122   
    617100   301.09743      2895.4221           5088   0.99153122   
    617200   300.97587      2364.518            5088   0.99153122   
    617300   297.62675      2344.8952           5088   0.99153122   
    617400   298.15135      2793.5563           5088   0.99153122   
    617500   298.42592      3507.2493           5088   0.99153122   
    617600   305.79575      3423.8757           5088   0.99153122   
    617700   301.37907      2953.9409           5088   0.99153122   
    617800   299.20847      2409.8988           5088   0.99153122   
    617900   296.39423      2352.4889           5088   0.99153122   
    618000   294.83534      3008.0408           5088   0.99153122   
    618100   297.7102       3394.6383           5088   0.99153122   
    618200   299.77724      3361.8504           5088   0.99153122   
    618300   303.56116      2788.3918           5088   0.99153122   
    618400   298.96722      2474.7109           5088   0.99153122   
    618500   292.16049      2737.422            5088   0.99153122   
    618600   298.50944      3265.5697           5088   0.99153122   
    618700   304.0963       3455.3759           5088   0.99153122   
    618800   298.95338      3146.9401           5088   0.99153122   
    618900   296.20521      2590.246            5088   0.99153122   
    619000   299.45296      2453.8044           5088   0.99153122   
    619100   306.87554      2808.2116           5088   0.99153122   
    619200   300.90383      3294.9689           5088   0.99153122   
    619300   296.70587      3452.6878           5088   0.99153122   
    619400   299.49637      2985.3405           5088   0.99153122   
    619500   302.8539       2465.2885           5088   0.99153122   
    619600   294.84061      2720.9337           5088   0.99153122   
    619700   296.98394      3006.0509           5088   0.99153122   
    619800   299.41514      3392.1804           5088   0.99153122   
    619900   300.82371      3295.381            5088   0.99153122   
    620000   302.26748      2735.9015           5088   0.99153122   
    620100   298.48297      2247.6759           5088   0.99153122   
    620200   293.80115      2517.7328           5088   0.99153122   
    620300   298.94365      3273.8794           5088   0.99153122   
    620400   301.99636      3637.8552           5088   0.99153122   
    620500   301.27386      3307.7355           5088   0.99153122   
    620600   297.72606      2703.1607           5088   0.99153122   
    620700   295.34638      2363.3874           5088   0.99153122   
    620800   298.99232      2692.3397           5088   0.99153122   
    620900   301.89833      3511.8083           5088   0.99153122   
    621000   305.43608      3444.7421           5088   0.99153122   
    621100   295.65243      3111.8908           5088   0.99153122   
    621200   297.8359       2588.7251           5088   0.99153122   
    621300   301.4071       2502.773            5088   0.99153122   
    621400   302.97858      2799.839            5088   0.99153122   
    621500   290.27937      3442.6816           5088   0.99153122   
    621600   293.44094      3401.0319           5088   0.99153122   
    621700   302.20354      2785.2617           5088   0.99153122   
    621800   297.61334      2653.7407           5088   0.99153122   
    621900   307.49541      2531.1696           5088   0.99153122   
    622000   299.14107      3113.4744           5088   0.99153122   
    622100   298.08985      3344.2688           5091   0.99211585   
    622200   302.8285       2946.309            5091   0.99211585   
    622300   293.97953      2734.381            5091   0.99211585   
    622400   298.06435      2582.5745           5091   0.99211585   
    622500   306.39321      2643.6258           5091   0.99211585   
    622600   300.8576       3147.494            5091   0.99211585   
    622700   294.58573      3541.9003           5091   0.99211585   
    622800   303.25706      3162.0137           5091   0.99211585   
    622900   303.02183      2564.5904           5091   0.99211585   
    623000   293.72498      2316.8025           5091   0.99211585   
    623100   297.01138      2585.4632           5091   0.99211585   
    623200   294.93692      3504.9947           5091   0.99211585   
    623300   303.50571      3623.7661           5091   0.99211585   
    623400   298.88442      3288.8913           5091   0.99211585   
    623500   302.44232      2289.5089           5091   0.99211585   
    623600   291.87848      2346.9596           5091   0.99211585   
    623700   295.91932      2858.346            5091   0.99211585   
    623800   299.58731      3391.007            5091   0.99211585   
    623900   300.51734      3363.6274           5091   0.99211585   
    624000   302.49154      2647.6373           5091   0.99211585   
    624100   292.02477      2353.8983           5097   0.99328511   
    624200   296.22174      2545.4551           5097   0.99328511   
    624300   301.17081      3103.2468           5097   0.99328511   
    624400   298.9558       3489.2969           5097   0.99328511   
    624500   296.25247      3217.2143           5097   0.99328511   
    624600   299.53381      2632.7238           5097   0.99328511   
    624700   307.01415      2239.1248           5097   0.99328511   
    624800   298.94669      2681.1895           5097   0.99328511   
    624900   297.62462      3194.3232           5097   0.99328511   
    625000   301.05133      3333.2936           5097   0.99328511   
    625100   302.05323      2770.1712           5097   0.99328511   
    625200   291.65187      2332.36             5097   0.99328511   
    625300   293.08895      2388.2685           5097   0.99328511   
    625400   302.03911      2691.2351           5097   0.99328511   
    625500   300.59892      3378.5136           5097   0.99328511   
    625600   295.30971      3511.5114           5097   0.99328511   
    625700   296.94213      2860.9042           5097   0.99328511   
    625800   301.60436      2560.6027           5097   0.99328511   
    625900   303.59019      2583.2934           5097   0.99328511   
    626000   298.7554       3185.4555           5097   0.99328511   
    626100   297.62874      3554.9102           5100   0.99386974   
    626200   298.80106      3300.7902           5100   0.99386974   
    626300   300.97935      2614.0045           5100   0.99386974   
    626400   300.52907      2052.1067           5100   0.99386974   
    626500   294.35958      2442.7803           5100   0.99386974   
    626600   296.82924      3261.3951           5100   0.99386974   
    626700   304.63926      3532.2985           5100   0.99386974   
    626800   302.36909      3054.2657           5100   0.99386974   
    626900   292.32634      2729.0568           5100   0.99386974   
    627000   299.92604      2421.9767           5100   0.99386974   
    627100   301.68559      2930.9618           5100   0.99386974   
    627200   300.65812      3393.6315           5100   0.99386974   
    627300   295.87901      3610.3638           5100   0.99386974   
    627400   299.49667      2961.2104           5100   0.99386974   
    627500   309.24985      2366.6025           5100   0.99386974   
    627600   301.87929      2449.4638           5100   0.99386974   
    627700   298.02634      2886.0165           5100   0.99386974   
    627800   296.90332      3301.7899           5100   0.99386974   
    627900   295.5511       3374.3064           5100   0.99386974   
    628000   301.94711      2963.4738           5100   0.99386974   
    628100   302.65959      2306.327            5100   0.99386974   
    628200   297.81637      2372.3834           5100   0.99386974   
    628300   295.86844      2926.014            5100   0.99386974   
    628400   300.28078      3319.6429           5100   0.99386974   
    628500   300.8566       3370.3848           5100   0.99386974   
    628600   307.85807      2840.6576           5100   0.99386974   
    628700   301.71276      2521.4321           5100   0.99386974   
    628800   299.74085      2556.3654           5100   0.99386974   
    628900   300.19831      3067.2551           5100   0.99386974   
    629000   296.18851      3545.3226           5100   0.99386974   
    629100   301.14779      3187.1126           5100   0.99386974   
    629200   307.76915      2394.3509           5100   0.99386974   
    629300   294.96682      2306.4947           5100   0.99386974   
    629400   296.63652      2612.2344           5100   0.99386974   
    629500   300.89438      3279.7533           5100   0.99386974   
    629600   300.22122      3661.0597           5100   0.99386974   
    629700   301.24935      3112.0294           5100   0.99386974   
    629800   295.25839      2430.0761           5100   0.99386974   
    629900   293.3573       2335.9618           5100   0.99386974   
    630000   297.10102      3071.3646           5100   0.99386974   
    630100   299.43508      3686.5052           5103   0.99445437   
    630200   301.94442      3510.6196           5103   0.99445437   
    630300   297.67975      2839.7542           5103   0.99445437   
    630400   296.03286      2227.6463           5103   0.99445437   
    630500   293.89009      2583.3645           5103   0.99445437   
    630600   297.41028      3202.7452           5103   0.99445437   
    630700   300.23139      3638.483            5103   0.99445437   
    630800   296.30239      3657.4672           5103   0.99445437   
    630900   304.74906      2803.5907           5103   0.99445437   
    631000   302.81817      2360.0235           5103   0.99445437   
    631100   297.75561      2508.067            5103   0.99445437   
    631200   296.04023      3072.5531           5103   0.99445437   
    631300   297.20785      3538.0749           5103   0.99445437   
    631400   302.97909      3204.1081           5103   0.99445437   
    631500   302.45233      2420.0472           5103   0.99445437   
    631600   296.80784      2278.227            5103   0.99445437   
    631700   295.50419      2808.2489           5103   0.99445437   
    631800   300.09736      3358.7229           5103   0.99445437   
    631900   300.39527      3502.4897           5103   0.99445437   
    632000   298.01489      3020.5112           5103   0.99445437   
    632100   297.6747       2495.9344           5106   0.995039     
    632200   298.61801      2535.0309           5106   0.995039     
    632300   300.50389      2943.1032           5106   0.995039     
    632400   298.78754      3390.0724           5106   0.995039     
    632500   297.15409      3325.6718           5106   0.995039     
    632600   297.59705      2812.1345           5106   0.995039     
    632700   302.10686      2322.7062           5106   0.995039     
    632800   298.6017       2564.0941           5106   0.995039     
    632900   292.37646      3154.2605           5106   0.995039     
    633000   296.76173      3398.9474           5106   0.995039     
    633100   301.93716      3206.9723           5106   0.995039     
    633200   299.73863      2601.9985           5106   0.995039     
    633300   299.23931      2263.7518           5106   0.995039     
    633400   294.34787      2707.7588           5106   0.995039     
    633500   300.37413      3301.6491           5106   0.995039     
    633600   306.83067      3500.7616           5106   0.995039     
    633700   301.195        3069.3602           5106   0.995039     
    633800   295.91707      2530.6986           5106   0.995039     
    633900   298.66614      2419.3413           5106   0.995039     
    634000   301.91119      2895.7211           5106   0.995039     
    634100   302.06556      3333.2479           5112   0.99620826   
    634200   291.36846      3470.9692           5112   0.99620826   
    634300   295.07397      2958.5587           5112   0.99620826   
    634400   302.7175       2377.8407           5112   0.99620826   
    634500   300.00489      2435.8057           5112   0.99620826   
    634600   294.24845      3023.0903           5112   0.99620826   
    634700   299.30195      3299.6106           5112   0.99620826   
    634800   300.32221      3120.4018           5112   0.99620826   
    634900   294.27894      2804.1755           5112   0.99620826   
    635000   300.248        2511.1561           5112   0.99620826   
    635100   302.24929      2747.9568           5112   0.99620826   
    635200   294.12382      3366.1328           5112   0.99620826   
    635300   296.28418      3512.4172           5112   0.99620826   
    635400   300.6991       3270.6658           5112   0.99620826   
    635500   304.2566       2787.498            5112   0.99620826   
    635600   301.37466      2543.8484           5112   0.99620826   
    635700   297.15954      2886.5567           5112   0.99620826   
    635800   294.30499      3504.6383           5112   0.99620826   
    635900   303.25775      3449.8062           5112   0.99620826   
    636000   300.69123      3061.7255           5112   0.99620826   
    636100   290.86503      2595.5297           5115   0.99679289   
    636200   292.74666      2743.6551           5115   0.99679289   
    636300   301.09667      3012.1518           5115   0.99679289   
    636400   297.97961      3411.8724           5115   0.99679289   
    636500   294.4924       3342.2734           5115   0.99679289   
    636600   302.11251      2653.5924           5115   0.99679289   
    636700   307.33464      2403.4863           5115   0.99679289   
    636800   296.0789       2717.9213           5115   0.99679289   
    636900   294.66076      3257.4732           5115   0.99679289   
    637000   301.51488      3427.8004           5115   0.99679289   
    637100   298.39829      3300.0749           5115   0.99679289   
    637200   296.71803      2648.4573           5115   0.99679289   
    637300   291.10388      2461.4263           5115   0.99679289   
    637400   299.88184      2820.4357           5115   0.99679289   
    637500   299.1598       3397.8314           5115   0.99679289   
    637600   300.39105      3401.3621           5115   0.99679289   
    637700   292.06891      3192.8106           5115   0.99679289   
    637800   298.63448      2590.5698           5115   0.99679289   
    637900   306.21016      2606.3193           5115   0.99679289   
    638000   297.83009      3025.6931           5115   0.99679289   
    638100   299.06855      3214.4471           5115   0.99679289   
    638200   297.53078      3295.427            5115   0.99679289   
    638300   296.07675      3100.1599           5115   0.99679289   
    638400   305.53892      2585.5578           5115   0.99679289   
    638500   301.68824      2529.6073           5115   0.99679289   
    638600   292.42695      3085.9297           5115   0.99679289   
    638700   300.78412      3266.5787           5115   0.99679289   
    638800   299.9333       3261.7418           5115   0.99679289   
    638900   299.3742       2651.7836           5115   0.99679289   
    639000   292.28924      2491.1362           5115   0.99679289   
    639100   297.12613      2642.0173           5115   0.99679289   
    639200   301.71708      3160.9647           5115   0.99679289   
    639300   304.37538      3178.2841           5115   0.99679289   
    639400   296.70011      3032.672            5115   0.99679289   
    639500   293.53606      2691.5991           5115   0.99679289   
    639600   300.13962      2562.866            5115   0.99679289   
    639700   301.92492      2886.3619           5115   0.99679289   
    639800   294.30346      3489.4693           5115   0.99679289   
    639900   294.4633       3592.0385           5115   0.99679289   
    640000   304.77363      3117.9025           5115   0.99679289   
    640100   304.16859      2551.401            5124   0.99854677   
    640200   296.17686      2443.5477           5124   0.99854677   
    640300   294.10757      2870.1669           5124   0.99854677   
    640400   295.26401      3479.2472           5124   0.99854677   
    640500   304.96746      3262.0207           5124   0.99854677   
    640600   297.49849      2815.2671           5124   0.99854677   
    640700   297.70398      2356.3814           5124   0.99854677   
    640800   296.64473      2508.2635           5124   0.99854677   
    640900   294.80349      2997.6593           5124   0.99854677   
    641000   303.21968      3487.9882           5124   0.99854677   
    641100   301.55516      3337.7615           5124   0.99854677   
    641200   296.27885      2696.104            5124   0.99854677   
    641300   295.48977      2489.4071           5124   0.99854677   
    641400   297.75678      2652.7574           5124   0.99854677   
    641500   298.36635      3196.1321           5124   0.99854677   
    641600   302.0428       3374.5823           5124   0.99854677   
    641700   301.32441      3013.1649           5124   0.99854677   
    641800   292.88445      2679.8816           5124   0.99854677   
    641900   298.08988      2410.6799           5124   0.99854677   
    642000   298.41897      2812.425            5124   0.99854677   
    642100   299.73476      3276.8221           5127   0.9991314    
    642200   301.3671       3397.6088           5127   0.9991314    
    642300   296.32439      3039.9756           5127   0.9991314    
    642400   292.4117       2588.0467           5127   0.9991314    
    642500   299.8679       2451.7175           5127   0.9991314    
    642600   302.7729       2995.7345           5127   0.9991314    
    642700   299.53096      3332.8506           5127   0.9991314    
    642800   292.12408      3298.8715           5127   0.9991314    
    642900   295.76566      2892.5173           5127   0.9991314    
    643000   303.29429      2334.2412           5127   0.9991314    
    643100   296.80667      2542.8113           5127   0.9991314    
    643200   294.20563      3104.9733           5127   0.9991314    
    643300   299.49326      3278.8132           5127   0.9991314    
    643400   295.39643      3352.4008           5127   0.9991314    
    643500   298.67205      2845.8373           5127   0.9991314    
    643600   302.60498      2560.81             5127   0.9991314    
    643700   293.93151      2891.1409           5127   0.9991314    
    643800   296.46642      3194.2412           5127   0.9991314    
    643900   297.1645       3379.9725           5127   0.9991314    
    644000   297.42326      3239.277            5127   0.9991314    
    644100   304.89062      2544.5276           5124   0.99854677   
    644200   292.83904      2751.6703           5124   0.99854677   
    644300   295.54763      2932.9899           5124   0.99854677   
    644400   296.91015      3446.4876           5124   0.99854677   
    644500   297.03879      3624.385            5124   0.99854677   
    644600   301.16123      3184.5339           5124   0.99854677   
    644700   296.56058      2792.7126           5124   0.99854677   
    644800   292.33881      2586.0855           5124   0.99854677   
    644900   296.40865      2871.5276           5124   0.99854677   
    645000   298.69081      3274.5974           5124   0.99854677   
    645100   296.31015      3339.8609           5124   0.99854677   
    645200   301.88699      2873.7205           5124   0.99854677   
    645300   303.07243      2668.8591           5124   0.99854677   
    645400   296.16416      2806.7994           5124   0.99854677   
    645500   293.1271       3267.3684           5124   0.99854677   
    645600   298.46349      3467.9337           5124   0.99854677   
    645700   298.76403      3241.9816           5124   0.99854677   
    645800   298.24055      2709.2675           5124   0.99854677   
    645900   290.39949      2437.0508           5124   0.99854677   
    646000   293.43851      2589.9452           5124   0.99854677   
    646100   294.13223      3398.624            5118   0.99737752   
    646200   302.71314      3352.5151           5118   0.99737752   
    646300   295.32049      3244.7394           5118   0.99737752   
    646400   297.36586      2766.3684           5118   0.99737752   
    646500   298.60602      2857.3713           5118   0.99737752   
    646600   303.11614      3262.4885           5118   0.99737752   
    646700   303.79324      3393.374            5118   0.99737752   
    646800   295.51648      3497.9918           5118   0.99737752   
    646900   296.35375      3076.5257           5118   0.99737752   
    647000   300.25463      2698.7758           5118   0.99737752   
    647100   300.27257      2632.4538           5118   0.99737752   
    647200   295.01593      2900.8397           5118   0.99737752   
    647300   294.80643      3222.5452           5118   0.99737752   
    647400   297.58959      3175.6212           5118   0.99737752   
    647500   299.81728      2646.9992           5118   0.99737752   
    647600   296.12314      2387.0167           5118   0.99737752   
    647700   298.70378      2472.3654           5118   0.99737752   
    647800   297.77889      2988.6521           5118   0.99737752   
    647900   297.20133      3282.8806           5118   0.99737752   
    648000   294.54558      3152.9611           5118   0.99737752   
    648100   298.84949      2714.8521           5121   0.99796215   
    648200   298.72951      2759.5005           5121   0.99796215   
    648300   303.31003      2850.8549           5121   0.99796215   
    648400   293.71521      3349.0285           5121   0.99796215   
    648500   296.1615       3443.8727           5121   0.99796215   
    648600   300.33313      2888.183            5121   0.99796215   
    648700   294.60459      2541.4814           5121   0.99796215   
    648800   295.28433      2326.5597           5121   0.99796215   
    648900   293.08843      2997.2293           5121   0.99796215   
    649000   301.94491      3489.3852           5121   0.99796215   
    649100   301.49645      3438.415            5121   0.99796215   
    649200   295.35246      2900.8446           5121   0.99796215   
    649300   299.02035      2276.6603           5121   0.99796215   
    649400   298.14455      2369.1477           5121   0.99796215   
    649500   292.15877      3012.9833           5121   0.99796215   
    649600   294.55412      3402.8052           5121   0.99796215   
    649700   300.75965      3357.7916           5121   0.99796215   
    649800   302.85867      2615.3537           5121   0.99796215   
    649900   295.23264      2367.1892           5121   0.99796215   
    650000   294.64822      2637.9943           5121   0.99796215   
    650100   298.06475      3225.327            5121   0.99796215   
    650200   301.84481      3540.0565           5121   0.99796215   
    650300   303.68631      3190.2772           5121   0.99796215   
    650400   296.38096      2625.7051           5121   0.99796215   
    650500   295.53367      2225.4652           5121   0.99796215   
    650600   295.16462      2702.0511           5121   0.99796215   
    650700   302.86984      3315.3242           5121   0.99796215   
    650800   299.98296      3448.2437           5121   0.99796215   
    650900   293.1478       3078.7258           5121   0.99796215   
    651000   298.93187      2345.9801           5121   0.99796215   
    651100   304.33959      2585.6955           5121   0.99796215   
    651200   305.54217      3084.7326           5121   0.99796215   
    651300   298.94419      3463.3178           5121   0.99796215   
    651400   293.3005       3508.7684           5121   0.99796215   
    651500   295.66328      3052.8566           5121   0.99796215   
    651600   305.95981      2368.0015           5121   0.99796215   
    651700   300.73704      2349.6615           5121   0.99796215   
    651800   294.53484      3097.4063           5121   0.99796215   
    651900   297.13773      3568.7402           5121   0.99796215   
    652000   302.40518      3339.1463           5121   0.99796215   
    652100   301.12343      2666.2681           5121   0.99796215   
    652200   292.10374      2348.6085           5121   0.99796215   
    652300   296.48401      2620.5026           5121   0.99796215   
    652400   300.94146      3192.9756           5121   0.99796215   
    652500   296.52607      3551.2975           5121   0.99796215   
    652600   293.11449      3239.0344           5121   0.99796215   
    652700   298.2325       2837.6179           5121   0.99796215   
    652800   303.89522      2502.4069           5121   0.99796215   
    652900   298.00788      2864.0115           5121   0.99796215   
    653000   295.07786      3346.9297           5121   0.99796215   
    653100   300.77179      3325.3856           5121   0.99796215   
    653200   302.63847      2740.0697           5121   0.99796215   
    653300   291.36569      2275.4116           5121   0.99796215   
    653400   292.93008      2348.3877           5121   0.99796215   
    653500   299.92475      2842.3623           5121   0.99796215   
    653600   301.23083      3341.3148           5121   0.99796215   
    653700   294.22028      3396.7679           5121   0.99796215   
    653800   293.71977      2815.3659           5121   0.99796215   
    653900   305.39935      2332.0333           5121   0.99796215   
    654000   299.36342      2550.7452           5121   0.99796215   
    654100   296.86375      3149.4132           5121   0.99796215   
    654200   296.57051      3519.2636           5121   0.99796215   
    654300   296.52754      3186.1843           5121   0.99796215   
    654400   297.63578      2696.92             5121   0.99796215   
    654500   303.62876      2313.1125           5121   0.99796215   
    654600   295.28897      2861.895            5121   0.99796215   
    654700   294.62291      3265.0552           5121   0.99796215   
    654800   299.9144       3384.288            5121   0.99796215   
    654900   302.65602      3094.7316           5121   0.99796215   
    655000   294.907        2763.3729           5121   0.99796215   
    655100   296.77309      2558.7861           5121   0.99796215   
    655200   309.57621      3002.8631           5121   0.99796215   
    655300   302.03662      3364.6581           5121   0.99796215   
    655400   293.83286      3417.6352           5121   0.99796215   
    655500   294.0642       2968.417            5121   0.99796215   
    655600   301.42521      2555.8521           5121   0.99796215   
    655700   300.99631      2594.5041           5121   0.99796215   
    655800   292.94349      3099.5795           5121   0.99796215   
    655900   297.83761      3231.9105           5121   0.99796215   
    656000   295.57285      3333.4814           5121   0.99796215   
    656100   305.46455      3033.0613           5124   0.99854677   
    656200   304.7266       2624.3848           5124   0.99854677   
    656300   297.71756      2576.7856           5124   0.99854677   
    656400   295.82541      3005.0372           5124   0.99854677   
    656500   295.47553      3432.4442           5124   0.99854677   
    656600   303.16906      3131.1698           5124   0.99854677   
    656700   295.62863      2940.0119           5124   0.99854677   
    656800   295.64602      2401.7385           5124   0.99854677   
    656900   289.75253      2714.1446           5124   0.99854677   
    657000   300.38435      3148.4582           5124   0.99854677   
    657100   296.35943      3733.8367           5124   0.99854677   
    657200   302.78034      3074.3803           5124   0.99854677   
    657300   293.15723      2710.656            5124   0.99854677   
    657400   295.80473      2445.8341           5124   0.99854677   
    657500   301.94135      2658.4169           5124   0.99854677   
    657600   293.81919      3513.5177           5124   0.99854677   
    657700   295.75252      3650.2843           5124   0.99854677   
    657800   302.15637      3088.194            5124   0.99854677   
    657900   298.38696      2544.393            5124   0.99854677   
    658000   294.43942      2611.6537           5124   0.99854677   
    658100   295.43027      3231.9967           5121   0.99796215   
    658200   301.28177      3632.5145           5121   0.99796215   
    658300   300.72921      3395.775            5121   0.99796215   
    658400   298.56364      2704.5147           5121   0.99796215   
    658500   295.58126      2418.5264           5121   0.99796215   
    658600   298.27463      2584.8184           5121   0.99796215   
    658700   299.51364      3204.4076           5121   0.99796215   
    658800   297.76459      3630.7989           5121   0.99796215   
    658900   298.8899       3357.3286           5121   0.99796215   
    659000   295.65687      2877.8987           5121   0.99796215   
    659100   300.56894      2405.9373           5121   0.99796215   
    659200   299.66703      2610.4873           5121   0.99796215   
    659300   293.37244      3152.6231           5121   0.99796215   
    659400   294.31912      3470.9189           5121   0.99796215   
    659500   301.36311      3075.0721           5121   0.99796215   
    659600   299.23858      2598.3772           5121   0.99796215   
    659700   297.91091      2318.4862           5121   0.99796215   
    659800   295.8971       2692.0384           5121   0.99796215   
    659900   295.32866      3389.4595           5121   0.99796215   
    660000   306.02746      3278.0008           5121   0.99796215   
    660100   298.78356      2866.1305           5127   0.9991314    
    660200   293.32421      2503.1416           5127   0.9991314    
    660300   297.46951      2504.7501           5127   0.9991314    
    660400   298.79138      3096.3508           5127   0.9991314    
    660500   301.66807      3352.1093           5127   0.9991314    
    660600   296.58069      3282.1033           5127   0.9991314    
    660700   295.51378      2768.3129           5127   0.9991314    
    660800   298.61197      2298.0091           5127   0.9991314    
    660900   299.48307      2412.5243           5127   0.9991314    
    661000   292.69698      3072.986            5127   0.9991314    
    661100   294.9849       3253.0976           5127   0.9991314    
    661200   298.25221      3273.5275           5127   0.9991314    
    661300   300.99354      2705.4471           5127   0.9991314    
    661400   296.40899      2459.3628           5127   0.9991314    
    661500   295.8866       2710.2302           5127   0.9991314    
    661600   296.20985      3288.9886           5127   0.9991314    
    661700   307.55901      3357.7272           5127   0.9991314    
    661800   304.294        3047.1961           5127   0.9991314    
    661900   294.04823      2613.6155           5127   0.9991314    
    662000   293.36157      2590.9158           5127   0.9991314    
    662100   303.30303      2892.5701           5136   1.0008853    
    662200   298.50416      3456.8978           5136   1.0008853    
    662300   292.35033      3551.6442           5136   1.0008853    
    662400   297.17669      2897.8424           5136   1.0008853    
    662500   298.34868      2418.2235           5136   1.0008853    
    662600   296.43745      2603.8483           5136   1.0008853    
    662700   292.20859      3221.0176           5136   1.0008853    
    662800   299.25267      3467.5371           5136   1.0008853    
    662900   295.87941      3468.3962           5136   1.0008853    
    663000   298.17186      2892.4574           5136   1.0008853    
    663100   302.03501      2367.75             5136   1.0008853    
    663200   296.23916      2539.4609           5136   1.0008853    
    663300   294.16368      3159.9167           5136   1.0008853    
    663400   296.06392      3533.546            5136   1.0008853    
    663500   299.74132      3217.5633           5136   1.0008853    
    663600   301.86536      2606.5113           5136   1.0008853    
    663700   301.02931      2349.1931           5136   1.0008853    
    663800   293.21139      2799.9651           5136   1.0008853    
    663900   294.57549      3444.894            5136   1.0008853    
    664000   300.37907      3583.4578           5136   1.0008853    
    664100   300.38732      3123.7722           5133   1.0003007    
    664200   297.63058      2269.864            5133   1.0003007    
    664300   290.54081      2222.8565           5133   1.0003007    
    664400   294.96345      2883.6147           5133   1.0003007    
    664500   299.19623      3548.1584           5133   1.0003007    
    664600   298.30941      3587.1094           5133   1.0003007    
    664700   294.33881      2954.5776           5133   1.0003007    
    664800   291.44359      2200.0821           5133   1.0003007    
    664900   291.06388      2586.3305           5133   1.0003007    
    665000   298.21853      3345.2064           5133   1.0003007    
    665100   297.22276      3980.3122           5133   1.0003007    
    665200   300.63657      3490.3231           5133   1.0003007    
    665300   293.61505      2752.9473           5133   1.0003007    
    665400   295.13749      2210.8278           5133   1.0003007    
    665500   293.65068      2820.0322           5133   1.0003007    
    665600   305.307        3462.2682           5133   1.0003007    
    665700   302.43295      3754.167            5133   1.0003007    
    665800   299.78313      3109.7422           5133   1.0003007    
    665900   291.99997      2536.5089           5133   1.0003007    
    666000   295.71797      2278.3762           5133   1.0003007    
    666100   300.61552      2847.6858           5136   1.0008853    
    666200   299.80507      3536.1573           5136   1.0008853    
    666300   295.05539      3690.1109           5136   1.0008853    
    666400   297.38904      3019.2666           5136   1.0008853    
    666500   295.43073      2467.3205           5136   1.0008853    
    666600   298.80579      2342.0999           5136   1.0008853    
    666700   298.80239      2843.9818           5136   1.0008853    
    666800   290.36607      3559.4767           5136   1.0008853    
    666900   299.76885      3250.4685           5136   1.0008853    
    667000   299.82576      2559.1544           5136   1.0008853    
    667100   287.00006      2210.6548           5136   1.0008853    
    667200   289.92396      2457.613            5136   1.0008853    
    667300   297.94261      3124.0228           5136   1.0008853    
    667400   298.36714      3671.0909           5136   1.0008853    
    667500   299.52733      3332.4345           5136   1.0008853    
    667600   293.03147      2730.2997           5136   1.0008853    
    667700   291.22168      2417.847            5136   1.0008853    
    667800   302.28245      2674.4167           5136   1.0008853    
    667900   301.49031      3284.948            5136   1.0008853    
    668000   294.54796      3749.3771           5136   1.0008853    
    668100   294.85015      3318.1419           5142   1.0020545    
    668200   297.07461      2651.3311           5142   1.0020545    
    668300   302.33218      2436.2514           5142   1.0020545    
    668400   304.93182      2745.7813           5142   1.0020545    
    668500   296.6841       3366.3098           5142   1.0020545    
    668600   294.53251      3474.2689           5142   1.0020545    
    668700   295.48816      2990.3128           5142   1.0020545    
    668800   298.83619      2444.6996           5142   1.0020545    
    668900   299.27695      2582.214            5142   1.0020545    
    669000   297.26397      3076.3974           5142   1.0020545    
    669100   289.96386      3723.9313           5142   1.0020545    
    669200   297.0194       3572.2487           5142   1.0020545    
    669300   297.09936      3034.7992           5142   1.0020545    
    669400   299.28848      2287.561            5142   1.0020545    
    669500   293.43338      2374.534            5142   1.0020545    
    669600   292.72308      3190.5265           5142   1.0020545    
    669700   298.49703      3633.0084           5142   1.0020545    
    669800   298.9294       3364.0935           5142   1.0020545    
    669900   296.26607      2538.4592           5142   1.0020545    
    670000   287.21085      2431.566            5142   1.0020545    
    670100   297.48489      2636.2812           5142   1.0020545    
    670200   296.02554      3425.9823           5142   1.0020545    
    670300   300.05673      3501.032            5142   1.0020545    
    670400   292.4299       3110.4638           5142   1.0020545    
    670500   292.42006      2363.554            5142   1.0020545    
    670600   300.77596      2303.0611           5142   1.0020545    
    670700   296.69859      2983.8797           5142   1.0020545    
    670800   297.50926      3452.1347           5142   1.0020545    
    670900   295.35121      3449.7238           5142   1.0020545    
    671000   297.72159      2751.7105           5142   1.0020545    
    671100   290.08696      2427.8985           5142   1.0020545    
    671200   295.17933      2497.0064           5142   1.0020545    
    671300   302.10636      3133.2241           5142   1.0020545    
    671400   297.07908      3652.255            5142   1.0020545    
    671500   292.94061      3582.1008           5142   1.0020545    
    671600   296.479        2886.4737           5142   1.0020545    
    671700   294.97539      2606.011            5142   1.0020545    
    671800   297.01592      2765.4833           5142   1.0020545    
    671900   296.65446      3385.8546           5142   1.0020545    
    672000   298.63357      3560.1423           5142   1.0020545    
    672100   293.18166      3226.318            5151   1.0038084    
    672200   289.49973      2511.0254           5151   1.0038084    
    672300   289.47786      2449.5351           5151   1.0038084    
    672400   299.4625       2752.4054           5151   1.0038084    
    672500   295.83665      3524.7089           5151   1.0038084    
    672600   297.89914      3545.6201           5151   1.0038084    
    672700   294.36686      3091.912            5151   1.0038084    
    672800   292.30217      2362.2711           5151   1.0038084    
    672900   292.76928      2260.1275           5151   1.0038084    
    673000   300.35846      2875.4095           5151   1.0038084    
    673100   300.69618      3441.4108           5151   1.0038084    
    673200   293.39291      3531.1865           5151   1.0038084    
    673300   297.02623      2782.6592           5151   1.0038084    
    673400   295.48458      2298.0871           5151   1.0038084    
    673500   293.02594      2603.1137           5151   1.0038084    
    673600   303.06411      3296.8772           5151   1.0038084    
    673700   298.45314      3743.2774           5151   1.0038084    
    673800   296.08786      3329.9633           5151   1.0038084    
    673900   293.60183      2662.8077           5151   1.0038084    
    674000   296.20195      2429.1539           5151   1.0038084    
    674100   299.8716       2733.5824           5160   1.0055623    
    674200   298.37628      3383.5172           5160   1.0055623    
    674300   292.66438      3620.6063           5160   1.0055623    
    674400   292.24412      3178.0891           5160   1.0055623    
    674500   298.46723      2542.6573           5160   1.0055623    
    674600   299.68225      2374.4581           5160   1.0055623    
    674700   293.27768      2704.8041           5160   1.0055623    
    674800   291.22054      3209.4061           5160   1.0055623    
    674900   293.86181      3507.8088           5160   1.0055623    
    675000   298.30919      3079.3421           5160   1.0055623    
    675100   295.4243       2648.3968           5160   1.0055623    
    675200   294.58205      2631.529            5160   1.0055623    
    675300   296.95281      3027.3865           5160   1.0055623    
    675400   295.48812      3405.9295           5160   1.0055623    
    675500   290.66064      3446.5006           5160   1.0055623    
    675600   296.42372      2867.7888           5160   1.0055623    
    675700   297.11505      2654.9365           5160   1.0055623    
    675800   299.44312      2758.5555           5160   1.0055623    
    675900   291.15015      3202.5906           5160   1.0055623    
    676000   294.1866       3313.3235           5160   1.0055623    
    676100   294.37459      3316.0566           5163   1.006147     
    676200   299.92325      2722.3191           5163   1.006147     
    676300   295.8738       2483.3434           5163   1.006147     
    676400   289.51782      2602.724            5163   1.006147     
    676500   290.45552      3336.1188           5163   1.006147     
    676600   294.34007      3589.1545           5163   1.006147     
    676700   298.94853      3073.705            5163   1.006147     
    676800   295.57831      2556.9307           5163   1.006147     
    676900   292.89094      2231.9536           5163   1.006147     
    677000   289.26553      2733.4438           5163   1.006147     
    677100   299.72715      3329.7836           5163   1.006147     
    677200   296.50789      3540.3338           5163   1.006147     
    677300   296.64057      2917.5437           5163   1.006147     
    677400   295.22835      2236.9503           5163   1.006147     
    677500   286.95014      2591.7192           5163   1.006147     
    677600   294.16963      3102.5785           5163   1.006147     
    677700   297.88609      3469.8814           5163   1.006147     
    677800   291.58559      3622.7494           5163   1.006147     
    677900   297.41179      3053.6544           5163   1.006147     
    678000   300.50305      2794.3377           5163   1.006147     
    678100   297.31856      2732.602            5172   1.0079008    
    678200   292.9987       3024.2784           5172   1.0079008    
    678300   292.5247       3330.2548           5172   1.0079008    
    678400   296.08862      3146.8549           5172   1.0079008    
    678500   301.44051      2688.4886           5172   1.0079008    
    678600   292.84355      2657.8244           5172   1.0079008    
    678700   287.59773      2815.2957           5172   1.0079008    
    678800   294.36117      3215.4215           5172   1.0079008    
    678900   297.8872       3394.1335           5172   1.0079008    
    679000   294.07112      3208.4469           5172   1.0079008    
    679100   295.51075      2725.2834           5172   1.0079008    
    679200   294.80123      2587.0398           5172   1.0079008    
    679300   291.94206      2761.7515           5172   1.0079008    
    679400   292.99457      2975.0872           5172   1.0079008    
    679500   288.44922      3344.4268           5172   1.0079008    
    679600   292.26101      3332.219            5172   1.0079008    
    679700   298.14001      2703.614            5172   1.0079008    
    679800   296.53592      2554.4226           5172   1.0079008    
    679900   289.40939      3010.1755           5172   1.0079008    
    680000   297.44369      3240.5536           5172   1.0079008    
    680100   293.70882      3486.585            5175   1.0084855    
    680200   298.35158      2801.7584           5175   1.0084855    
    680300   292.03775      2610.1245           5175   1.0084855    
    680400   296.04596      2489.1758           5175   1.0084855    
    680500   290.42587      2991.9193           5175   1.0084855    
    680600   288.49526      3247.3115           5175   1.0084855    
    680700   293.88558      3204.7975           5175   1.0084855    
    680800   298.34743      2792.3339           5175   1.0084855    
    680900   296.75242      2483.4926           5175   1.0084855    
    681000   290.07831      2721.7751           5175   1.0084855    
    681100   292.49491      3068.3804           5175   1.0084855    
    681200   294.88649      3288.4025           5175   1.0084855    
    681300   293.12171      3191.5557           5175   1.0084855    
    681400   297.65432      2560.0987           5175   1.0084855    
    681500   290.44703      2693.129            5175   1.0084855    
    681600   296.61292      2972.4362           5175   1.0084855    
    681700   300.71343      3503.983            5175   1.0084855    
    681800   297.32634      3394.2902           5175   1.0084855    
    681900   293.045        3011.8239           5175   1.0084855    
    682000   295.09463      2547.6766           5175   1.0084855    
    682100   293.82791      2644.6301           5175   1.0084855    
    682200   296.66055      3051.8085           5175   1.0084855    
    682300   301.04815      3366.8754           5175   1.0084855    
    682400   290.32384      3395.3995           5175   1.0084855    
    682500   292.69123      2794.8081           5175   1.0084855    
    682600   292.78646      2616.29             5175   1.0084855    
    682700   297.04384      2695.0563           5175   1.0084855    
    682800   294.19262      3136.4507           5175   1.0084855    
    682900   297.61471      3201.6871           5175   1.0084855    
    683000   291.29664      3115.4318           5175   1.0084855    
    683100   296.27229      2520.9424           5175   1.0084855    
    683200   294.30958      2557.2979           5175   1.0084855    
    683300   293.8548       2778.5769           5175   1.0084855    
    683400   289.16067      3292.2551           5175   1.0084855    
    683500   291.91242      3438.3907           5175   1.0084855    
    683600   296.83207      3140.4172           5175   1.0084855    
    683700   296.99285      2694.3948           5175   1.0084855    
    683800   291.37799      2668.7271           5175   1.0084855    
    683900   289.79187      3000.0897           5175   1.0084855    
    684000   287.5947       3389.2585           5175   1.0084855    
    684100   295.72089      3361.9688           5181   1.0096547    
    684200   297.1416       2905.3074           5181   1.0096547    
    684300   291.30972      2664.4705           5181   1.0096547    
    684400   291.14384      2919.4503           5181   1.0096547    
    684500   296.96901      3548.6208           5181   1.0096547    
    684600   300.86324      3703.7024           5181   1.0096547    
    684700   296.09308      3225.1319           5181   1.0096547    
    684800   291.34346      2755.7726           5181   1.0096547    
    684900   295.15846      2385.1825           5181   1.0096547    
    685000   296.42954      2737.7502           5181   1.0096547    
    685100   298.8159       3259.5893           5181   1.0096547    
    685200   291.01562      3450.3091           5181   1.0096547    
    685300   287.4757       3090.4347           5181   1.0096547    
    685400   294.59179      2708.3327           5181   1.0096547    
    685500   297.19187      2652.4861           5181   1.0096547    
    685600   293.76007      3056.9399           5181   1.0096547    
    685700   292.24161      3368.1379           5181   1.0096547    
    685800   294.45723      3205.2426           5181   1.0096547    
    685900   295.83014      3025.8226           5181   1.0096547    
    686000   301.62359      2591.4794           5181   1.0096547    
    686100   291.26047      2884.5319           5184   1.0102394    
    686200   294.12857      3138.919            5184   1.0102394    
    686300   291.57441      3538.3144           5184   1.0102394    
    686400   297.61128      3253.5167           5184   1.0102394    
    686500   302.90141      2822.1067           5184   1.0102394    
    686600   293.99474      2681.1323           5184   1.0102394    
    686700   291.63673      2870.9291           5184   1.0102394    
    686800   294.27711      3263.5466           5184   1.0102394    
    686900   297.70909      3482.259            5184   1.0102394    
    687000   295.4247       3048.4764           5184   1.0102394    
    687100   285.69466      2809.3006           5184   1.0102394    
    687200   294.80589      2488.3173           5184   1.0102394    
    687300   295.83285      2881.7158           5184   1.0102394    
    687400   292.39306      3491.804            5184   1.0102394    
    687500   301.52783      3486.5983           5184   1.0102394    
    687600   299.80921      3006.8092           5184   1.0102394    
    687700   294.48534      2539.9846           5184   1.0102394    
    687800   291.68662      2659.5624           5184   1.0102394    
    687900   293.99432      3161.7556           5184   1.0102394    
    688000   298.93651      3531.9765           5184   1.0102394    
    688100   295.82906      3309.6251           5175   1.0084855    
    688200   287.84948      2709.2898           5175   1.0084855    
    688300   290.50576      2441.7435           5175   1.0084855    
    688400   294.4551       2682.318            5175   1.0084855    
    688500   295.08996      3259.7982           5175   1.0084855    
    688600   295.13096      3544.6388           5175   1.0084855    
    688700   294.18948      3108.888            5175   1.0084855    
    688800   288.41395      2441.6521           5175   1.0084855    
    688900   289.44406      2326.7756           5175   1.0084855    
    689000   291.37516      2882.4546           5175   1.0084855    
    689100   296.38703      3337.0844           5175   1.0084855    
    689200   295.75498      3447.8599           5175   1.0084855    
    689300   293.87298      2952.627            5175   1.0084855    
    689400   288.28222      2550.6123           5175   1.0084855    
    689500   294.81851      2554.5504           5175   1.0084855    
    689600   301.12905      2708.5173           5175   1.0084855    
    689700   289.94043      3412.6564           5175   1.0084855    
    689800   292.57643      3380.4037           5175   1.0084855    
    689900   295.75504      3091.3866           5175   1.0084855    
    690000   297.69228      2754.5935           5175   1.0084855    
    690100   293.03144      2881.112            5172   1.0079008    
    690200   294.68606      3235.1683           5172   1.0079008    
    690300   294.30779      3541.8839           5172   1.0079008    
    690400   287.15149      3174.6961           5172   1.0079008    
    690500   286.52716      2900.5677           5172   1.0079008    
    690600   298.69514      2508.5072           5172   1.0079008    
    690700   293.66674      2986.3249           5172   1.0079008    
    690800   293.10153      3479.9878           5172   1.0079008    
    690900   292.78792      3642.9661           5172   1.0079008    
    691000   299.89712      3195.5663           5172   1.0079008    
    691100   296.77143      2806.6644           5172   1.0079008    
    691200   290.36503      2586.9576           5172   1.0079008    
    691300   292.58719      2871.8254           5172   1.0079008    
    691400   299.66012      3253.8134           5172   1.0079008    
    691500   302.96821      3516.8218           5172   1.0079008    
    691600   298.69897      3063.3043           5172   1.0079008    
    691700   292.58431      2545.832            5172   1.0079008    
    691800   291.93647      2688.3096           5172   1.0079008    
    691900   300.56367      2941.9156           5172   1.0079008    
    692000   293.32159      3480.3683           5172   1.0079008    
    692100   287.53083      3409.1294           5172   1.0079008    
    692200   299.762        2836.2188           5172   1.0079008    
    692300   299.67957      2603.9155           5172   1.0079008    
    692400   294.77963      2654.8289           5172   1.0079008    
    692500   291.29711      3204.1002           5172   1.0079008    
    692600   298.66559      3195.649            5172   1.0079008    
    692700   295.27702      2977.8691           5172   1.0079008    
    692800   287.83019      2483.7849           5172   1.0079008    
    692900   285.76998      2590.2183           5172   1.0079008    
    693000   293.09014      2951.8064           5172   1.0079008    
    693100   298.71029      3359.1689           5172   1.0079008    
    693200   295.67827      3564.7652           5172   1.0079008    
    693300   291.32546      3158.2244           5172   1.0079008    
    693400   289.00806      2851.4177           5172   1.0079008    
    693500   296.5857       2631.141            5172   1.0079008    
    693600   296.20605      2972.778            5172   1.0079008    
    693700   292.60616      3472.7652           5172   1.0079008    
    693800   295.49102      3373.9684           5172   1.0079008    
    693900   301.57214      2909.3743           5172   1.0079008    
    694000   296.13435      2691.2966           5172   1.0079008    
    694100   293.61125      2594.2007           5178   1.0090701    
    694200   290.78347      2982.0623           5178   1.0090701    
    694300   293.39568      3358.3786           5178   1.0090701    
    694400   299.61279      3342.5342           5178   1.0090701    
    694500   297.99937      2835.545            5178   1.0090701    
    694600   290.46528      2637.904            5178   1.0090701    
    694700   293.45279      2764.5224           5178   1.0090701    
    694800   295.98319      3434.1605           5178   1.0090701    
    694900   300.10187      3491.5977           5178   1.0090701    
    695000   297.71132      3171.2009           5178   1.0090701    
    695100   294.38588      2689.7626           5178   1.0090701    
    695200   289.95988      2708.0055           5178   1.0090701    
    695300   299.05635      2838.0689           5178   1.0090701    
    695400   298.77368      3210.3471           5178   1.0090701    
    695500   289.93735      3201.4828           5178   1.0090701    
    695600   291.66957      2821.3826           5178   1.0090701    
    695700   291.96831      2688.8792           5178   1.0090701    
    695800   298.6285       2702.1327           5178   1.0090701    
    695900   297.92425      2958.4004           5178   1.0090701    
    696000   290.59269      3406.8954           5178   1.0090701    
    696100   293.33247      3271.4782           5184   1.0102394    
    696200   293.4735       3054.9537           5184   1.0102394    
    696300   295.73979      2732.0592           5184   1.0102394    
    696400   291.82557      2732.8619           5184   1.0102394    
    696500   286.28811      3210.0819           5184   1.0102394    
    696600   297.24846      3322.1551           5184   1.0102394    
    696700   295.74107      3279.8258           5184   1.0102394    
    696800   293.78438      2853.9341           5184   1.0102394    
    696900   290.88857      2547.0123           5184   1.0102394    
    697000   287.96795      2864.7093           5184   1.0102394    
    697100   299.27389      3132.9078           5184   1.0102394    
    697200   297.02284      3337.7922           5184   1.0102394    
    697300   289.95298      3196.5288           5184   1.0102394    
    697400   292.65501      2707.0136           5184   1.0102394    
    697500   295.06097      2627.4167           5184   1.0102394    
    697600   297.80329      3000.7855           5184   1.0102394    
    697700   303.64364      3334.4407           5184   1.0102394    
    697800   299.12071      3168.2288           5184   1.0102394    
    697900   290.74542      2975.0291           5184   1.0102394    
    698000   290.30206      2816.7863           5184   1.0102394    
    698100   296.51379      2856.855            5187   1.010824     
    698200   298.05481      3055.8816           5187   1.010824     
    698300   292.94018      3321.0387           5187   1.010824     
    698400   293.39408      3099.7299           5187   1.010824     
    698500   292.11569      2769.331            5187   1.010824     
    698600   294.4159       2647.7506           5187   1.010824     
    698700   302.0311       2958.7197           5187   1.010824     
    698800   297.35653      3393.7865           5187   1.010824     
    698900   294.93742      3419.5286           5187   1.010824     
    699000   293.11702      3172.4391           5187   1.010824     
    699100   291.45439      2835.9319           5187   1.010824     
    699200   297.20819      2574.3527           5187   1.010824     
    699300   300.70892      2995.9499           5187   1.010824     
    699400   301.65187      3078.3291           5187   1.010824     
    699500   292.88511      3189.2857           5187   1.010824     
    699600   292.93137      2919.6827           5187   1.010824     
    699700   296.50366      2605.1807           5187   1.010824     
    699800   294.55837      2670.921            5187   1.010824     
    699900   291.35323      3039.9035           5187   1.010824     
    700000   288.34463      3500.3206           5187   1.010824     
Loop time of 775.52 on 40 procs for 500000 steps with 5187 atoms

Performance: 27.852 ns/day, 0.862 hours/ns, 644.729 timesteps/s, 3.344 Matom-step/s
96.2% CPU use with 40 MPI tasks x no OpenMP threads

MPI task timing breakdown:
Section |  min time  |  avg time  |  max time  |%varavg| %total
---------------------------------------------------------------
Pair    | 349.97     | 381.67     | 401.66     |  69.2 | 49.21
Bond    | 3.7837     | 3.8701     | 3.9591     |   2.3 |  0.50
Neigh   | 12.716     | 12.737     | 12.757     |   0.4 |  1.64
Comm    | 316.6      | 336.62     | 367.76     |  72.1 | 43.41
Output  | 0.26665    | 0.2697     | 0.36757    |   3.0 |  0.03
Modify  | 28.827     | 29.674     | 30.478     |   8.2 |  3.83
Other   |            | 10.68      |            |       |  1.38

Nlocal:        129.675 ave         144 max         119 min
Histogram: 5 4 4 3 7 7 5 1 2 2
Nghost:         4292.7 ave        4354 max        4229 min
Histogram: 1 2 3 6 8 7 5 5 1 2
Neighs:        45995.5 ave       52938 max       38810 min
Histogram: 1 3 1 8 6 10 3 3 4 1

Total # of neighbors = 1839819
Ave neighs/atom = 354.69809
Ave special neighs/atom = 2
Neighbor list builds = 5126
Dangerous builds = 0
Total wall time: 0:16:36
