364
XYZ file generated by Avogadro.
C      0.9111666532   -0.0383545379   -0.9420485750
C      3.2397988314   -0.1416357353   -0.1073532870
C      2.1914087963    0.5011645691   -0.8349621286
C      2.9199843458   -1.3767378419    0.5338495143
C      0.6267609130   -1.2448780402   -0.3267964421
C      1.6093625018   -1.9141944854    0.4047195711
C      4.5728550786    0.3366526214    0.0370024877
C      5.5115455272   -0.3772887335    0.7965607778
C      3.8863607665   -2.0939129242    1.3167452079
C      5.1995250706   -1.5734044136    1.4606530878
C      6.1470937425   -2.2511414840    2.2682475504
C      5.7794691308   -3.4419343287    2.9055769175
C      3.5367235375   -3.3238402952    1.9537879791
C      4.5165508558   -4.0024226730    2.7298532033
C      2.2292108925   -3.8217770660    1.7459595786
C      1.2815028173   -3.1269085835    1.0035096537
S      5.2301344952    1.8485676358   -0.6897528070
O      2.4118107286    1.7034269496   -1.4617156650
C      7.5652574508   -1.7497156855    2.4963925132
C      8.5688052143   -2.0815688793    1.4075798573
C     10.5713451000   -1.4744914227    0.0178767669
C      9.5877433409   -1.1894573805    1.0274898884
C     10.5452260015   -2.7753803255   -0.5618146268
C      8.5490638626   -3.3231752898    0.7838331776
C      9.5067489481   -3.6531690233   -0.1740107184
C     11.5807049535   -0.5579114044   -0.4329705452
C     12.5508219307   -0.9665008142   -1.3779441084
C     11.5408589273   -3.1745315903   -1.5115450808
C     12.5164134813   -2.2560832259   -1.9559864127
C     11.5255510640   -4.5888311998   -2.0939986147
C     12.8702880440   -5.0985938955   -2.6087834524
C     13.3618013951   -4.0391111141   -3.5830233289
C     13.4838093913   -2.6383187456   -3.0537449831
O     13.7696384794   -4.3112995559   -4.7129405065
O     13.5109022554   -0.0145892848   -1.7111886752
N      4.2056603277   -5.1373860667    3.5135612057
O      1.8625469412   -5.0467604015    2.2596428963
O      9.6420813411    0.0159930801    1.6867735213
C     11.6407590720    0.8616227604    0.0978734860
C     14.8422052869   -0.3573145112   -1.5916530868
C     16.9401947001   -0.4624246514   -2.7787654298
C     15.6561766934    0.0652611556   -2.6361033899
C     17.4066870715   -1.5055738994   -1.9332380982
C     15.3754623704   -1.1583147753   -0.5770427197
C     16.6201707729   -1.7865792815   -0.8089776842
O     17.6691220853    0.0259900506   -3.8407528963
C     18.5414579221   -2.4288027271   -2.0416847932
S     17.3782328569   -2.9520867479    0.1733446311
C     20.5098917276   -3.5762050695   -2.9213136679
C     19.5635862638   -2.5529370739   -3.0154572775
C     20.4042401590   -4.5533104639   -1.9349585808
C     18.4961959873   -3.4144201573   -1.0524574341
C     19.3176508210   -4.5885296620   -1.0451001875
O     21.4074868806   -5.4928716566   -1.8954874212
C     22.5075284274   -5.2008253730   -1.1276470502
C     24.6909298165   -5.3942668675   -0.5470987184
C     23.7907030419   -5.7757686525   -1.4693730409
C     24.0329434252   -4.5235647562    0.4835891144
C     22.6172482505   -4.4677364066   -0.0063231512
C     24.0396070756   -6.5960027290   -2.6829155200
C     19.0558000000   -5.7072400000    0.0000000000
C     19.0558000000   -6.7085600000    0.0000000000
C     19.0558000000   -7.7098800000    0.0000000000
C     19.7713746790  -10.0601245772   -0.3080603433
C     19.7053824122   -8.7283086757   -0.7760895164
N     19.0591113571  -10.5649714707    0.7109413392
C     18.3365539304   -8.2995450137    1.0796907644
C     18.2982991846   -9.6659118264    1.3402438229
C     20.4865473037   -8.3995948609   -2.0270765931
C     14.6403589932   -1.4067677144    0.6689120063
O     14.3533335659   -0.5688327147    1.5025171372
O     14.2719787679   -2.6954302408    0.7825023929
O     17.2621573055  -10.1228915316    2.1523489932
O     20.7731090466  -10.8705938310   -0.8128582470
C     21.7872547506  -10.9439127971    0.2054704306
C     23.1531927577  -11.3113141638   -0.3439172450
C     25.5473259449  -11.5019392737   -0.0052454214
C     24.2985348936  -11.0232860427    0.4173319704
C     25.6954977641  -12.2688591249   -1.1617632559
C     23.2996495191  -12.0115358627   -1.5444473737
C     24.5512238378  -12.4917408653   -1.9584278274
N     26.7959829623  -11.3878732995    0.5556959276
C     27.7341707302  -12.0891199061   -0.1626714203
C     27.0711060734  -12.6889898696   -1.2348316983
C     29.1050520172  -12.2410008426    0.0806659033
C     29.8137825297  -13.0518969874   -0.7992587996
C     27.8086515642  -13.5400642665   -2.1021777271
C     29.1902684501  -13.6927138173   -1.8608016266
O     31.1544663027  -13.2572924238   -0.6396418425
C     27.1852027802  -14.2978144382   -3.2418320515
O     24.1490007671  -10.2987719627    1.5747148955
C     16.1773554039  -10.4370004406    1.3536053402
C     15.2362533035  -12.0167592928   -0.1639922282
C     16.0463049131  -11.7501350469    0.9339195842
C     14.4772872343  -10.9974965149   -0.7755825947
C     15.3940764782   -9.4156440468    0.8043269407
C     14.5734652101   -9.6746421678   -0.2969972911
O     15.2043577110  -13.2974655358   -0.6596056297
C     16.4779721398  -13.6542506847   -1.2385658873
C     16.7839476956  -15.1169534822   -1.0495785064
C     18.5012065522  -16.9076240349   -1.0407161174
C     18.1094468142  -15.5756049058   -0.9774149592
C     17.5069440420  -17.8932979319   -1.0928898809
C     15.8151739716  -16.1422697617   -1.0586998073
C     16.1524341728  -17.5083240605   -1.0548885857
O     19.2108128134  -14.7780271987   -0.8544163846
C     20.3041268152  -15.5863605760   -0.8963502462
C     19.9252059223  -16.9082355668   -1.0852738456
C     21.6242932319  -15.1533795240   -0.8065077778
C     22.6050453373  -16.1124390172   -1.0635079892
C     20.9291926754  -17.8718162801   -1.3006789097
C     22.2650936586  -17.4425994937   -1.3353498834
O     23.9236266527  -15.7452323390   -1.0881541108
O     23.1898567446  -18.2876588346   -1.9028078124
C     23.8824716360  -19.1660818234   -1.1084817237
C     25.1287444854  -19.8405924608    0.8488760294
C     24.2913913818  -18.9219202074    0.1996260426
C     25.5619718189  -21.0117244048    0.2039846315
C     24.2912694856  -20.3346979865   -1.7542019515
C     25.1145834992  -21.2530675951   -1.1025631156
C     26.5044400171  -21.9400222272    0.8425937504
C     28.7162753281  -22.4249423260    1.7174744654
C     27.8037668140  -21.5247339923    1.1740011987
C     28.3607162544  -23.7480874021    1.9541474739
C     26.1518611793  -23.2776601200    1.0862973295
C     27.0712565454  -24.1739777301    1.6399113915
O     29.9707333989  -21.9672615648    1.9964474561
O     14.4783714224  -15.8243552843   -1.0673066304
C     15.1051159250  -18.5987474585   -0.9847082305
C     15.1343777473  -19.3446349665    0.3162789819
C     15.3167210948  -20.9617434449    1.9868925165
C     15.4662950567  -20.6313990495    0.5312663943
C     14.8409766862  -19.6577671494    2.5537437067
C     14.7449168693  -18.7455646827    1.5764173153
C     13.8364877075   -8.5103712555   -0.9335541712
C     13.1377095110   -8.8263255514   -2.2779498143
C     12.5287217516  -10.2348817593   -2.1570067139
C     13.6262374190  -11.2916231684   -1.9810804886
C     12.1107570383   -7.6897290391   -2.6595861283
C     10.9441241238   -8.1574717453   -3.6171009670
C     10.5054505382   -9.5928677963   -3.3545097093
C     11.6705077745  -10.5571064367   -3.3634023584
C     12.8431056459   -6.4752560848   -3.3223819635
C      9.7717779836   -7.1275207783   -3.5619710936
C      8.3608660328   -7.5546364159   -4.0088050817
C      7.4534978846   -7.8154881312   -2.8236209807
C      6.8210024380   -9.2348857534   -0.9503729617
C      7.4999863521   -9.0364988928   -2.1518977653
C      5.9805103310   -8.1997857987   -0.4440872427
C      6.4987307380   -6.8738340342   -2.4119850062
C      5.6496552824   -7.1175188046   -1.3081676708
C      5.3360989312   -8.2364719719    0.8109257950
C      4.0658227895   -7.6918193221    0.8821939770
C      4.3719025636   -6.4650757639   -1.1450046348
C      3.5108444162   -7.0586103251   -0.2338514184
C      2.1257994773   -7.1377929442   -0.5384351362
C      1.5431396759   -6.0986336523   -1.2654263496
C      3.7940353971   -5.4219850771   -1.9137961284
C      2.4066130107   -5.1745764859   -1.8830625853
S      6.6285822826  -10.9276755511   -0.3251614976
C      5.8509140194   -8.9581128153    2.0236060671
C      1.3658076050   -8.3381498423   -0.3472174458
C     -0.0134690917   -8.3890601363   -0.5768738544
C      0.1427823458   -6.0990747896   -1.4220978932
C     -0.6299178570   -7.2111365789   -1.0363009788
C      2.0081836926   -9.5718443095   -0.1344274837
C      1.3893891089  -10.8324819086   -0.0867602873
C     -0.6843729929   -9.6380264732   -0.4350694362
C      0.0092437000  -10.8503093436   -0.1980122474
C      2.4097300000  -12.0024000000    0.0000000000
C      2.4097300000  -13.0037000000    0.0000000000
C      2.4097300000  -14.0051000000    0.0000000000
C      2.4097300000  -15.0064000000    0.0000000000
C      3.2491622211  -17.4257921163    0.0743148844
C      3.4811224183  -16.0075348153    0.0159882469
C      1.9291421222  -17.9447707475    0.0437324755
C      1.0897258517  -15.6425892991   -0.0450585312
C      0.8649073602  -17.0434779894   -0.1613448691
C      4.8416131328  -15.6208012417   -0.0047771426
C      5.9069866062  -16.5285257234    0.0167073257
C      4.3541591349  -18.3473513798    0.1473174915
C      5.7027949179  -17.9140243679    0.0908392828
C     -0.1764636193  -14.7653936035    0.0105717426
C     -0.5173320623  -17.5524885829   -0.5299184259
C      4.1075682642  -19.7351035914    0.2691159017
C      1.7472616868  -19.3428383704    0.2213489388
C      2.8130666483  -20.2192431148    0.3307811505
C      6.7796623114  -18.8792504094    0.1019250417
C      6.4733428202  -20.2470361183    0.2315890265
C      5.1497600128  -20.6543216742    0.3320902776
C      8.1559082720  -18.5710630472   -0.0261387770
C      9.1663549094  -19.5582435150   -0.0446979917
C      7.4765625514  -21.2292812800    0.2438300154
C      8.8272360219  -20.9146093928    0.0716966955
C      9.8965588560  -22.0021841682    0.0832018458
C     11.1762763279  -21.5223723085   -0.6364586995
C     11.6243513735  -20.1923047710   -0.0353808485
C     10.5862415657  -19.1047066108   -0.2733907598
C      9.4581471279  -23.3566829952   -0.5113565220
C     10.5778169473  -24.3977370861   -0.4559860434
C     11.8531616258  -23.9007592569   -1.1236800117
C     12.2974343405  -22.5650555616   -0.5437691903
O     10.1588991165  -25.5900832939   -1.1127578502
O      0.4892513411  -19.8804115985    0.3522913102
C      8.1306462330  -11.7936695838   -0.6751131682
C     10.3516036619  -12.5633765548   -0.0561850035
C      9.2406136985  -11.7304571123    0.1538856041
C     10.3882548157  -13.4701852313   -1.1000090967
C      8.1650082275  -12.7151285070   -1.7336230584
C      9.2840887706  -13.5379938021   -1.9496327151
C     10.8596195594  -11.3550279687    1.7802877592
C      9.4847836559  -10.8873863107    1.3696604391
C     11.3460447182  -12.3088008238    0.9714719571
H      0.1274818628    0.4659109353   -1.4990197752
H     -0.3764543873   -1.6552040891   -0.4194392691
H      6.5184442641    0.0317247552    0.8643917375
H      6.4908110279   -3.9464825934    3.5566283656
H      0.2813874889   -3.5368651304    0.8911966888
H      4.0782678533    2.2520521841   -1.2470258709
H      1.5856285340    2.0150050004   -1.8670110962
H      7.9558591203   -2.1678306947    3.4346427657
H      7.5128092930   -0.6712503463    2.6845661154
H      7.7892225322   -4.0638833739    1.0240589857
H      9.3979437638   -4.6374976176   -0.6236878023
H     10.7832189046   -4.5868092492   -2.8988621052
H     11.2137088582   -5.2882989226   -1.3149584638
H     13.5929783923   -5.1492566194   -1.7842820251
H     13.3584326570   -1.9475931846   -3.8948634740
H     14.5094522447   -2.6006703045   -2.6900553183
H      3.3332418106   -5.5578616792    3.1816276855
H      4.9628317468   -5.8084597305    3.5601319920
H      1.0895070979   -5.3691659541    1.7638190015
H      9.6452108314   -0.1691881570    2.6406050204
H     11.9082545814    0.8601944851    1.1591566582
H     10.6815648900    1.3659806183   -0.0578540754
H     12.3816956307    1.4858403964   -0.4098563960
H     15.2739050235    0.7585318247   -3.3819896380
H     18.6089838644   -0.0723802422   -3.6163029283
H     21.3268789080   -3.6207901943   -3.6385887747
H     19.6419051695   -1.8600767391   -3.8467650691
H     25.7394556782   -5.6517281357   -0.5447840337
H     24.4838153295   -3.5274464210    0.5063553306
H     24.0893567858   -4.9784305770    1.4769528092
H     21.8243158322   -3.9379649159    0.4960246934
H     23.5066537840   -7.5485321155   -2.6297797167
H     25.1054040228   -6.8207078425   -2.7981819508
H     23.7146594561   -6.0639381071   -3.5829635281
H     18.0457552998   -5.4186748090    0.3568417657
H     19.6069344029   -5.2585392635    0.8643739865
H     20.1696989090   -6.7037368121   -0.0698560100
H     18.5387680430   -6.7277923311   -0.9936498612
H     17.7312663599   -7.6674395937    1.7363572087
H     20.4819103451   -9.2421214783   -2.7269139700
H     20.0357051823   -7.5631252822   -2.5667967594
H     21.5189880673   -8.1683979315   -1.7622016709
H     13.7147468190   -2.7063401780    1.5897116398
H     21.4993892981  -11.7139268079    0.9328415084
H     21.8773818377   -9.9773249361    0.7215759506
H     22.4285875670  -12.2276989657   -2.1619120306
H     24.6221746082  -13.0632958624   -2.8799860170
H     27.0040154498  -10.8926282504    1.4083916247
H     29.5825371372  -11.7520392569    0.9211393194
H     29.7879072470  -14.3335570813   -2.5059358322
H     31.4530463024  -12.7717515409    0.1458749666
H     27.8944665294  -14.9937758756   -3.7018348627
H     26.8422160253  -13.6017959586   -4.0127070524
H     26.3374547132  -14.8885461375   -2.8801222917
H     25.0136733579   -9.9544017782    1.8424035134
H     16.6650524543  -12.5248661347    1.3779123198
H     15.4941409066   -8.3983314499    1.1712377471
H     16.4062103339  -13.4611407468   -2.3159101241
H     17.3091329595  -13.0505250846   -0.8534848341
H     17.7822931176  -18.9440416114   -1.1229556684
H     21.8441439686  -14.1156736490   -0.6116658284
H     20.6750402216  -18.9004074923   -1.5343547821
H     24.0063317253  -14.8250495488   -0.7834052323
H     25.4650313831  -19.6223581635    1.8606458364
H     24.0164304596  -18.0049193733    0.7109499171
H     23.9924210931  -20.5158604254   -2.7833546656
H     25.4435406517  -22.1402656042   -1.6392683379
H     28.1188665261  -20.5015237125    0.9820168038
H     29.0675505077  -24.4554818471    2.3753974666
H     25.1517786524  -23.6293380909    0.8402400506
H     26.7798827112  -25.2057534420    1.8182666871
H     30.5071952436  -22.7100166596    2.3177043906
H     14.3956487675  -14.8738217116   -0.8518961580
H     14.0996779663  -18.1948310195   -1.1475921211
H     15.2759096851  -19.2899459242   -1.8211008162
H     16.2727760190  -21.2603383839    2.4264597226
H     14.5758042327  -21.7522903208    2.1374331266
H     15.7854475836  -21.3354791064   -0.2220748487
H     14.6141160450  -19.4881047313    3.5952641370
H     14.4303307973  -17.7181913183    1.6876870679
H     13.0892589146   -8.1741504588   -0.2026140121
H     14.5392677081   -7.6819648624   -1.0890964328
H     13.9040699335   -8.8761071899   -3.0647292913
H     11.8914397268  -10.2564476632   -1.2615590194
H     14.2719490904  -11.3293926043   -2.8672719826
H     13.1586201236  -12.2765072074   -1.8705507953
H     11.6444057488   -7.3721783552   -1.7202880759
H     11.3268279792   -8.1537833866   -4.6480602557
H     10.0341870790   -9.6477834801   -2.3711925022
H      9.7899485671   -9.9253238215   -4.1118861403
H     11.2930434904  -11.5828584806   -3.3013364331
H     12.2415245754  -10.4782556117   -4.2960594308
H     13.8895047764   -6.7484629436   -3.5172628232
H     12.4236537184   -6.3199963377   -4.3246550493
H      9.7019632176   -6.7136723247   -2.5490538937
H     10.0655314555   -6.2919701174   -4.2102152422
H      8.3729118590   -8.4110013243   -4.6897037595
H      7.9247175499   -6.7331304931   -4.5929188354
H      8.0302026061   -9.8650755309   -2.6030758071
H      6.3437256047   -5.9892543302   -3.0262408957
H      3.4355209801   -7.9177573904    1.7423580123
H      4.4133050875   -4.8198678956   -2.5734448109
H      2.0047670048   -4.3586206572   -2.4793432088
H      6.9401227554   -9.0599271176    1.9960369654
H      5.6226054224   -8.3789933294    2.9262450953
H      5.3829656027   -9.9413652907    2.1273743540
H     -0.3474408166   -5.2704412984   -1.9294248293
H     -1.7004729190   -7.1997864295   -1.2306805777
H      3.0953279707   -9.6022237964   -0.1306766364
H     -1.7611602657   -9.6850338680   -0.5920633634
H     -0.5440841409  -11.7826848458   -0.1680129050
H      3.0172752649  -11.6337435589    0.8629547053
H      3.0989615735  -11.6748878539   -0.8158652769
H      1.6980711787  -12.9679849053    0.8902097179
H      1.6782772195  -12.9807339011   -0.8765673523
H      3.0804617949  -14.0096621345   -0.9160780969
H      3.0881463071  -14.0078443431    0.9101623411
H      5.1089667581  -14.5639194569   -0.0465194083
H      6.9087256702  -16.1080140294   -0.0124710582
H     -1.0563316355  -15.3166048218    0.3543570472
H     -0.0833170372  -13.9730025237    0.7563534295
H     -0.3813336577  -14.3396083523   -0.9762472448
H     -1.0739634345  -16.8250542861   -1.1296572777
H     -1.0944845719  -17.7947512140    0.3673205525
H     -0.4576119778  -18.4195788317   -1.1960137238
H      2.6344046512  -21.2835619107    0.4540832285
H      4.9249830946  -21.7152411284    0.4305305107
H      8.4702564151  -17.5364666464   -0.1423152301
H      7.1781644811  -22.2655107496    0.3768629300
H     10.1365800611  -22.1713358047    1.1436974253
H     10.9523723605  -21.3610845673   -1.7018435255
H     12.5648012570  -19.8784658627   -0.4905612383
H     11.8042132253  -20.3070492274    1.0412304434
H     10.6648431046  -18.7604986582   -1.3125745488
H     10.8153772587  -18.2497978190    0.3741507110
H      9.1212077159  -23.2276276923   -1.5486807282
H      8.5982176790  -23.7696085745    0.0290538735
H     10.7914980623  -24.6524563862    0.5885721092
H     11.6907004822  -23.8039371562   -2.2048784369
H     12.6493708292  -24.6464183281   -1.0073970617
H     13.1815490975  -22.2134610066   -1.0880500809
H     12.5994897330  -22.7023494352    0.5021016190
H      9.3548588965  -25.9054313855   -0.6661558261
H      0.5552677608  -20.8314915308    0.5321012165
H     11.2472350800  -14.1153623576   -1.2545078304
H      7.3055775232  -12.8200104046   -2.3940009778
H      9.2806738898  -14.2442192788   -2.7764544009
H     11.3858197054  -10.9586031155    2.6371149667
H      9.4966050175   -9.8224689931    1.1209673648
H      8.7571552274  -11.0970999936    2.1588824701
H     12.2992387790  -12.8076097231    1.0460089155
