ITEM: TIMESTEP
50000
ITEM: NUMBER OF ATOMS
3640
ITEM: BOX BOUNDS pp pp pp
-1.8350036074551301e+01 1.6531016295625864e+01
-2.4206188376659156e+01 1.3978780134571750e+01
-9.1556953436279169e+00 2.0528354170383064e+01
ITEM: ATOMS id type x y z
623 7 -14.451 -20.7334 -5.67925
435 13 -15.3774 -22.4243 -3.86723
392 6 -17.0956 -23.1317 -6.94722
444 6 -14.457 -19.8504 -6.2678
445 6 -14.2633 -19.9058 -7.62589
440 6 -14.4185 -18.6527 -5.56409
439 2 -14.5282 -18.6555 -4.03641
438 15 -13.3764 -18.9844 -3.28378
622 7 -15.4176 -19.255 -3.77753
434 5 -14.8777 -23.3323 -3.29511
1579 6 -10.9349 -20.8081 -6.79189
1580 6 -11.1143 -22.7578 -5.31682
331 7 -18.3061 -23.0066 5.36675
1582 6 -10.9783 -23.6007 -6.44015
1581 6 -10.9455 -23.0919 -7.7287
1738 7 -11.1439 -23.082 -4.26729
3625 7 -10.0014 -18.7005 2.02672
393 6 -17.4313 -23.7054 -5.74766
658 7 -17.1531 -18.9329 -5.12674
1737 7 -10.7992 -19.714 -6.85103
3620 7 -10.2104 -20.0489 3.79861
590 7 -17.4106 -21.4483 -8.3053
387 6 -15.9125 -23.6608 -7.57807
389 6 -15.7201 -23.3345 -8.90326
460 6 -17.6544 -18.012 -2.58706
394 2 -17.9513 -22.0166 -7.64772
441 6 -14.1213 -17.5248 -7.59649
433 3 -11.7629 -19.9838 -1.20241
456 6 -17.1094 -17.2936 -1.54509
428 6 -13.8663 -18.9456 -2.00937
1736 7 -11.5987 -19.1792 -8.81367
1238 6 -13.8665 -17.7992 5.41538
442 6 -14.2494 -17.4632 -6.24086
461 6 -17.8975 -17.4734 -3.81506
1252 18 -17.47 -19.3383 5.16926
421 4 -12.8375 -23.6989 4.62025
618 7 -11.1909 -19.2287 -1.73625
3623 7 -10.5495 -22.427 3.81189
431 6 -14.8757 -19.0415 0.54222
425 2 -12.8427 -21.5542 1.5177
664 7 -17.755 -18.9185 -7.63492
1577 6 -10.8733 -21.7014 -7.9201
432 6 -15.6123 -18.528 -0.482054
617 7 -11.8032 -20.9198 -1.78812
430 12 -15.0588 -18.494 -1.71454
407 6 -16.4525 -24.1735 0.0185651
1739 7 -10.8382 -23.7786 -8.59933
1237 2 -12.901 -17.1575 4.4444
624 7 -14.112 -20.8898 -8.0794
612 7 -12.3233 -21.9767 0.652163
1741 9 -11.289 -20.8397 -3.67254
616 7 -15.2246 -18.9026 1.59429
408 6 -15.7682 -24.0744 -2.32967
3628 7 -9.94469 -17.4871 4.34874
409 6 -15.6082 -23.9044 -0.965799
634 7 -17.7199 -19.1958 -2.64148
615 7 -13.3014 -19.6798 2.40756
411 6 -16.0854 -23.5186 1.23095
419 4 -13.1655 -22.3665 4.79863
1402 7 -11.8978 -17.3721 4.64029
619 7 -11.18 -20.056 -0.340228
417 6 -14.1565 -22.1394 1.77564
429 6 -13.1596 -19.5181 -0.952807
1404 7 -15.3659 -18.0469 3.89499
614 7 -11.7256 -19.6661 1.43824
436 16 -13.5215 -23.4825 -3.45249
437 15 -16.7724 -17.8693 -0.366052
591 7 -17.7551 -20.7653 -5.88436
443 6 -14.1638 -18.7111 -8.32123
499 2 -18.1862 -18.47 -4.89679
603 7 -16.1167 -22.8493 4.51663
1240 6 -15.1339 -18.1208 4.9247
413 6 -15.8167 -22.8938 3.4688
426 2 -12.794 -20.0459 1.51926
1301 6 -18.2644 -16.7076 5.45682
418 15 -13.9498 -21.5536 4.00576
427 6 -13.6233 -19.5495 0.314538
414 6 -16.5654 -23.6338 2.5819
412 20 -14.2343 -22.7833 -0.712987
613 7 -12.1513 -21.8552 2.28211
416 6 -14.9638 -22.854 1.00872
415 6 -14.6381 -22.1805 3.12183
1403 7 -13.0387 -17.4447 3.38613
1578 6 -10.9971 -21.3441 -5.48861
3554 7 -9.97781 -17.2549 -7.39511
621 7 -14.9235 -17.6901 -3.71848
666 7 -17.6068 -16.9265 -9.04152
1583 16 -10.895 -20.4832 -4.45226
3553 7 -10.3283 -17.3416 -4.96922
620 9 -13.1547 -23.785 -2.59292
1245 6 -16.2352 -19.6155 9.38037
1248 6 -14.7178 -19.3278 11.2708
1249 6 -13.3369 -19.3822 11.6359
1406 7 -17.028 -20.0579 10.019
1244 6 -16.682 -19.319 8.13844
1241 6 -15.8547 -18.7441 7.24044
1243 6 -14.5333 -18.3918 7.69225
1246 6 -14.0945 -18.7262 8.994
1247 6 -15.002 -19.2272 9.91804
1250 6 -12.7393 -18.5998 9.39104
1251 6 -12.3848 -18.8974 10.6811
1408 7 -11.4206 -18.7758 11.1003
1242 6 -13.6383 -17.8098 6.74423
1258 6 -16.6768 -18.0859 12.1049
1254 6 -15.6476 -19.018 12.2858
1573 6 -9.84254 -21.393 18.2403
575 4 -16.7375 -22.7187 11.8337
1407 7 -11.9624 -18.1539 8.78736
422 2 -11.7818 -23.0038 6.75796
606 7 -10.6723 -22.6833 6.76859
1571 6 -10.136 -20.0534 17.9719
607 7 -12.0727 -23.1803 7.7828
378 6 -12.3214 -23.6971 16.7317
596 9 -11.6593 -22.8309 13.0834
388 6 -14.7804 -24.0587 20.0153
588 7 -16.3199 -22.5693 20.1418
1569 16 -10.0884 -17.8801 14.3803
581 7 -12.6601 -23.2248 18.783
1322 8 -10.071 -20.8706 7.94285
1405 7 -12.5832 -17.6206 7.00068
627 7 -13.6377 -18.8401 16.7275
1128 11 -10.0027 -21.0873 8.91934
401 16 -12.0816 -22.9341 13.9628
608 7 -12.8366 -20.8834 6.46383
1256 6 -12.9916 -19.7244 12.9348
577 4 -15.9874 -23.2386 12.906
594 8 -12.0307 -21.9254 15.6656
1259 6 -17.5093 -17.7381 13.116
725 7 -16.4002 -22.9814 10.8468
728 7 -14.98 -23.8149 12.821
631 7 -14.0712 -21.1636 19.0305
629 7 -14.6262 -20.5661 17.4113
454 3 -14.6277 -20.3968 18.5074
1412 7 -11.9209 -19.9185 13.2327
1416 7 -18.0921 -18.136 15.0674
1409 7 -18.0258 -20.5217 7.30304
1575 6 -10.658 -19.2525 18.946
572 6 -16.2696 -23.2465 15.444
400 11 -12.2386 -22.2848 16.5821
1415 7 -16.038 -19.4974 15.6446
1413 7 -13.7563 -20.2246 14.8826
574 6 -17.2123 -22.8706 16.4352
595 8 -11.6617 -21.7703 17.2937
448 6 -14.0378 -18.2582 19.9656
423 4 -12.6266 -21.9097 6.02592
1129 16 -10.4601 -22.4131 11.3428
1735 7 -10.8731 -18.1994 18.7339
1572 6 -10.0043 -21.8302 19.5364
630 7 -15.6361 -20.3268 18.8237
1257 6 -13.9885 -19.9322 13.8661
1261 6 -17.3485 -18.4058 14.3108
1576 6 -10.967 -19.7189 20.1949
576 2 -17.9085 -21.8963 12.281
570 6 -16.4889 -22.7731 14.0992
573 6 -18.2992 -22.0545 16.132
571 6 -17.5971 -21.9876 13.8205
724 7 -17.0768 -23.2795 17.428
451 6 -14.1191 -18.9154 18.7682
452 6 -13.6495 -18.2758 17.6738
1260 6 -16.2207 -19.1465 14.6335
1414 7 -16.7587 -17.5968 11.0843
1255 6 -15.2857 -19.425 13.6282
727 7 -17.9474 -20.846 11.8781
1323 8 -9.82162 -22.028 8.96322
1253 3 -18.1106 -19.6176 7.92626
722 7 -15.4327 -23.9679 15.6056
1324 9 -10.7067 -22.9921 12.0881
1733 7 -9.67906 -22.8325 19.7222
447 6 -13.8296 -16.8863 19.9789
328 7 -16.1266 -23.6678 7.85659
450 6 -13.2632 -16.9603 17.7238
1732 9 -10.0756 -17.156 13.8103
420 4 -12.0012 -24.0734 5.70346
376 6 -12.4114 -24.0739 18.0737
1239 6 -16.0579 -18.5753 5.82297
587 7 -14.7467 -23.793 18.9608
1570 15 -9.92061 -19.6244 16.7022
1574 6 -10.6148 -21.0552 20.517
1451 7 -17.4395 -16.6701 6.13668
635 7 -15.5774 -14.9842 -3.4262
3557 7 -12.8768 -15.333 -3.47072
463 2 -15.9698 -14.058 -3.68197
465 6 -13.1146 -11.48 -3.8622
466 6 -14.0464 -12.3957 -3.94816
472 6 -12.6126 -11.24 -5.14571
471 6 -13.2936 -12.0423 -5.98292
473 6 -13.4663 -12.2689 -7.25845
467 6 -12.9783 -11.0106 -2.51635
474 6 -12.5567 -11.4636 -8.03293
470 17 -14.2732 -12.9067 -5.2848
464 6 -14.9769 -12.993 -3.20144
638 7 -14.0726 -13.1286 -7.62119
475 6 -11.7973 -10.2967 -5.89573
636 7 -16.0025 -14.0412 -4.78665
476 6 -11.7274 -10.4776 -7.29079
462 15 -17.2362 -14.0545 -3.03408
1206 15 -16.6314 -10.4641 -6.74882
3399 6 -11.9909 -15.4234 -2.76825
632 9 -14.4147 -16.2941 -4.72892
1204 6 -16.9872 -10.6951 -5.4448
637 7 -12.3458 -10.1552 -2.19909
3397 6 -10.6556 -15.2813 -3.26577
3396 6 -10.4799 -13.9399 -5.38819
1401 7 -12.7935 -15.316 5.59375
501 1 -18.2623 -16.4107 -6.50234
3392 6 -10.2673 -16.3709 -5.4585
3391 6 -10.0879 -15.0846 -7.43547
492 16 -15.4787 -13.1186 -0.865984
1207 6 -17.6385 -9.87725 -7.61826
1202 6 -16.2934 -10.02 -4.39783
459 6 -17.9305 -16.1273 -3.90014
1391 7 -16.8964 -11.5787 1.24208
1393 7 -15.4479 -15.5207 4.7069
1199 6 -17.9193 -10.9332 -2.99863
3555 7 -10.2603 -12.9841 -7.21974
1229 1 -16.0609 -13.2394 2.56002
663 7 -18.2709 -14.5115 -5.44357
655 7 -13.1484 -11.1797 2.82699
455 16 -14.1538 -16.1958 -5.62521
468 6 -14.7393 -12.5425 -1.87994
457 6 -17.3847 -15.3534 -2.87685
1203 6 -18.0694 -11.5876 -5.24695
3395 6 -10.3052 -13.8906 -6.71349
1201 6 -16.8129 -10.1667 -3.02619
469 6 -13.7801 -11.5782 -1.56459
478 15 -10.9696 -9.44775 -7.95794
654 7 -10.6691 -11.3665 3.3241
3398 6 -12.215 -15.6223 -1.38676
1387 7 -15.7643 -11.0126 5.03713
1231 1 -14.629 -13.5509 4.58127
1189 6 -17.5934 -11.3392 4.02177
650 9 -15.8907 -13.8475 -1.24069
3556 7 -10.4564 -13.0254 -4.82123
1397 7 -16.8617 -15.3402 2.71225
625 8 -13.1597 -15.6895 -8.20172
1394 7 -13.8795 -14.6405 2.19259
1211 6 -17.2051 -9.41119 -8.85136
1232 1 -14.5471 -15.0183 4.24881
494 4 -12.4584 -11.6048 0.686744
1389 7 -15.1494 -12.7977 2.19556
498 4 -11.2137 -12.0719 0.281778
1089 7 -13.0425 -9.28816 5.10414
458 6 -16.9955 -15.9412 -1.69156
496 4 -12.4644 -11.6023 2.08092
1228 1 -15.9427 -12.9885 4.06692
1396 7 -16.1887 -14.9717 1.18743
1400 7 -12.5882 -15.0232 3.78319
1386 7 -15.5414 -10.9651 3.42611
1236 2 -13.184 -15.611 4.61479
657 7 -10.9788 -12.2213 -0.767583
495 2 -11.1946 -12.117 2.70936
633 7 -16.8036 -15.3078 -0.84343
1230 2 -17.2091 -12.4554 1.90625
1233 2 -14.6756 -15.1881 2.73304
493 2 -13.5695 -10.9842 -0.151061
497 4 -10.445 -12.376 1.39253
1366 7 -16.4871 -9.53488 -2.24516
653 7 -11.2819 -13.0534 3.25282
1388 7 -16.7866 -13.4584 4.65001
1392 7 -13.8339 -13.1024 4.04302
3558 7 -11.2683 -15.7931 0.514329
1234 2 -16.0817 -14.7368 2.20284
3403 16 -13.4622 -15.6324 -0.91196
1227 2 -16.1164 -11.5508 4.15102
652 7 -14.487 -11.2524 0.3747
1390 7 -17.699 -13.097 1.20735
651 7 -13.4574 -9.90024 -0.11119
1205 16 -15.3551 -9.08208 -4.7629
3561 9 -13.9384 -15.4153 -1.77719
3400 6 -11.1155 -15.7687 -0.53199
3394 6 -10.4764 -15.1646 -4.70526
1187 6 -18.1577 -11.8685 2.8714
639 7 -11.2945 -9.49834 -5.32706
3402 6 -9.8171 -15.865 -1.06797
3390 15 -9.86922 -15.0727 -8.80723
446 11 -13.9604 -16.3349 -8.46299
1319 7 -13.933 -11.3436 5.52836
1395 7 -14.3443 -16.2147 2.46246
1092 7 -10.3126 -9.42838 5.18009
3393 6 -10.1808 -16.3093 -6.79378
2176 9 -10.0346 -11.2984 -3.04167
1371 7 -16.1265 -9.61917 -9.15282
661 7 -17.2148 -16.4438 -6.67893
1118 6 -11.8952 -14.3372 10.5072
1131 3 -12.1966 -15.186 11.7096
1134 6 -15.2838 -14.1425 10.1684
1133 6 -16.5678 -14.5172 9.82819
1329 7 -14.5133 -14.7783 9.69216
1138 16 -16.8466 -15.6637 9.11388
1135 6 -17.5835 -13.6495 10.287
1127 15 -13.5962 -12.758 11.2612
1137 6 -17.1995 -12.627 11.0142
1121 6 -12.6817 -12.4549 9.12204
1136 6 -15.9582 -12.151 11.4215
1126 14 -15.6721 -11.2202 7.85946
1125 2 -13.4482 -11.2535 8.8026
1320 7 -13.8371 -10.7883 9.75117
1124 6 -14.3915 -11.51 7.76645
1122 2 -12.3267 -12.3097 6.62578
1321 7 -12.7788 -10.5693 8.37912
1120 6 -12.075 -12.9424 8.01671
1132 6 -14.9188 -13.0276 10.9395
1119 6 -12.6901 -13.1876 10.2954
1113 6 -11.208 -14.8012 9.3514
1115 6 -11.2516 -14.0819 8.13382
1398 7 -15.7565 -13.1525 6.42698
1318 7 -11.791 -11.3169 6.4722
1123 1 -13.8565 -11.955 6.40353
1164 16 -16.2239 -9.81056 11.9461
1263 2 -18.3082 -15.4881 13.7079
1162 5 -15.8319 -10.9942 12.4321
1130 16 -9.95584 -16.3101 10.7812
1399 7 -14.3505 -14.0276 6.78592
919 6 -10.0702 -10.852 14.5987
1419 7 -17.2213 -15.439 13.8266
640 9 -13.1558 -12.1147 20.0019
1426 7 -16.5339 -16.0571 18.0339
3386 6 -9.63548 -13.5546 19.0781
1268 6 -17.2566 -12.1126 17.1247
1326 7 -13.2621 -15.1303 11.8888
916 6 -11.2997 -10.1653 14.3205
449 6 -13.4908 -16.1947 18.8248
1362 7 -17.7781 -10.4686 5.90323
1070 7 -11.4707 -10.5087 10.9763
1278 6 -16.3722 -11.0642 17.5298
1276 3 -16.3614 -13.7845 18.9324
1296 16 -15.3377 -11.2188 18.423
1431 7 -15.8184 -8.94408 17.1501
1163 13 -15.2255 -11.0324 13.4098
922 6 -9.7003 -11.0817 12.1937
1279 6 -16.4875 -9.76592 17.0084
1266 6 -18.2503 -11.8321 16.2498
1330 9 -16.1258 -15.8778 8.54676
910 6 -11.9543 -9.36666 15.2785
1428 7 -16.8477 -14.6543 19.3059
917 6 -11.7487 -9.99352 13.0046
1328 7 -12.0577 -16.2727 11.5535
1114 6 -10.0672 -15.7462 9.55497
1235 2 -14.6586 -13.2157 6.12499
1429 7 -16.6663 -13.0614 19.7342
1059 7 -12.6996 -9.38484 18.6141
1117 6 -10.1883 -14.3012 7.21863
1275 3 -17.1061 -15.873 17.0987
626 7 -13.1259 -15.1482 18.7984
1269 6 -17.5466 -14.4206 16.83
1270 6 -17.0612 -13.4039 17.5681
1060 7 -11.3932 -10.6481 16.9443
1277 6 -17.6003 -9.49521 16.2133
1449 9 -14.6672 -10.5084 18.3575
921 6 -10.9994 -10.649 11.9715
1430 7 -15.2616 -13.9209 18.9383
3389 16 -10.7443 -14.0825 18.4888
907 6 -12.6091 -9.01177 17.5757
1327 7 -11.5062 -14.9942 12.6178
477 16 -12.4734 -11.5036 20.327
453 16 -12.6862 -16.3222 16.6247
1317 7 -12.0855 -12.9235 5.74861
1425 7 -16.7196 -16.4065 16.1965
628 9 -12.6292 -15.3786 16.9161
1348 9 -15.8151 -9.18266 12.5076
908 6 -11.8803 -9.71197 16.6508
3552 9 -10.7431 -13.7502 17.6095
918 6 -12.6471 -9.00979 12.604
1316 7 -10.0789 -13.7444 6.26976
1427 7 -18.0577 -16.3798 17.3554
883 6 -12.9916 -3.75647 -4.13848
881 6 -13.2039 -5.05042 -3.60073
1042 7 -14.0496 -5.62725 -4.01552
894 6 -13.9368 -5.2011 -6.53357
1050 7 -12.9429 -5.46055 -6.11426
890 6 -14.4464 -4.0083 -6.07577
895 6 -14.6418 -6.08792 -7.27487
897 6 -15.9763 -5.75443 -7.57193
896 6 -16.4657 -4.51429 -7.31852
884 6 -13.7492 -3.24813 -5.1537
891 6 -15.6973 -3.58595 -6.56828
898 2 -13.9901 -7.31713 -7.70589
882 6 -12.0499 -2.96498 -3.45472
1054 7 -13.1164 -7.64148 -7.1141
879 6 -11.3872 -3.41933 -2.26806
880 6 -12.7041 -5.55896 -2.44006
3587 7 -12.6079 -3.35611 -8.75169
3579 7 -10.6854 -5.02669 -9.03076
3586 7 -11.0115 -2.97122 -8.30035
885 6 -13.9579 -1.8044 -5.27545
2792 7 -17.1699 -4.56546 3.02022
1909 16 -17.413 -6.99624 -3.44933
889 3 -13.1447 -6.87533 -2.0385
2604 4 -18.0325 -7.53339 1.85368
1047 7 -13.7184 -7.41452 -2.79503
2795 7 -17.342 -8.55397 -0.624447
1049 7 -17.0037 -1.78865 -6.74669
2799 7 -17.3081 -2.09873 -2.27134
893 6 -16.0981 -2.23014 -6.35788
2606 2 -18.2863 -6.60586 2.95455
2794 7 -16.0732 -7.51214 -1.1581
874 6 -10.2062 -2.83896 -0.185717
934 6 -10.4322 -8.08252 3.44983
2610 2 -16.8992 -2.35688 -1.22328
939 4 -12.3532 -8.79022 4.38152
1045 7 -12.2974 -7.49232 -1.71957
2797 7 -14.8063 -1.89533 -1.67823
2788 7 -13.4672 -3.41331 4.01791
2796 7 -15.2126 -3.5688 -1.676
877 6 -11.7927 -4.69801 -1.74245
878 6 -10.5752 -2.60214 -1.48614
2602 15 -15.9241 -5.01808 0.446811
2607 4 -17.4603 -5.4517 2.41813
1053 7 -14.6964 -8.14354 -7.6716
2609 2 -15.3461 -2.65675 -1.13766
875 6 -11.4576 -4.8738 -0.370074
1046 7 -13.8381 -6.71021 -1.20719
265 7 -16.2662 -3.69247 5.39444
1052 7 -16.7179 -6.41483 -8.11444
2600 6 -14.0532 -2.01267 0.937375
888 18 -12.3196 -6.05459 0.538003
2787 7 -14.7852 -5.06012 2.96171
2082 7 -18.1844 -5.07467 -5.29647
2603 4 -16.8148 -5.72865 1.21493
2786 9 -12.3581 -1.79099 4.84983
2793 7 -15.8413 -8.70241 0.295107
1051 7 -17.4914 -4.32626 -7.71689
2598 6 -13.7746 -3.25968 2.96322
3421 2 -11.8233 -2.63993 -8.88639
2595 6 -13.4929 -2.05922 2.13802
2608 3 -16.5164 -7.95551 -0.196221
1091 7 -13.403 -8.41694 2.47553
2599 6 -15.1613 -4.01385 1.00581
935 6 -11.4223 -7.46965 2.69867
886 6 -12.0697 -1.54239 -3.85046
876 6 -10.7253 -4.01265 0.418377
1354 7 -10.4167 -3.67301 5.43913
2084 9 -16.7124 -6.66924 -4.03869
2798 7 -17.3663 -3.2798 -0.995619
1353 8 -13.1736 -4.91988 4.84731
2601 6 -14.8711 -2.81106 0.259723
892 6 -15.2042 -1.32016 -5.81376
1090 7 -13.2775 -6.97746 3.5049
933 6 -11.0874 -6.77413 1.58939
940 2 -12.7578 -7.91052 3.21638
2615 6 -18.0487 -1.65299 0.834926
2597 6 -14.6274 -4.14643 2.32841
2605 4 -17.1742 -7.08121 0.853285
1040 7 -10.6212 -4.07868 1.51801
2790 7 -17.9736 -6.80991 3.97943
1041 7 -10.1914 -1.63397 -1.82093
937 6 -9.68987 -6.62851 1.23768
643 7 -10.9062 -6.95632 -6.69095
1360 9 -15.3751 -5.38899 4.68431
1183 16 -15.8076 -6.16433 5.13217
2611 6 -17.2939 -1.29853 -0.23355
483 6 -10.1591 -7.64834 -6.45744
479 6 -9.9737 -8.90068 -7.09927
1368 9 -14.9709 -8.6635 -3.9848
260 7 -18.2909 -3.49861 4.51555
2789 7 -18.2834 -8.58072 1.7727
941 4 -10.9469 -8.87134 4.49523
899 2 -13.4766 -7.11258 -9.15216
1173 6 -13.6854 -7.56039 8.42484
765 16 -12.5915 -3.35544 10.6602
1067 7 -13.7884 -6.67561 12.1343
1171 6 -13.0153 -6.69538 7.57775
88 6 -16.0182 -3.32897 8.50782
1168 6 -15.7376 -7.24449 7.24588
1055 7 -13.4592 -6.00842 20.3149
1176 6 -11.7461 -6.13509 7.49066
743 6 -11.2302 -3.38504 10.4986
1172 6 -15.0189 -7.83119 8.24649
1167 2 -17.2206 -7.42607 6.85987
87 6 -16.8001 -3.29695 7.39846
86 6 -16.5207 -3.88035 9.66364
89 16 -15.7421 -4.00038 10.7873
3417 2 -10.2374 -4.96278 19.6635
264 9 -16.0376 -4.81823 11.2544
1166 15 -18.0247 -7.42699 8.10357
742 6 -11.198 -1.6679 8.74343
960 9 -12.5771 -3.9385 11.4157
85 6 -17.8414 -4.37052 9.74852
1349 7 -17.7193 -6.62545 6.27256
266 7 -15.0458 -2.84647 6.28285
1169 6 -13.7928 -6.10503 6.52384
1170 6 -15.0481 -6.55 6.2616
1085 9 -15.2226 -5.08744 12.8851
1358 7 -11.1037 -8.61085 8.60954
914 6 -13.9594 -5.85332 14.0895
2833 9 -15.7121 -1.72937 18.6231
1182 3 -10.4854 -7.74993 8.91592
1350 7 -17.2616 -8.37629 6.31958
1352 7 -13.2515 -8.03423 9.33348
764 11 -12.5838 -1.55107 8.68613
1359 7 -10.9326 -7.54284 9.84935
1282 6 -17.672 -8.24325 15.7109
262 7 -18.2702 -4.69252 10.7111
3585 7 -12.0873 -2.13956 18.6801
1064 7 -16.0696 -4.04018 15.6289
946 7 -11.1102 -5.10828 11.8403
1066 7 -15.2892 -3.56077 17.0826
2672 6 -17.9822 -2.29083 19.3245
3415 1 -10.4743 -3.9559 17.333
1057 7 -14.4314 -8.83427 19.5531
3418 2 -10.005 -6.31126 19.0843
1372 7 -17.6318 -8.33737 19.0473
3505 7 -10.109 -1.4788 12.9475
1175 6 -11.7349 -5.17405 6.4128
1179 6 -10.529 -6.61365 8.01424
3420 2 -11.3841 -2.70606 19.3601
1174 11 -13.0104 -5.11542 5.83653
1058 7 -15.4528 -7.53136 19.6436
915 6 -13.5999 -6.79235 13.1774
1346 7 -18.0019 -7.97535 10.6445
3581 7 -10.9022 -6.82921 18.7578
744 6 -10.5498 -4.33694 11.2902
3572 7 -10.7569 -5.96621 16.6249
1056 7 -12.5519 -7.5601 20.282
912 3 -15.1178 -4.0461 16.1757
1062 7 -16.4885 -4.86268 18.1134
1068 7 -12.6891 -8.75333 11.4809
904 6 -13.8854 -6.19078 15.4567
1063 7 -16.1577 -6.03075 19.3796
3419 2 -11.4699 -3.37436 16.2215
1432 7 -17.0099 -7.46098 16.0348
3583 7 -12.5343 -3.08354 16.5601
263 7 -14.9251 -2.95193 8.46023
932 16 -14.7701 -4.82488 13.688
90 3 -16.0969 -2.94397 6.14728
902 6 -13.3152 -7.4577 15.8475
3582 7 -11.5107 -4.19073 15.4565
3308 6 -11.591 -2.06163 14.1787
741 6 -10.5353 -2.59842 9.55316
958 8 -13.1541 -2.14485 9.2613
913 6 -13.0357 -8.0263 13.5676
906 6 -14.5662 -5.46518 16.4917
901 6 -14.1027 -7.18686 18.1481
905 6 -14.7199 -6.03514 17.7212
3310 14 -12.6397 -2.8438 13.9308
3307 1 -10.8259 -2.21025 15.469
911 3 -15.6729 -5.29874 18.6825
3416 1 -11.109 -4.09685 18.7428
1065 7 -14.4209 -3.32828 15.6976
900 2 -14.4057 -7.76564 19.5129
903 6 -13.3314 -7.88819 17.2201
1061 7 -15.0605 -4.55711 19.2127
3577 7 -12.0867 -4.5263 18.6402
909 6 -12.7973 -8.30403 14.9119
3588 7 -14.2633 -1.31244 20.5152
3584 7 -10.4151 -2.10245 19.3861
84 6 -18.1168 -3.74 7.42387
2670 6 -17.5175 -1.3346 18.4232
1351 7 -15.6136 -8.48093 8.93732
2830 7 -17.3226 -2.91086 19.9752
1177 6 -10.5749 -4.54294 6.0445
3412 1 -9.84209 -5.28763 16.8279
3503 7 -9.73539 -2.34868 15.3445
1212 6 -18.0409 -8.66708 20.0267
3571 7 -9.63912 -5.17432 14.6348
1442 7 -18.3043 -3.94322 13.988
267 7 -16.6644 -2.13938 5.71598
3425 6 -12.8833 1.37445 -7.7407
1044 7 -12.971 0.0758711 -4.94059
3427 6 -11.5195 0.973831 -7.77261
3428 6 -13.3237 2.43754 -6.89054
3594 7 -14.7505 3.77072 -6.06919
3429 6 -12.3961 2.97098 -6.10861
3431 6 -11.04 2.63608 -6.07622
3437 3 -14.7577 2.81458 -6.60045
3590 7 -12.8036 3.60946 -5.29045
3593 7 -15.182 2.0386 -5.98247
3595 7 -15.3789 2.99504 -7.50812
3430 6 -10.5504 1.67736 -6.96531
3438 6 -10.5481 4.15961 -4.12396
715 7 -14.3919 5.97491 -6.87492
3432 6 -10.1833 3.31286 -5.17416
3442 6 -11.2063 5.45862 -4.35575
3426 6 -11.1821 -0.321898 -8.25747
2576 6 -10.6524 3.91922 5.09817
2644 6 -17.945 0.0449646 4.2798
3424 6 -13.4524 -0.743856 -8.8452
36 11 -15.1467 4.93033 -3.58747
887 6 -12.9342 -0.992858 -4.72356
2614 12 -18.2564 0.593142 1.54012
2591 6 -12.6217 -0.909144 2.3672
3589 7 -10.1716 -0.69314 -8.25753
2583 15 -10.1329 2.40438 1.7859
2801 7 -17.0379 1.43933 -2.02477
158 6 -17.7619 5.78175 5.05154
2802 7 -15.4812 1.00888 -1.58424
3422 6 -12.1901 -1.22065 -8.61688
217 7 -16.5419 3.03418 -4.50773
2575 6 -9.87087 3.03703 2.98634
2577 6 -10.8947 3.44855 3.86074
221 7 -17.6372 1.98353 -6.19674
3445 6 -10.6844 6.20907 -2.14501
564 1 -14.2094 6.15668 -7.98267
2639 16 -18.137 5.11079 -0.804531
2805 7 -17.0543 2.60323 2.02323
2617 3 -16.4558 0.546333 -1.69614
11 6 -18.0599 3.97471 -5.63355
2843 7 -16.3051 1.9662 5.10497
2623 2 -17.5616 3.13905 1.2099
2592 6 -11.9072 0.874541 0.910799
2590 6 -10.8425 0.455528 3.10025
3423 6 -13.79 0.563386 -8.43269
12 6 -16.9596 3.96228 -4.88499
1048 7 -15.4459 -0.283921 -5.80317
2624 6 -16.8155 4.44663 1.12555
2619 13 -11.3256 1.19268 -1.35968
1043 7 -11.3218 -0.841176 -3.3428
2785 7 -9.98947 0.644353 3.80753
2580 6 -13.0574 2.66979 4.4736
2777 7 -12.4936 2.89048 2.53144
2613 6 -17.0846 -0.0147042 -0.465102
2620 16 -12.5964 2.70323 -0.592785
714 7 -16.1956 5.62874 -8.49039
3598 7 -11.725 5.47642 -5.30706
2582 14 -13.8459 1.77016 3.97141
2803 7 -16.4907 -0.129219 -2.54731
2622 15 -17.4996 2.29148 0.0559319
3444 6 -10.0594 5.03976 -1.86851
2807 7 -15.5441 3.88275 2.77099
2588 6 -10.9369 1.23358 1.98946
2776 7 -12.6048 4.4636 3.21042
3439 6 -9.84871 4.04972 -2.8661
2581 2 -12.3441 3.43423 3.48962
2618 5 -11.8959 1.60673 -0.421615
2593 6 -12.6119 -0.203601 1.27739
14 6 -16.2989 5.13415 -4.41687
2612 6 -17.669 0.9557 0.430311
2626 6 -17.1893 5.41461 0.162401
230 8 -14.9876 5.53489 -2.82925
2629 6 -15.1425 5.93028 2.03228
315 7 -18.2441 4.83051 5.08101
720 9 -12.9403 5.21831 -9.03412
2628 6 -15.8118 4.72392 2.02484
2804 9 -12.9214 2.92805 0.23257
2818 7 -16.9988 0.108935 3.68681
231 8 -15.1647 4.01133 -3.25703
567 16 -13.7196 4.96954 -8.53123
2596 20 -13.7239 -0.509136 -0.135566
2808 7 -14.2735 6.10016 2.70969
2589 6 -11.7085 -0.537229 3.46416
2773 7 -12.4873 5.03289 5.58819
2594 16 -11.6582 -1.14084 4.66797
3436 18 -15.2402 1.17375 -9.06484
2842 7 -15.7519 0.350424 5.64979
2645 6 -17.7644 0.53355 5.57611
38 16 -18.3276 -0.100172 -5.19882
2849 7 -14.3182 3.16083 9.11891
2853 7 -16.7824 1.95951 9.90232
2859 7 -12.1072 0.747662 10.8666
2689 2 -14.8628 1.04916 9.87151
2688 1 -14.1614 2.02919 8.97052
2851 7 -14.5588 1.14129 10.9313
2690 2 -16.3522 0.968941 9.69668
2685 1 -16.8217 0.55765 8.27921
2856 7 -12.7247 0.645587 8.42295
2687 1 -14.6205 1.79878 7.5001
2684 1 -16.1782 1.60671 7.33771
2693 2 -11.9203 1.62452 10.2429
2692 2 -12.7201 1.64033 8.9057
2857 7 -12.0483 2.28707 8.27965
2694 6 -12.1106 2.86558 11.0299
2861 7 -11.0838 4.17439 9.67246
2698 6 -11.6227 4.10122 10.6434
2699 6 -11.842 5.29857 11.324
2858 7 -10.8746 1.59299 9.92612
2844 7 -16.5661 2.58537 7.61659
2855 7 -14.1066 3.79754 7.39246
2848 7 -14.1664 0.784806 7.06229
2697 6 -12.5914 5.25315 12.5612
3502 7 -10.674 -1.02454 17.2569
2850 7 -14.4828 0.058856 9.48949
2696 6 -12.7068 2.81794 12.2845
2911 7 -15.8889 3.84197 12.1984
3511 7 -9.90454 4.46076 13.4462
2852 7 -16.7909 0.372477 10.4923
2845 7 -16.4703 -0.503864 8.01602
2841 7 -17.4294 4.14278 8.84487
3306 2 -10.9995 -0.924085 16.2392
2759 4 -17.7622 3.04276 12.6485
3303 6 -9.77503 1.27565 13.4144
2860 7 -13.0228 1.81834 12.645
740 6 -10.4748 -0.85868 7.86271
159 6 -16.5796 5.80874 5.79404
3640 7 -16.8845 5.84809 17.1027
2882 7 -17.9773 6.16444 14.0803
2755 6 -15.8254 2.69308 13.921
2579 1 -12.7815 2.89675 5.9451
945 7 -11.0152 -0.226142 7.20104
2774 7 -11.7094 4.37566 7.01076
3309 2 -11.0148 -0.952078 13.3624
2708 18 -13.4493 3.90468 14.7456
3481 6 -14.8121 2.47858 19.4642
3299 6 -10.0302 1.51924 16.1908
2757 6 -14.2061 1.4615 15.2183
2675 16 -16.2067 -1.08275 18.1869
2756 6 -16.0544 0.219988 14.3404
320 7 -14.0472 6.06156 6.96433
2758 6 -14.8933 0.280525 15.1378
3483 6 -15.8463 3.26857 18.9189
2754 6 -16.5557 1.43243 13.8015
2753 6 -14.5792 2.59739 14.5101
2910 7 -16.6807 4.63085 13.6977
2695 6 -12.9016 3.98356 13.0439
3501 7 -12.0951 -0.896218 16.3783
2682 4 -17.6163 5.17805 9.24428
2907 7 -13.2551 1.5757 15.8022
3634 7 -13.9267 5.39486 16.9892
2761 4 -17.7644 1.69199 13.0201
2760 2 -16.4685 3.74063 13.0966
3500 7 -10.5032 0.835643 18.1635
2772 7 -10.0315 5.15133 7.40536
2578 2 -11.932 4.15401 5.94014
3304 6 -10.4326 0.343535 15.4883
3482 6 -15.5672 4.31119 18.0359
2681 4 -16.8088 5.85075 10.2006
3635 7 -12.637 2.04276 19.2389
2840 7 -15.9643 5.36927 10.7435
3486 6 -13.2546 3.74357 18.05
3504 7 -11.7636 -0.606338 12.6015
3484 6 -14.277 4.59432 17.6143
3301 6 -10.0831 1.59654 17.5447
3636 7 -12.2262 4.02447 17.8469
3485 6 -13.4816 2.64709 18.9511
2691 2 -14.1326 2.96915 6.70194
3305 6 -10.4286 0.278478 14.1401
316 7 -16.221 4.85092 6.21137
2854 7 -14.9338 3.25329 5.96939
2829 7 -18.0084 0.346053 17.2229
2906 7 -16.6406 -0.693745 14.1549
2908 7 -14.4799 -0.588783 15.5766
2775 7 -12.089 2.05638 6.35665
3487 4 -17.8527 4.27494 18.3637
3489 4 -16.7988 4.97689 17.7565
3488 2 -17.3508 3.1285 19.2555
959 8 -12.9531 -1.08863 7.88988
3639 7 -17.4735 3.30273 20.2851
3638 7 -17.729 2.0987 19.0665
2683 2 -16.4174 1.20855 5.86912
2867 7 -14.4338 6.25174 14.8071
3499 7 -9.64015 2.69034 19.2516
403 3 -14.7447 11.8742 -5.07015
598 7 -13.7187 12.1434 -4.79683
599 7 -14.6268 10.9243 -5.69257
600 7 -15.281 11.5162 -4.20999
3605 7 -12.0142 10.2828 -4.67264
3448 2 -11.2969 10.1718 -3.87813
3447 2 -10.6382 8.77769 -3.82187
402 16 -13.0126 12.3289 -7.09746
399 15 -17.1446 12.9108 -4.05631
3602 7 -12.4266 7.84477 -4.77504
3446 2 -11.8091 7.79317 -3.85446
709 7 -14.8228 10.9966 -8.49162
3604 7 -9.91421 8.63521 -4.71333
566 2 -13.7304 8.66187 -7.9719
597 9 -12.3442 12.0807 -7.75945
319 7 -17.5672 10.7446 1.63045
13 6 -16.8927 6.40549 -4.88299
710 7 -16.1129 10.3261 -7.49927
15 6 -16.3128 7.57674 -4.39454
37 16 -15.1106 7.65939 -3.82012
3443 6 -11.2392 6.48985 -3.42864
3603 7 -10.1108 8.67263 -2.83531
3606 7 -11.8881 10.2905 -2.95113
3456 6 -10.0375 12.7071 -0.772116
3601 7 -12.5095 7.98685 -3.05278
2814 7 -12.2175 7.72157 2.01018
2636 6 -13.4305 10.0951 0.370457
707 7 -16.2317 8.04932 -7.28944
385 6 -15.0499 13.5619 -6.95311
717 7 -12.4013 6.99526 -7.43122
610 7 -12.7408 13.6506 2.42712
386 6 -13.9207 13.1043 -7.67842
16 6 -16.9456 8.76009 -4.73398
2625 6 -16.4757 6.54925 0.0981084
218 7 -16.3692 9.7032 -4.47489
391 6 -16.6239 13.5051 -5.17705
384 6 -13.8488 13.3055 -9.0573
2638 3 -12.9329 8.55545 2.33429
404 6 -16.8694 13.2687 -2.71666
565 2 -13.1565 7.2687 -8.08491
2809 8 -16.8577 7.49493 -1.77633
156 6 -16.2458 8.1728 5.36219
2634 6 -14.0837 10.3698 -0.806381
560 1 -14.9841 8.88067 -8.74422
719 7 -13.8628 9.07292 -6.9307
405 6 -17.609 13.2511 -0.412747
3610 7 -9.96573 11.1115 -7.47552
611 7 -14.0764 13.005 3.52195
232 9 -14.5334 8.30665 -4.21984
314 7 -16.8744 9.89995 3.47159
559 1 -16.0075 7.8463 -8.38867
561 2 -15.6021 10.2714 -8.48853
9 6 -18.0863 6.40304 -5.58858
154 6 -18.0756 6.91455 4.26966
390 6 -15.4655 12.9713 -5.75281
2632 6 -14.8149 8.13249 0.674523
155 6 -17.2692 8.07139 4.3829
3459 3 -10.0316 10.5599 -6.53607
2631 6 -15.4524 8.45076 -0.557206
2813 7 -12.4204 9.54556 2.63154
2812 9 -13.4721 12.1897 -0.792892
2811 7 -12.8363 10.9276 0.817613
2635 6 -13.731 9.00208 1.08991
718 7 -12.9894 9.32505 -8.44065
2637 16 -13.9523 11.5931 -1.39328
3449 6 -10.2039 11.1631 -4.12338
2633 6 -15.0777 9.49019 -1.33423
406 6 -17.6822 12.7962 -1.72516
153 6 -17.4731 9.05819 3.4888
2630 11 -16.5229 7.59689 -0.851715
2810 7 -15.6139 9.75693 -2.26993
3453 6 -9.69578 11.3132 -5.34704
3607 7 -10.7216 10.8715 -1.35885
3600 7 -10.7774 6.91802 -1.33585
3455 6 -10.1774 11.7276 -1.70796
424 3 -13.0515 13.5043 3.5358
3451 6 -9.72328 11.9416 -3.068
3608 7 -10.4575 12.4874 0.232676
3609 7 -10.943 9.84496 -6.54022
609 7 -12.4389 12.6228 3.79899
2815 7 -13.6295 8.23743 3.11424
6 6 -18.163 8.83925 -5.44544
2627 6 -15.3694 6.84172 1.01899
325 7 -17.0578 13.271 5.48719
1004 9 -9.77729 6.80512 -8.82503
1740 7 -10.9324 13.434 -6.28786
3617 7 -9.69009 13.7632 1.55907
716 7 -12.6241 7.06014 -9.03417
563 2 -15.5099 6.47447 -8.69121
215 7 -18.2533 11.0105 -5.85495
604 7 -17.283 13.8121 2.95133
558 6 -17.3964 8.23044 -9.1416
322 7 -17.2991 10.7891 5.48959
2703 6 -12.0281 7.68698 11.2095
2704 6 -11.7828 8.85412 10.4776
2713 6 -10.9522 11.2597 9.41976
2711 6 -12.2317 11.1286 10.0574
2710 6 -12.7298 9.90163 10.5148
2712 6 -10.1638 10.1979 9.20727
2705 6 -10.5956 8.91005 9.65861
2869 7 -10.7237 12.2595 9.02226
2716 6 -13.1671 12.2228 10.1266
2714 6 -14.0585 9.83041 11.026
2870 7 -14.4675 8.84596 11.3832
2717 6 -14.441 12.0793 10.6029
2715 6 -14.9274 10.8734 11.0774
2873 7 -16.9833 10.0897 11.2266
2718 2 -16.288 10.7573 11.6986
585 7 -11.8404 12.7592 20.3007
2707 6 -9.82066 7.77371 9.50168
2701 6 -12.6398 7.64896 12.4936
2874 7 -16.7771 11.7503 11.7289
324 7 -13.8404 12.6568 6.96125
2872 7 -15.0908 12.9596 10.6287
2883 7 -16.9155 7.47062 14.4626
164 6 -14.4807 6.97903 6.50528
168 6 -13.6337 10.4928 6.78309
162 6 -15.6435 9.31114 5.82609
167 6 -15.6722 11.7709 6.31743
711 7 -16.231 10.8712 19.2024
712 7 -17.2657 11.4679 20.3962
333 7 -18.1529 10.0281 8.02867
708 7 -14.715 8.82033 19.9191
377 6 -12.1128 13.513 15.7447
583 10 -11.8055 7.60425 18.4356
2706 6 -10.2884 6.58467 9.9576
383 2 -12.7775 12.514 19.8278
321 7 -12.711 8.03776 7.1287
557 6 -18.3328 7.2949 20.4085
579 7 -10.2332 11.3371 12.0888
556 6 -17.6019 9.45144 19.9013
2871 7 -12.6816 13.1948 9.88314
582 7 -11.2087 13.4181 12.5147
2720 2 -17.2782 10.0775 14.2168
605 7 -11.5842 13.1172 5.72479
375 6 -12.559 12.7616 18.4146
170 2 -16.2602 13.1144 6.20682
368 6 -11.392 11.3392 15.2248
372 6 -12.009 10.4548 17.8238
367 6 -10.0862 9.38916 14.849
327 7 -16.3258 12.8211 8.28511
365 6 -9.91575 9.80723 13.5511
2862 7 -12.7988 8.69296 12.8549
369 6 -10.5117 10.9012 13.0403
166 6 -16.2878 10.6161 5.87931
580 7 -12.2153 9.99213 18.7781
2719 2 -16.1057 10.2966 13.2456
169 6 -14.3241 11.6776 6.71241
370 6 -11.3162 11.6971 13.84
374 6 -12.2067 11.8011 17.4365
171 2 -16.6946 13.5873 7.59439
2875 7 -15.729 9.20963 13.1932
586 7 -12.9857 11.4673 19.9195
165 6 -13.6742 8.06919 6.70121
373 6 -11.9018 12.2303 16.1504
323 7 -12.5407 10.4422 7.10588
2876 7 -15.3665 10.8516 13.764
366 6 -10.966 10.097 15.712
371 6 -11.3414 9.62001 16.9657
2866 7 -13.9908 7.8613 14.3284
562 2 -16.6467 10.564 20.1152
381 19 -10.9656 8.01735 17.4639
380 6 -11.4351 13.0489 13.5227
2877 7 -16.6759 9.45265 14.8832
163 6 -14.2801 9.30446 6.35484
2709 3 -13.5693 6.84878 14.4884
2865 7 -12.8367 6.83897 15.3349
2731 3 -17.9817 7.22122 14.4014
379 6 -11.8302 13.9626 14.4087
172 2 -18.2178 13.7461 7.66376
2878 7 -17.4295 11.013 14.8129
713 7 -15.2058 6.5941 19.8388
2838 7 -16.5057 8.08006 10.0162
2702 6 -11.4849 6.48265 10.7549
2679 2 -17.2633 7.31768 10.3653
2837 7 -17.4423 7.70768 11.3968
2700 6 -12.9044 6.49006 13.1665
157 6 -15.7538 6.93652 5.86641
334 7 -18.095 11.5072 8.90495
326 7 -15.4339 13.7493 5.7846
3615 7 -7.24206 -21.7698 -4.25092
1996 6 -5.62858 -20.4934 -7.23332
1994 6 -5.09923 -19.9872 -6.03088
2001 6 -5.41428 -18.7044 -5.57594
2007 6 -6.84375 -18.4786 -7.52514
1992 2 -2.56039 -22.6891 -5.2426
2151 7 -2.40947 -20.6556 -3.97808
1993 6 -3.673 -21.9452 -5.94514
1999 6 -3.2425 -20.0745 -4.4734
2150 7 -2.68228 -22.5147 -4.1914
1995 6 -4.0348 -20.6862 -5.45733
1997 6 -4.21195 -22.5212 -7.09008
2000 6 -3.48326 -18.8087 -4.08955
2002 6 -4.62067 -18.0579 -4.59814
2152 7 -2.75827 -18.3751 -3.39437
2005 6 -6.2101 -17.895 -6.42765
1998 6 -5.08616 -21.7406 -7.84279
2006 6 -6.61604 -19.7742 -7.87726
3621 7 -8.9504 -21.628 5.45223
2149 7 -2.58983 -23.8076 -5.31386
2548 7 -3.88667 -17.3329 3.37446
2159 7 -7.67978 -17.8803 -7.99982
3475 2 -8.89903 -18.7622 1.96025
3616 7 -7.76935 -20.8503 -2.12825
3463 6 -7.6079 -22.7558 -3.97926
3149 7 -2.08478 -20.328 2.0291
2543 7 -5.17736 -21.669 -0.449666
3474 2 -9.48253 -22.666 3.54582
3148 7 -1.56407 -20.8649 5.38288
2003 3 -3.80739 -23.9297 -7.51703
3480 16 -7.27899 -23.415 -6.23158
2544 7 -5.11515 -19.351 -1.04264
3626 7 -8.69485 -18.5212 0.873816
2494 7 -1.08378 -23.7146 -2.52536
3477 2 -8.88515 -17.7122 4.32175
3633 9 -7.36744 -24.1657 -6.79251
2008 6 -4.93447 -16.6883 -4.25629
2392 6 -4.77183 -18.6909 1.03733
3466 6 -8.3061 -21.7735 -1.88196
2390 6 -4.64841 -19.1214 2.36911
2331 6 -4.23318 -23.8793 0.743678
3471 1 -8.41899 -20.0614 2.55171
2947 15 -1.19467 -22.4239 3.42441
3472 1 -9.14545 -20.1804 3.91449
3618 7 -7.77839 -20.1637 0.130557
3478 2 -8.6169 -19.0948 4.88772
3469 6 -8.24343 -21.0992 0.415654
3467 6 -9.42245 -23.4197 1.19952
3462 6 -7.77166 -23.7029 -4.93058
3465 6 -8.58808 -22.0224 -0.584322
2394 6 -5.00134 -19.5987 0.0170911
2395 4 -3.8841 -19.3156 4.49107
3470 6 -8.62486 -21.2361 1.71363
2495 7 -1.339 -22.081 -1.78766
3461 6 -8.22206 -22.8683 -2.7142
3619 7 -7.32012 -20.0293 2.77687
3473 2 -8.73071 -21.5886 4.37515
2397 4 -4.13919 -18.3872 3.47905
3476 1 -8.32649 -17.6099 2.85579
2958 16 -1.36001 -18.0789 1.48538
1990 2 -1.05016 -21.6257 -7.07203
3624 7 -9.27846 -23.6695 3.96398
2391 6 -4.70054 -20.4919 2.72253
3629 7 -8.37534 -16.8712 4.92356
2954 6 -1.08315 -20.2202 2.45975
3631 7 -7.5789 -19.2897 5.10346
2344 18 -4.89228 -23.0922 2.0991
3457 6 -8.93938 -24.0819 -2.40629
2145 7 -1.57061 -22.1337 -7.88254
2542 7 -4.73089 -17.6371 0.903707
2546 7 -5.34261 -21.0231 4.57061
3622 7 -7.65393 -21.7673 4.33554
2332 6 -3.10706 -23.2528 0.191418
3150 9 -2.18531 -18.5606 1.30749
2396 2 -4.423 -20.7491 4.15802
2389 6 -4.78301 -21.366 1.67026
2393 6 -5.00172 -20.9267 0.390476
2547 7 -3.73719 -21.5844 4.37272
2496 7 -2.67145 -22.3572 0.753369
2545 7 -3.37224 -19.0151 5.36743
3627 7 -7.24961 -17.7101 3.15722
2329 2 -1.30149 -23.1859 -1.60239
2146 7 -1.46897 -20.6236 -7.09921
2154 7 -2.91465 -23.8415 -8.21738
3464 6 -9.24572 -23.2413 -0.176951
2010 6 -6.56951 -16.5824 -6.04344
2024 16 -7.36129 -20.1831 -8.91688
2330 6 -2.59044 -23.7406 -1.00479
1991 2 -1.14048 -22.3101 -5.71665
3468 6 -9.1168 -22.4528 2.11947
1590 4 -2.21722 -16.7987 -9.09731
2537 7 -5.15466 -20.1077 11.5298
2384 1 -4.20883 -22.0083 11.611
2538 7 -5.74254 -20.3758 9.10496
1104 6 -8.88012 -19.0372 9.13536
2386 2 -5.53389 -21.2247 9.7321
2380 1 -4.92319 -22.3523 8.8683
2539 7 -6.56392 -21.5159 10.2685
2381 2 -5.80799 -22.6498 7.66005
2385 2 -4.63412 -20.8113 10.8504
1101 6 -8.07313 -19.492 11.6759
1102 6 -7.64957 -18.3298 10.9952
1103 6 -8.10655 -18.0492 9.71287
2536 7 -3.7425 -20.3402 10.5639
2528 7 -4.01 -21.8772 8.51002
1105 6 -8.86719 -20.4662 11.0725
2535 7 -5.09233 -22.4938 12.0584
1642 6 -1.965 -18.4156 11.2724
1643 6 -2.93231 -17.8186 10.5019
1641 6 -2.75127 -17.4081 9.17342
1100 6 -6.76754 -17.4764 11.609
1660 16 -2.31879 -18.7953 12.4746
2951 3 -1.32291 -21.5187 6.21727
2387 16 -3.33763 -21.5936 12.5789
3630 7 -9.0536 -19.181 5.91197
1310 7 -9.39914 -22.6397 13.6356
2529 7 -6.2436 -21.789 7.2141
1107 6 -9.47872 -21.5425 11.8064
2200 6 -2.99888 -23.5319 15.5241
1817 7 -2.365 -21.7987 19.3931
1662 6 -1.78945 -19.0798 17.7277
2221 16 -5.09241 -23.5422 16.5678
1813 9 -3.21481 -18.487 12.6691
1646 6 -3.77706 -16.7272 8.4786
2531 7 -4.09469 -22.6286 6.2542
1795 7 -3.94402 -17.6455 10.9927
2190 6 -1.66278 -23.8756 15.383
1734 7 -9.40101 -22.0147 17.4477
1667 4 -1.95337 -20.9866 18.891
1729 7 -5.89195 -17.0336 20.0701
2158 7 -4.63473 -22.9091 20.0295
2379 1 -4.59887 -23.5976 9.65749
2530 7 -6.4999 -23.4083 7.92497
2199 6 -3.82008 -24.0222 16.5459
1099 6 -6.36952 -17.6911 12.9278
1096 6 -7.73588 -19.6698 12.9978
2382 2 -4.85673 -23.2634 6.60783
2533 7 -2.68353 -22.7188 10.3493
1098 6 -8.17842 -20.8334 13.6436
2534 7 -3.18874 -23.9574 11.4029
1111 2 -7.8546 -16.8062 8.87072
1731 7 -8.21603 -18.7827 18.3804
1093 6 -6.31568 -20.6594 15.117
1106 6 -9.27555 -20.2037 9.73132
2416 9 -5.22363 -22.7628 15.9791
2156 7 -5.57521 -21.4259 19.7604
2527 7 -5.49402 -23.9926 10.1478
1637 6 -1.50313 -17.6769 8.54585
1814 7 -3.14111 -17.3925 17.0854
1309 7 -9.40027 -18.7878 8.17726
1664 6 -2.11917 -17.8639 17.1781
1566 6 -9.29112 -17.5881 15.4055
1638 6 -1.29294 -17.2333 7.27384
1108 6 -9.07344 -21.7589 13.0952
1669 4 -2.73023 -19.9114 18.4775
1820 7 -3.76197 -19.6836 18.7849
1312 9 -4.3426 -19.4226 15.6367
2399 7 -1.09156 -22.154 14.1238
1097 6 -7.41847 -21.3028 14.7304
2540 9 -2.59101 -22.192 12.6912
2402 7 -3.39876 -22.5609 15.0964
2383 2 -3.54791 -23.1346 10.76
1567 6 -8.31815 -18.1238 17.5778
1307 7 -7.59226 -22.3671 15.0579
1095 6 -5.99957 -19.436 14.6428
1306 7 -5.83246 -20.9529 16.0113
1094 6 -6.7844 -18.8634 13.5974
1666 6 -1.03126 -17.1106 16.7527
1110 16 -4.91891 -18.8137 15.1879
1568 6 -9.27007 -18.3895 16.5901
1313 7 -7.45806 -17.1416 7.96024
3147 7 -2.29956 -21.6038 6.75198
1564 6 -7.47187 -17.0061 17.422
2004 3 -5.42627 -22.284 20.4868
1109 19 -5.23042 -16.6491 13.5802
1749 7 -2.72971 -17.7424 20.4404
2157 7 -6.45784 -22.7483 20.4589
1311 10 -5.36056 -16.5911 14.8578
1325 9 -9.14511 -16.859 10.7938
1796 7 -4.74054 -16.7362 8.90715
2532 7 -5.42343 -23.6231 5.73168
2177 9 -7.10381 -21.0973 20.519
2013 6 -6.45341 -14.7882 -4.46699
2162 7 -7.2684 -14.2142 -4.99598
2014 6 -5.91594 -14.1559 -3.36456
3551 7 -7.89072 -13.7788 -7.62193
3379 6 -5.53482 -10.9463 -8.08908
2163 7 -5.591 -12.1248 -3.65645
3549 7 -5.39261 -11.4165 -7.07123
2170 7 -7.90529 -12.4283 -4.40083
2181 7 -2.7973 -13.3251 -6.21449
2031 4 -2.13744 -13.0961 -5.33095
2171 7 -7.46464 -10.4254 -3.54682
2012 6 -4.87087 -14.8372 -2.74016
3406 4 -2.44789 -9.47 -7.40233
2184 7 -3.46147 -11.6252 -4.1918
2015 1 -6.26833 -12.7444 -3.01463
2019 2 -7.72218 -12.4559 -3.35793
1743 7 -4.33078 -14.0439 -8.35094
642 7 -8.53602 -10.384 -7.59748
2172 7 -8.45828 -11.4945 -0.854214
480 6 -7.83004 -9.08396 -6.02062
1744 7 -4.6986 -15.7739 -8.04252
1588 4 -1.56799 -14.6362 -8.71747
2020 1 -8.12938 -11.0282 -2.89214
1655 2 -6.25109 -13.2866 5.41074
3381 6 -4.7077 -9.87381 -8.49497
3387 6 -8.07503 -13.4842 -8.6723
2026 6 -1.36432 -12.1596 -3.4423
1801 7 -3.44266 -13.3139 1.64364
2160 7 -7.32498 -16.0866 -6.59164
1650 6 -4.35762 -14.8858 5.34211
2033 4 -2.45586 -12.2239 -4.32993
3410 4 -1.47635 -9.43282 -6.31132
3564 7 -4.36603 -9.44301 -6.48754
1803 7 -2.16024 -13.5078 3.56727
1804 7 -2.0988 -15.0737 2.75589
3479 16 -8.58806 -16.3268 2.30567
2169 7 -8.38191 -13.1854 -2.88491
1657 2 -6.99344 -11.8687 3.63059
2051 8 -2.44934 -10.4684 2.44731
2173 7 -8.18958 -9.81828 -0.998178
1747 7 -1.70317 -13.5946 -8.95383
2166 7 -3.8249 -12.2663 -2.1777
1797 7 -1.16096 -16.0321 4.78576
2018 2 -4.27069 -14.3382 -1.45954
2175 7 -5.69857 -10.2886 -1.77588
2168 7 -3.21362 -14.5571 -1.46698
2052 9 -1.70507 -11.0398 2.9534
2165 7 -3.75107 -12.4847 -0.437373
3401 6 -9.61592 -15.6085 -2.39489
3408 4 -1.81811 -10.2306 -8.38232
1585 2 -4.23795 -15.0597 -8.80506
1810 7 -5.54315 -11.6682 2.08512
2016 1 -5.89912 -12.4323 -1.53608
2011 6 -4.39147 -16.0828 -3.14315
2050 8 -3.12723 -9.42602 1.38218
1658 2 -5.99484 -12.4606 2.68016
1807 7 -7.7581 -13.8679 4.15624
1809 7 -7.89199 -11.4292 3.11156
1653 2 -3.91135 -13.9105 2.41082
1654 2 -2.73765 -14.4408 3.41297
1802 7 -4.54333 -14.7388 1.90717
1808 7 -6.6716 -10.9972 4.34797
1856 11 -2.27885 -9.94151 1.60248
1800 7 -4.28028 -12.497 4.03782
1811 7 -6.36464 -13.2564 1.97673
1656 1 -7.46135 -12.8857 4.6312
2022 2 -6.27638 -10.9856 -1.16129
2164 7 -6.44926 -13.0538 -0.866003
2021 2 -7.8385 -10.7874 -1.3812
1647 6 -2.16271 -15.895 5.30769
1799 7 -5.96976 -14.8971 4.00108
1652 1 -4.83373 -13.1938 3.38347
2174 7 -6.04847 -10.7513 -0.0549693
2017 2 -4.40986 -12.8343 -1.30955
1659 16 -8.2926 -12.1846 5.46467
1648 6 -3.07439 -15.0027 4.7253
641 7 -6.9596 -9.66806 -5.75379
1651 1 -5.41677 -14.0859 4.45228
2009 6 -5.96131 -15.9597 -4.97498
2167 7 -4.65547 -14.9065 -0.538807
3405 2 -3.87722 -9.13793 -7.43638
656 7 -9.4389 -12.6201 1.13975
1586 4 -2.76319 -15.5066 -8.89261
3560 7 -8.92814 -16.0254 -0.393659
481 6 -8.74655 -9.49933 -7.01777
2178 7 -1.97278 -10.4697 -2.04883
1834 6 -1.1569 -9.12785 1.56552
2028 6 -1.25089 -11.2976 -2.34494
3559 7 -8.65431 -15.5807 -2.83141
3632 9 -8.75082 -15.7738 3.06376
2023 16 -9.39858 -10.6621 -3.28163
2161 7 -3.53623 -16.4627 -2.50294
1857 16 -1.03312 -11.178 3.63586
3569 7 -1.5421 -8.98337 -5.35487
1083 7 -7.39503 -13.8422 10.1565
1081 7 -5.99761 -12.4579 8.52082
929 2 -6.59429 -12.0362 9.31238
928 1 -7.85489 -11.3375 8.82537
927 2 -8.51761 -10.6845 9.96418
924 1 -7.50685 -12.2292 11.5947
1079 7 -8.59104 -11.9957 8.36635
930 2 -6.7663 -13.0177 10.4285
1708 7 -3.40398 -10.5058 9.24605
1529 15 -3.26819 -11.5507 11.5874
1524 6 -2.8504 -10.2485 11.2515
1671 7 -3.65599 -13.9939 10.3375
1082 7 -5.74788 -13.3312 10.7427
1523 6 -2.97265 -9.81414 9.96134
1072 7 -6.79635 -11.4433 11.9074
923 1 -8.83237 -11.6798 11.0997
931 16 -7.55453 -10.2937 7.83182
1670 7 -3.28732 -15.0254 12.4901
1548 6 -2.84077 -11.8375 12.905
1558 6 -6.08572 -15.3118 17.2843
1645 6 -3.57023 -16.2465 7.22518
1080 7 -5.90606 -11.2699 9.74666
1112 6 -9.0336 -15.8633 8.62174
1077 7 -7.91168 -9.83261 10.4382
1071 7 -9.39429 -12.5557 10.6728
1552 6 -1.45833 -12.0279 13.0976
3374 15 -6.63841 -9.17791 16.7
1676 9 -1.75772 -15.3992 14.148
1549 6 -3.18725 -12.248 15.1989
1069 7 -9.46047 -10.8163 15.5434
1076 7 -8.16857 -12.6206 14.9388
1563 6 -7.65691 -16.3202 16.3233
1461 6 -2.65699 -14.4057 10.5533
1816 7 -1.11844 -16.1524 16.1751
3567 7 -2.20394 -10.5393 20.3399
3547 7 -4.61479 -9.55295 16.9874
1554 15 -4.05743 -12.3773 16.3176
3384 6 -7.28794 -12.4578 20.3981
1725 7 -4.75949 -11.9894 13.8249
3388 6 -9.18652 -13.9937 20.3889
1649 6 -4.57381 -15.4527 6.60664
3380 6 -4.69471 -9.392 19.9229
3385 6 -8.8104 -12.6745 18.3339
3550 7 -8.99437 -12.2678 17.3521
1078 7 -9.3864 -10.2361 9.50191
1551 6 -1.81288 -12.4203 15.4142
1805 7 -5.687 -12.3916 5.85675
1074 7 -8.3837 -13.8865 12.8583
1755 7 -1.88304 -13.5554 17.2012
1798 7 -5.60349 -15.3882 7.15396
925 2 -7.60246 -13.0926 12.8452
1550 6 -3.68998 -12.0014 13.9506
1073 7 -6.6339 -13.5596 13.0031
3383 6 -7.84627 -12.274 19.1868
1705 7 -2.75087 -9.07367 6.34731
3378 6 -6.29417 -10.8402 19.3586
1742 9 -3.92704 -13.2341 20.092
1561 6 -4.92145 -15.1718 19.5558
1116 6 -9.07234 -15.1012 7.49367
1462 6 -1.56673 -14.186 9.64503
1730 7 -8.54476 -15.7098 14.3939
1584 16 -3.91008 -13.1502 19.1449
1084 9 -6.96083 -10.6381 7.20383
1315 7 -8.36397 -15.1861 6.66199
1594 2 -1.36925 -12.5966 16.8683
1674 7 -2.75849 -13.0254 8.26086
920 6 -9.32202 -11.3805 13.5316
1559 6 -5.74635 -16.2466 19.3064
3382 17 -7.11325 -11.2331 18.352
1728 7 -5.19339 -13.7358 15.0827
926 2 -7.97203 -12.125 13.9089
1560 6 -4.74683 -14.1803 18.664
1556 6 -5.32797 -14.1749 17.3197
1553 6 -0.938215 -12.3152 14.3317
1557 6 -6.41758 -16.3596 18.036
1314 7 -6.93941 -16.2732 9.14551
1754 7 -1.70251 -11.6667 17.4781
1555 2 -5.14578 -13.2436 16.0853
1075 7 -7.16297 -11.3934 14.1509
3376 6 -5.54294 -9.85658 18.8407
1565 6 -8.52062 -16.3941 15.3209
1727 7 -5.99956 -12.6936 16.0988
1562 17 -6.84796 -15.1541 16.0899
1704 7 -1.49693 -9.80753 7.45899
1472 6 -1.68651 -13.4176 8.4492
1457 6 -2.45598 -14.8286 11.8351
1644 6 -2.2719 -16.4458 6.58328
1522 12 -2.29695 -9.38564 12.1161
1474 16 -1.00473 -15.6876 13.5756
3375 2 -5.48204 -9.16183 17.6148
1806 7 -6.72565 -13.8545 6.29888
1459 6 -1.21163 -15.1494 12.2911
1493 16 -1.01128 -13.1566 6.11995
1812 9 -7.75839 -12.0594 6.22592
1713 7 -1.1314 -9.20025 13.9872
1308 7 -6.65248 -16.4621 11.0926
3377 6 -6.33806 -11.4651 20.5032
3537 8 -5.70893 -5.64753 -7.19501
3538 7 -5.49858 -4.81502 -4.54388
487 6 -7.74009 -6.87992 -2.99703
3358 11 -4.82862 -5.23517 -7.17323
3355 6 -2.65235 -4.7382 -7.88407
3360 6 -2.69109 -4.52218 -6.51195
3362 6 -3.4213 -4.40124 -3.85147
3359 6 -4.05505 -4.78591 -6.09101
3361 6 -4.45378 -4.59533 -4.77289
3353 6 -3.94343 -5.1817 -8.30958
3112 1 -8.12455 -2.88258 -6.79786
485 6 -7.20096 -7.45928 -4.19513
3365 16 -3.6577 -4.51289 -2.48033
3364 6 -2.17601 -4.10341 -4.26436
3264 7 -7.16321 -3.41108 -5.05569
3113 2 -7.64485 -2.50372 -5.35632
1700 7 -4.82032 -8.37962 3.57287
3265 7 -8.46073 -2.38812 -4.66246
1023 7 -2.89123 -1.46757 -1.70234
3363 6 -1.78776 -4.09818 -5.58598
482 6 -8.03028 -7.8935 -5.25671
3111 2 -7.16819 -2.55252 -7.98935
3268 9 -7.76741 -4.80964 -6.69496
3256 7 -5.0959 -2.38205 -6.25496
489 6 -5.74148 -7.67537 -4.22735
3563 7 -4.0908 -8.09437 -7.51741
1703 7 -2.32944 -4.3426 5.39819
3115 16 -8.51657 -4.25927 -7.03773
951 7 -9.13377 -1.83207 5.34632
645 7 -8.72545 -6.58033 -2.72231
1515 4 -4.74417 -7.54104 4.328
755 6 -3.19627 -1.6394 4.10468
486 6 -6.85253 -6.74813 -1.883
3540 9 -4.56583 -4.82884 -2.31951
3261 7 -6.3682 -3.33748 -8.15927
867 1 -5.50329 -1.54922 -0.650529
648 7 -3.87795 -7.81741 -3.24042
488 6 -5.54772 -7.17776 -1.91766
1028 7 -5.71318 -2.13428 -1.53113
2037 7 -2.09329 -7.88425 0.109514
936 6 -9.06765 -7.99777 3.03095
1039 7 -9.41103 -2.10382 1.53992
491 16 -7.36155 -6.21065 -0.727943
3539 7 -1.46871 -3.6946 -3.56944
1510 15 -2.32041 -7.37937 4.34605
1514 2 -5.91522 -6.96679 5.09761
1086 7 -8.38328 -8.68361 3.47647
1698 7 -6.88126 -6.63411 4.63307
761 2 -2.77986 -3.39172 2.2886
1035 7 -4.29288 -1.66773 1.02712
757 6 -3.72736 -2.63394 3.25958
1832 6 -1.13527 -8.06886 0.635323
954 7 -5.67067 -4.76442 2.69281
873 2 -9.2698 -1.91983 0.446433
762 14 -3.3919 -5.47602 1.11764
1037 7 -7.59241 -3.13457 0.313698
1036 7 -7.85856 -2.57045 -1.14664
1507 6 -1.2534 -7.11277 5.18305
490 6 -4.95859 -7.56908 -3.11296
956 7 -2.30836 -2.67049 1.66826
760 6 -3.66685 -4.19334 1.36637
957 7 -1.95962 -4.04361 2.84255
647 7 -5.44867 -8.22331 -5.13167
1511 4 -3.53401 -6.93402 4.77158
952 7 -7.85977 -2.95942 3.65329
953 7 -6.79311 -3.6979 2.05288
649 9 -6.74141 -6.39694 0.0239971
3259 7 -3.25322 -2.1252 -7.2414
1087 7 -9.41874 -6.2545 0.188666
872 2 -7.90477 -2.19836 -0.104938
752 6 -8.11384 -1.49702 5.1489
955 7 -5.50037 -4.42245 0.25015
751 6 -5.93652 -1.99439 4.11955
1034 7 -3.80423 -2.66621 -0.335773
3262 7 -7.77065 -2.60525 -8.95184
756 6 -5.12937 -2.74007 3.26487
753 6 -7.32261 -2.20627 4.29817
938 6 -8.66345 -7.31821 1.95799
758 2 -5.75202 -3.78109 2.30229
484 6 -9.26154 -7.29205 -5.48894
759 1 -5.02475 -3.67908 0.961984
871 2 -4.67194 -2.36189 0.271699
646 7 -4.96133 -7.02908 -0.995417
1088 7 -7.60934 -7.2415 1.61877
3263 7 -8.95147 -2.24551 -7.12053
3357 6 -1.66429 -4.50882 -8.81634
763 15 -1.79918 -1.37743 3.99916
3108 1 -5.65772 -1.35593 -6.34854
2042 7 -1.43424 -5.84622 -0.710331
644 7 -9.4078 -6.36808 -5.03934
1356 9 -8.10462 -4.06828 5.57102
745 19 -4.60794 -3.04593 8.99994
746 16 -5.26208 -5.42707 9.99352
735 6 -6.33345 -2.84186 9.35754
729 6 -7.25667 -6.04647 11.0535
731 6 -6.55929 -5.07687 10.3576
730 6 -7.10768 -3.81753 10.0822
3528 7 -3.40448 -4.64737 11.7398
3527 7 -2.21962 -2.89454 11.2796
732 6 -8.4455 -3.61386 10.2958
736 6 -6.98023 -1.82309 8.71632
738 6 -8.39713 -1.74381 8.78033
737 6 -9.10388 -2.64882 9.59663
1517 2 -1.92729 -8.79241 7.12972
3544 9 -5.79178 -5.79821 18.8295
1357 7 -9.45308 -8.13482 9.1309
1521 6 -1.81299 -7.73041 10.4632
942 7 -6.77861 -7.03464 11.2772
948 9 -5.14429 -6.2684 10.2503
733 6 -8.51621 -5.73519 11.4839
1180 6 -9.43917 -5.97199 7.57181
3562 9 -3.83654 -8.25451 18.6753
1697 7 -5.74242 -5.12491 6.33269
1707 7 -2.63563 -7.04547 8.11159
3404 16 -3.88153 -8.30674 19.6219
1714 7 -2.53921 -8.1086 14.3166
3350 15 -3.09661 -4.09031 16.8615
3576 7 -9.57356 -3.23742 17.4596
1710 7 -1.72372 -5.72939 10.9766
3341 6 -2.21544 -3.42875 14.6892
3413 1 -9.13632 -6.11628 17.9206
1531 2 -1.38855 -8.1097 14.057
1706 7 -3.7753 -8.21714 7.96659
3342 12 -3.80445 -5.1788 15.0493
1547 16 -1.99529 -8.90689 16.7542
3356 6 -1.98145 -4.79504 19.563
3354 6 -4.29792 -5.25238 20.0614
3339 6 -2.37758 -3.58176 13.3227
3343 6 -3.29526 -4.46952 12.8676
1525 3 -1.2483 -6.39058 10.2134
1181 16 -8.21055 -4.23492 6.47922
3344 6 -3.94657 -5.34562 13.7279
1518 2 -2.73443 -8.10741 8.23991
1355 7 -8.49669 -6.36766 8.02928
3548 7 -5.29268 -8.07542 17.7846
3414 2 -8.66567 -7.42472 17.2648
3340 6 -2.98133 -4.26449 15.5198
3545 7 -5.01517 -8.52875 14.7716
1717 8 -1.26717 -8.18265 19.2534
3345 3 -1.31117 -2.42651 15.4071
734 6 -9.1588 -4.50338 11.147
3411 2 -9.05165 -5.11024 15.5861
3570 7 -8.65357 -4.06871 15.7013
3367 16 -5.56974 -5.63172 19.7383
3534 7 -4.50588 -5.49181 17.4748
3371 6 -7.7124 -7.12105 16.233
3546 7 -7.08328 -4.80062 14.0763
3575 7 -8.17736 -7.99436 18.0592
947 10 -4.03017 -2.06385 8.35089
3372 6 -6.83335 -5.68926 14.5834
1520 6 -1.76379 -8.16181 11.8351
3370 6 -5.76714 -7.79795 14.9705
1512 4 -5.19104 -5.89157 5.78681
3533 7 -2.82467 -6.04522 17.2561
3373 6 -7.8492 -5.99123 15.4627
3532 9 -7.0199 -1.29654 15.1787
3338 2 -1.71692 -2.66923 12.3048
3573 7 -8.21993 -5.59377 18.3532
3351 2 -3.45053 -5.27866 17.589
1702 7 -3.46888 -4.07838 6.69109
3352 6 -3.26417 -5.12251 19.1115
3349 15 -4.82583 -6.29192 13.2965
3368 6 -5.74206 -6.56903 14.2833
3369 6 -6.70104 -7.97596 15.998
1701 7 -2.15587 -5.31264 6.81581
3347 13 -7.23656 -2.01546 12.7928
1709 7 -1.49851 -5.97213 9.28112
943 7 -9.02005 -6.5638 12.0413
3580 7 -9.60157 -6.93262 19.9447
1178 6 -9.35201 -4.92036 6.69304
1519 6 -2.43097 -8.56433 9.57881
3535 7 -1.20653 -4.58796 18.7944
1534 6 -0.952012 -8.02434 16.5215
1516 3 -2.91171 -4.84604 6.2339
1509 6 -0.97862 -7.8906 6.44712
3574 7 -9.55769 -8.09426 17.0169
1530 15 -1.20274 -7.42911 12.8243
3578 7 -9.3329 -4.4433 19.6905
1724 9 -2.50823 -8.67985 15.9834
3529 7 -1.86608 -1.53602 15.7998
1699 7 -6.3969 -7.71308 5.76795
1513 4 -3.81165 -5.90296 5.68634
1025 7 -5.8536 0.83329 -2.54806
3258 7 -4.82108 0.623085 -6.60356
1002 7 -7.53223 4.67871 -6.805
823 6 -3.2133 1.609 -2.73837
825 6 -2.94459 0.278593 -2.94014
821 6 -2.48335 2.56792 -3.52559
827 2 -3.57044 4.23312 -4.71017
826 15 -2.81566 3.91049 -3.55301
1000 7 -4.60742 4.05336 -4.42821
3592 7 -7.3832 1.54343 -6.33999
834 17 -5.42025 5.35062 -6.13646
999 7 -3.3347 3.55325 -5.58586
824 6 -1.91304 -0.082654 -3.80053
3435 6 -8.42691 1.93523 -6.19512
3255 7 -7.19036 -0.506275 -7.60191
3440 6 -8.05473 2.79341 -3.97638
3596 7 -7.03266 2.43568 -4.01811
2519 7 -1.46023 4.48432 2.71386
1027 7 -4.73246 3.04339 -1.98376
3597 7 -7.99671 3.4795 -1.98034
2518 7 -2.52887 3.63942 3.82465
2367 3 -1.65936 4.38515 3.79234
828 6 -3.44677 5.62966 -5.1395
3507 8 -4.38099 2.30575 -8.35434
3434 6 -9.22755 1.52504 -7.19053
3599 7 -9.58923 4.92826 -0.978411
866 2 -4.22369 2.10236 -1.77683
1031 7 -8.16646 0.479393 0.0214637
3106 6 -5.56283 -0.877446 -8.87133
2781 9 -5.35 3.33895 5.15302
2574 6 -8.55545 3.20995 3.38097
2782 7 -6.63033 3.49007 2.34127
3506 8 -5.80004 1.70242 -8.77348
3441 6 -8.57918 3.39597 -2.87183
2571 6 -9.38556 4.09894 5.5531
3107 1 -6.41456 -1.28186 -7.68442
2587 3 -7.43029 2.66125 2.52261
2353 6 -5.7641 6.09265 -0.0434254
868 1 -6.79452 -1.09395 0.0196587
998 7 -1.81438 -1.1288 -4.21145
856 16 -1.29892 5.99469 -4.14504
1032 7 -6.68965 2.28191 -0.487708
822 6 -1.42596 2.19187 -4.24728
2586 16 -5.89779 3.73156 4.51561
3313 16 -2.54741 2.72204 -8.88018
865 1 -5.28762 0.979927 -1.56753
1030 7 -7.66703 0.106706 -1.58797
768 6 -1.54543 -0.450413 3.1182
2569 6 -8.31985 3.802 4.64742
3591 7 -8.79291 0.897485 -7.93418
870 2 -6.26045 1.25186 -0.454031
2570 6 -7.03798 4.19601 5.14275
3260 7 -2.57233 -0.447148 -7.28125
774 16 -3.28158 2.36531 1.50762
2511 7 -3.67031 5.23093 2.5417
830 6 -4.34169 6.30991 -5.88687
863 2 -3.62638 -0.766329 -2.18271
2361 6 -1.92281 5.7188 4.53033
2512 7 -3.44123 6.01501 0.952705
3109 2 -4.43734 -0.422337 -6.38879
3433 6 -8.86782 2.7376 -5.12431
869 2 -7.28241 0.223935 -0.572383
2784 7 -6.86385 1.87528 2.96583
2783 7 -7.73219 2.32896 1.4567
1033 7 -5.65729 1.20763 0.464304
769 6 -2.27938 1.49871 1.82371
2507 7 -6.03571 5.18878 -1.97577
837 6 -7.35378 5.66615 -7.16099
965 7 -3.56607 0.471392 3.02156
2352 6 -6.04624 6.12872 -1.38831
864 1 -4.56306 -0.292959 -1.06596
966 9 -4.18795 1.96529 1.6215
1026 7 -3.73804 2.13906 -0.775918
770 6 -2.51902 0.372593 2.66427
3312 11 -5.34005 2.55487 -8.46554
968 7 -1.78478 3.75678 -0.735962
2508 7 -5.57939 5.17725 0.545171
1024 7 -3.95711 -0.10428 -0.190013
3508 9 -3.07086 1.94008 -9.04562
1029 7 -6.53033 -1.02141 1.14306
771 6 -0.998048 1.50863 1.17926
820 6 -1.12476 0.857605 -4.38639
3110 2 -3.47517 -1.07926 -7.45213
3104 6 -4.19771 -0.866459 -8.74119
2355 2 -3.52241 6.20678 2.03837
3257 7 -3.89851 -0.330585 -5.41279
754 6 -3.99013 -1.04946 5.04594
835 6 -6.21233 6.26057 -6.8991
749 6 -5.4095 -1.03205 4.95861
3267 7 -7.1383 -0.275218 -5.22002
841 16 -9.5401 6.13917 -8.27263
1038 7 -9.61543 -0.874621 0.293583
2513 7 -1.35423 6.19562 1.94381
3114 2 -6.6243 -1.29407 -5.16983
3266 7 -6.22256 -1.25615 -4.0933
1022 7 -4.13148 -1.27595 -2.95229
3323 6 -4.22047 0.778945 10.1742
3514 9 -7.26601 2.94289 8.51736
3318 6 -7.87304 1.58551 10.4782
3319 6 -5.59402 1.00684 10.4552
3317 6 -6.6772 1.81297 9.87803
3316 6 -8.19315 0.904018 11.6356
3321 6 -5.96096 0.33139 11.5148
3320 6 -7.15239 0.113626 12.1892
3322 16 -6.48653 2.41744 8.72239
2572 6 -7.93591 5.19341 7.12502
3516 7 -3.74496 1.80664 8.3447
3326 6 -3.34596 1.16971 9.11006
3325 6 -2.0994 0.624091 9.16891
3328 6 -3.65738 0.00559875 11.0476
2769 7 -4.90703 4.7647 7.30164
3513 7 -8.75607 2.1751 10.134
3515 7 -1.47118 0.703729 8.24735
2765 7 -4.79428 5.79453 9.1202
766 16 -5.57654 0.76322 6.53053
949 7 -8.00441 0.917767 7.48067
747 2 -8.46291 0.125207 6.9499
3292 6 -1.80642 4.06769 19.0449
3250 7 -4.42716 3.27983 12.0805
3102 6 -5.87847 0.556412 17.4
3329 6 -2.43887 -0.525154 11.3223
3249 7 -3.93464 4.95746 12.5118
3492 7 -6.80449 6.18823 16.3527
3253 7 -2.38602 -0.452774 20.0437
3297 6 -9.6154 2.61668 15.4344
2567 2 -5.51404 5.49988 6.69005
3509 9 -8.93566 4.82653 14.5072
748 6 -7.5974 -0.44675 5.93539
3493 7 -7.50546 3.50484 20.1716
750 6 -6.20022 -0.226784 5.80275
2770 7 -5.01166 5.80119 5.76051
3101 6 -5.34312 -0.0988076 18.5077
3314 16 -8.6887 4.85134 15.4344
3088 6 -3.63046 2.52272 14.5436
3498 7 -8.60939 5.17266 19.1871
3094 6 -3.09983 0.30541 17.5404
2522 7 -2.21489 4.14227 7.41065
3524 7 -2.63879 -1.18954 13.3924
3282 6 -1.94792 4.80464 17.8232
3087 6 -1.66764 1.87223 15.6597
2388 16 -1.16908 5.74072 8.78351
3290 6 -5.31558 3.37203 20.0205
739 6 -9.08496 -0.873325 7.94005
3510 7 -8.26292 3.99971 13.2111
3092 6 -1.7175 0.425226 17.6161
2568 6 -6.88315 4.93801 6.29451
3346 5 -7.19852 -0.951042 13.214
2573 6 -9.19668 4.85794 6.72086
3285 6 -4.30939 4.61476 18.1175
3291 6 -2.84995 3.52996 19.7744
961 9 -6.24302 1.15361 7.11532
950 7 -9.33906 0.614719 6.47586
3096 3 -3.59183 3.90453 12.3784
3295 2 -8.26167 4.86781 18.2115
3284 6 -5.85273 5.92249 16.7301
3248 7 -2.88069 3.91166 11.5208
964 7 -3.63355 -0.486238 7.08365
3251 7 -6.82192 1.95581 15.6318
2771 7 -7.94966 5.74679 8.09324
3512 7 -9.39065 3.4411 12.0589
3098 6 -5.06761 2.5834 14.5791
3245 7 -1.49217 5.09614 12.6146
3327 6 -1.56852 -0.15433 10.243
3286 6 -5.67132 5.06138 17.8437
963 7 -2.16066 -0.410208 6.14343
3099 6 -5.74072 1.86689 15.4851
3269 9 -5.14568 4.31202 13.6274
3116 16 -5.78475 3.56745 13.8906
3277 6 -1.06203 6.13964 16.0264
3100 6 -3.90581 -0.134762 18.6394
3280 6 -3.23631 5.06404 17.3475
3086 6 -3.0379 1.7676 15.5533
3105 6 -6.13023 -0.534396 19.5847
3254 7 -7.20374 -0.522746 19.5327
3287 6 -6.79331 4.55495 18.4892
3315 3 -9.26127 3.64252 13.0832
3090 6 -2.91979 3.28162 13.6339
3497 7 -8.4442 5.84666 17.6628
3103 6 -3.3956 -0.550814 19.8828
3288 6 -6.58907 3.75592 19.5878
3097 6 -5.09663 1.01531 16.4096
3348 16 -7.45957 -0.704769 14.5383
3093 6 -3.68382 0.93749 16.4412
3289 6 -4.16269 3.79903 19.2667
3089 6 -1.52724 3.42127 13.7245
3252 7 -6.97886 0.698114 17.3272
767 3 -3.23725 -0.17161 6.08919
3298 6 -9.04453 3.7804 16.0786
2368 3 -1.73299 4.26369 6.44141
3244 7 -1.18932 0.0394292 18.5657
3324 20 -4.65132 -0.710847 12.435
3296 6 -8.96255 3.75736 17.51
3337 2 -1.95473 -1.1852 12.5889
3302 6 -9.50904 2.49084 14.0085
3525 7 -1.02889 -0.641961 12.8077
3091 6 -1.02289 1.2878 16.7667
2863 7 -9.62586 5.75211 9.83233
2362 6 -1.8818 5.65283 5.88201
2521 7 -2.29329 3.48733 5.8762
2541 9 -1.59752 5.60151 9.61001
3278 6 -3.41586 5.97055 16.2944
944 7 -6.38682 -1.08205 8.18425
3311 15 -9.498 1.01722 12.1158
3300 6 -9.48405 2.66636 18.1836
962 7 -3.14321 0.895598 5.93305
3085 6 -0.939379 2.64348 14.6438
836 6 -5.68102 7.44304 -7.19374
839 6 -6.57161 8.28773 -8.00117
2343 6 -5.95612 11.0296 -3.91062
2500 7 -5.87711 11.0035 -5.01677
2341 6 -6.5003 9.90834 -3.23518
2342 6 -5.1798 11.9154 -3.26427
2348 6 -6.83127 8.6676 -3.92303
2504 7 -6.77871 8.6403 -5.00783
833 6 -2.42654 7.90487 -5.17868
831 6 -3.44995 8.40872 -5.95833
829 6 -4.48091 7.52513 -6.45498
1001 7 -3.5511 9.48969 -6.02726
861 4 -2.24361 9.07088 -0.983762
862 4 -2.51723 8.51052 -2.2982
1021 7 -3.3687 7.98308 -2.61885
840 6 -7.86244 7.87057 -8.2856
1003 7 -6.3159 9.32847 -8.13265
2349 6 -6.84181 7.44087 -3.34397
3454 6 -8.7115 12.2362 -5.52771
2351 6 -5.39758 7.2697 0.665424
2357 6 -2.087 6.87649 3.81768
3452 6 -8.49777 13.3068 -4.61125
3460 3 -7.9698 12.2756 -6.90075
3458 6 -9.4822 13.9499 -1.14503
2407 7 -2.00123 12.0545 -8.11124
2338 6 -5.1846 11.9176 -1.80558
2946 14 -1.10058 11.1766 1.83038
3613 7 -7.89531 11.3451 -7.48397
2497 7 -2.8915 13.092 -2.57129
3612 7 -8.34413 13.0786 -7.63588
2768 9 -8.96426 12.6731 4.74538
2499 7 -4.70351 12.6589 -3.9145
2514 7 -2.16403 7.80208 1.83694
2333 6 -4.89436 13.1669 0.195023
2356 2 -2.16236 6.80433 2.3659
2506 7 -5.314 9.40577 0.487062
2334 6 -3.2845 13.4207 -1.61391
3614 7 -6.93229 12.5544 -6.70511
2503 7 -5.88369 12.8967 2.79202
2764 7 -6.54845 7.46133 5.05151
858 4 -1.57704 9.00618 -3.17959
2345 3 -6.66839 12.83 2.03797
2767 10 -7.34701 8.59463 2.96602
2364 6 -3.27521 10.3495 4.7652
2498 7 -7.30715 10.8669 0.442808
2565 19 -7.27648 9.66571 3.72457
2340 6 -6.49264 9.89044 -1.82926
2347 6 -6.42298 7.36717 -2.0061
2555 6 -6.90204 9.50941 5.38442
2502 7 -7.44718 12.0219 2.14391
2346 6 -6.34234 8.6057 -1.22666
2501 7 -7.15615 13.7961 2.03979
2505 7 -7.0383 6.59535 -4.03058
3140 7 -1.61868 13.7037 2.19052
2516 7 -3.72854 11.2898 4.17104
1016 7 -1.42771 9.81267 -5.05588
2335 6 -4.3814 12.7378 -1.02496
2339 6 -6.0996 11.0802 -1.23283
2510 7 -4.52757 8.14348 2.40916
1020 7 -2.95396 8.83942 -0.126077
2337 6 -6.51326 11.4289 0.0209538
2336 6 -5.94346 12.4857 0.775308
838 6 -8.25311 6.55376 -7.88439
2350 6 -5.66155 8.46275 0.0179299
2525 7 -3.81628 12.8604 5.35238
2359 6 -2.35724 8.11005 4.57705
2363 6 -2.75224 9.32115 3.93738
832 6 -2.35392 6.46051 -4.8606
2515 7 -2.87159 9.58403 2.89076
3611 7 -9.23118 9.80773 -6.71385
2566 16 -8.40102 11.9123 4.72245
2354 2 -4.79161 7.09577 2.05448
2153 7 -4.53994 13.7471 -8.18839
2208 6 -1.04154 11.4735 -7.97496
859 2 -0.973699 9.89269 -0.966356
842 15 -8.7758 8.54436 -9.07487
3450 6 -9.08215 13.1483 -3.35643
2509 7 -5.56037 6.61226 2.69236
2155 7 -3.62483 13.4528 -6.78672
1017 7 -1.22521 10.8898 -0.556214
857 2 -1.35372 8.82619 -4.6054
2558 6 -6.14994 7.97924 7.09138
2554 6 -6.88463 11.4254 8.52534
2564 6 -6.5902 11.1546 9.86058
2766 7 -6.86207 11.881 10.6285
2563 6 -6.23871 9.92293 10.3478
2585 16 -6.14259 9.73685 11.67
2561 6 -5.99917 8.88716 9.37254
2557 6 -6.3113 9.05869 8.03205
2369 6 -2.39226 9.14201 8.14564
2377 6 -3.71814 12.423 9.25935
2524 7 -2.72121 10.0874 10.0643
2372 6 -3.35386 11.4692 7.01907
2374 6 -2.76425 10.204 8.97333
2373 6 -3.32382 11.3616 8.44409
2526 7 -3.67441 12.3141 10.3992
2371 6 -1.81952 8.01141 8.72233
2780 9 -6.65247 8.95494 11.8417
2552 6 -6.76617 10.3482 7.6427
2584 11 -5.03512 7.40073 11.1741
2365 6 -2.68097 9.12451 6.74772
2763 7 -7.97034 13.212 8.99085
2553 6 -7.77161 12.4839 8.26122
2370 6 -1.6196 6.81119 8.08408
2194 6 -1.37715 11.791 18.0194
2549 6 -8.27101 12.6079 6.99074
2360 6 -1.81773 6.87079 6.65291
2762 7 -8.90392 13.4725 6.80071
1005 7 -8.63445 12.1134 17.8433
2375 6 -3.74143 12.7056 6.48704
2560 6 -5.26447 6.72428 8.88174
2562 6 -5.41314 7.72113 9.84002
2203 2 -1.8015 9.96276 19.7869
2778 8 -5.14851 8.14962 11.835
845 6 -8.70012 10.5221 19.1253
2414 8 -5.85163 13.1863 17.9173
2551 6 -7.87862 11.6954 5.97921
1013 9 -8.8741 13.593 13.8837
2220 11 -5.40029 12.8695 18.7142
846 6 -7.38292 10.4474 17.1008
2378 6 -4.1036 13.5901 8.66084
1010 7 -5.35346 13.0192 12.9686
855 16 -8.01398 13.4902 13.4843
1009 7 -8.70993 11.9665 15.5691
2376 6 -4.17484 13.6904 7.26954
854 6 -4.98361 11.7832 14.5451
2550 6 -7.11369 10.5633 6.32876
2198 6 -4.02728 12.5713 18.4705
3293 19 -5.10057 7.37043 14.6132
850 6 -7.13057 12.7598 14.2492
848 6 -6.91085 9.2203 17.472
844 6 -8.29748 11.0802 17.985
1012 7 -3.96833 11.6594 14.2754
1007 7 -7.06163 7.50856 18.9409
2559 6 -5.71446 6.73795 7.56952
3495 10 -6.35734 7.6055 14.2987
382 16 -9.36084 8.27796 15.2392
847 6 -7.29318 8.57368 18.6715
2401 7 -4.11971 11.226 20.1146
1008 7 -6.11304 8.76003 16.9743
2196 6 -3.40791 11.643 19.3299
851 6 -7.6557 12.0361 15.3022
1011 7 -4.67176 10.5102 16.231
852 6 -5.82904 12.6334 13.8844
853 6 -5.41915 11.0567 15.6417
2193 6 -1.94748 12.7908 17.2013
2195 6 -2.19135 11.1448 18.9897
849 6 -6.80605 11.1666 16.0251
2523 7 -1.61407 8.02396 9.76721
2197 6 -3.23903 13.1652 17.4072
2415 8 -5.91729 12.0458 18.9015
843 6 -8.28871 9.24669 19.4824
2556 6 -6.44029 8.26219 5.78417
2405 7 -1.34 9.14277 19.1498
3279 6 -2.34024 6.43357 15.5453
3294 16 -2.43658 7.16039 14.3965
578 7 -9.17265 9.33603 12.9072
2188 6 -1.11121 13.3056 16.1677
2779 8 -4.10643 7.03391 11.3032
3496 9 -1.69779 7.71126 14.4128
2864 7 -8.78187 7.85264 9.14204
2366 6 -3.09602 10.3459 6.18375
2358 6 -2.34725 8.01908 6.00398
3134 7 -1.00051 13.4956 10.849
2868 7 -9.3634 10.3621 8.55226
1006 7 -9.36133 11.1425 19.7358
2406 7 -2.72675 9.50552 20.1738
584 9 -8.65902 8.08695 14.6033
3283 6 -4.7541 6.36048 15.9689
2484 7 0.701945 -22.4529 -2.90018
1986 6 1.14836 -20.4116 -7.65626
2323 1 1.61402 -22.8111 -2.33766
2142 7 0.503539 -19.5482 -7.30569
2481 7 1.81094 -20.0473 -2.66027
2478 7 1.8475 -21.0641 -4.61973
2134 7 1.7825 -19.002 -5.73708
1973 6 2.28057 -18.0718 -6.07478
2279 6 4.60249 -20.2516 -3.86594
2281 6 3.9723 -21.1391 -4.68009
2280 6 4.59953 -21.6024 -5.82091
2276 6 5.83912 -21.1598 -6.20391
2454 7 4.05907 -22.3984 -6.37283
2322 2 3.89206 -19.5892 -2.62996
2278 6 6.36857 -20.1253 -5.44088
2277 6 5.78605 -19.6997 -4.28004
1976 6 3.11839 -19.077 -8.21018
2320 1 2.74835 -21.8651 -2.68981
2319 2 2.67199 -21.6887 -4.20423
2479 7 2.64931 -22.7053 -4.66963
2282 15 6.45185 -18.7348 -3.47246
1975 6 2.87528 -17.9747 -7.37543
2483 7 3.61617 -18.5507 -2.94043
2321 1 2.7007 -20.4324 -2.17036
1987 6 0.403295 -21.5668 -7.61119
3160 7 4.74184 -18.1454 5.28988
2139 7 0.594234 -18.2051 -4.14464
2480 7 3.78032 -22.2312 -2.39104
1982 6 2.46817 -20.3302 -8.18069
2952 6 -0.407235 -21.2248 3.22586
3169 7 6.84294 -24.0909 3.22684
2953 6 -0.615625 -18.9634 2.19409
2973 2 5.00683 -17.559 4.40254
3181 7 7.41432 -23.1607 -1.15309
3006 6 6.6965 -23.8182 -0.724346
2981 3 6.59474 -20.4117 5.62284
2328 2 -0.238431 -23.5146 -0.635842
2482 7 4.59595 -19.5794 -1.75421
2983 13 2.08734 -21.9345 5.48036
2493 7 -0.408811 -23.1831 0.418596
2976 6 6.0921 -21.9956 3.91544
1979 6 5.02467 -17.8284 -9.02277
2959 6 1.54054 -17.61 2.69364
2485 7 1.92542 -23.386 -0.236194
1981 3 1.14198 -17.2893 -4.04085
3163 7 6.34989 -17.6402 2.55223
2137 7 1.65706 -17.3055 -3.07173
2487 7 1.0829 -21.3092 0.690407
1989 6 0.979631 -22.7257 -8.13366
2456 7 7.0054 -17.8848 -5.33046
1977 6 4.23787 -19.0039 -9.06067
2486 7 0.313097 -20.8392 -0.852789
2975 6 6.0422 -19.6645 3.21097
2148 7 -0.527506 -21.648 -5.04062
2147 7 -0.563197 -23.3014 -5.64908
2986 15 6.17339 -22.9354 4.9002
1972 6 2.03206 -17.0461 -5.24521
2985 15 5.88561 -21.8101 0.388787
2984 16 2.57771 -22.8218 3.53298
2979 6 5.90151 -20.0582 1.90401
3164 7 5.82032 -19.3153 1.14604
3161 7 5.44785 -16.6506 4.90897
1978 6 4.63268 -16.7212 -8.37572
2488 7 2.30836 -19.4975 -0.338866
2960 20 2.95653 -19.5022 4.102
3004 6 5.79672 -23.2091 0.124665
3182 7 4.15511 -23.5526 1.55573
2978 12 5.7513 -22.2576 2.65046
2144 7 0.453551 -23.7077 -8.15686
2957 6 1.25542 -19.7266 3.32066
2977 6 6.31218 -20.6194 4.18659
2964 6 2.66514 -17.853 3.29705
3162 7 7.05462 -18.0295 4.13732
2324 1 1.16839 -22.7898 -0.836256
2453 7 7.42138 -19.813 -5.71345
2257 15 6.38453 -21.7106 -7.36486
2956 6 0.866983 -20.9806 3.73226
3168 9 2.67637 -22.4065 2.63363
2974 2 6.15322 -18.1881 3.55565
2955 6 0.698318 -18.7426 2.68399
2965 6 3.76427 -17.1262 3.59813
2489 7 3.28833 -21.0194 -0.317382
2980 6 5.78795 -21.3899 1.67694
2326 2 2.41987 -20.5006 -0.732291
2982 5 1.87185 -21.9799 4.33526
2325 2 1.17379 -21.3294 -0.386027
2252 6 7.72685 -21.5493 -7.49128
3008 6 4.85464 -24 0.772358
1974 6 3.46937 -16.7182 -7.59429
3158 7 4.12375 -16.6247 0.33874
1983 6 3.04989 -21.5118 -8.64702
1589 4 -0.810641 -16.6706 -9.09484
2283 2 7.35135 -17.8646 -4.27996
3141 7 0.144699 -24.111 2.12125
2939 6 -0.829385 -23.2886 4.50331
1988 6 2.30482 -22.7095 -8.54935
2143 7 2.60185 -23.6792 -9.04554
1788 7 0.203753 -17.4746 5.6067
1631 6 0.745395 -18.7492 8.71295
3167 7 7.5844 -20.6365 5.93968
1633 6 1.43779 -19.8569 10.696
1629 6 1.67945 -19.5686 9.3993
1639 3 2.43854 -20.7094 11.3916
1635 6 0.915715 -18.397 7.38327
1778 7 5.67961 -18.326 11.5864
1627 2 4.03869 -18.8926 9.38748
1781 7 5.73732 -19.7505 8.1701
1786 7 3.29581 -20.9893 9.08552
1628 2 3.03564 -19.9391 8.8675
1626 2 5.59783 -18.9995 9.00309
1785 7 3.10029 -19.8365 7.78039
1783 7 3.84522 -18.6974 10.4375
1622 6 6.56404 -18.9931 11.406
1623 6 6.62049 -19.3197 10.0916
1787 7 1.68773 -18.6963 6.74288
1784 7 3.80076 -17.9895 8.81603
1782 7 5.79874 -18.0465 8.46087
1790 7 2.7286 -20.2512 12.3763
2933 6 -0.342806 -23.9009 6.71337
2141 7 4.61041 -22.4005 19.7615
1789 7 3.44678 -20.9955 10.977
1818 7 -0.296698 -21.7349 17.8606
2934 6 -0.296225 -23.5685 8.10936
2930 16 6.80411 -23.3286 9.96014
1791 7 2.05064 -21.6281 11.7304
1985 6 4.26823 -21.4161 20.2465
1668 2 -0.535793 -20.9439 18.596
2929 19 4.48489 -23.4672 8.32701
3131 10 3.43263 -23.0392 7.568
1636 6 -0.0890345 -17.6951 6.64536
528 6 6.44956 -21.9462 16.8224
1608 6 4.3689 -19.3803 15.1892
3171 7 7.26639 -23.9045 6.76338
1630 6 -0.496829 -18.331 9.31573
1634 6 0.215765 -19.5012 11.2611
1618 6 7.57091 -19.3568 12.2817
1625 6 7.72665 -20.01 9.60657
1612 6 7.63005 -18.8005 13.5475
3133 7 0.147409 -23.3423 10.7915
1661 6 0.549613 -18.8135 17.4705
1984 6 4.7944 -20.1797 20.0058
2140 7 5.63648 -20.0808 19.3934
680 7 7.59894 -20.0156 18.34
1819 7 0.105945 -21.0961 19.4315
3128 7 2.10397 -23.7953 9.39225
2189 6 -0.760486 -23.0778 14.6594
685 7 5.00777 -23.4643 16.5204
2398 7 1.30064 -22.6059 14.1368
1768 7 2.79673 -16.9279 18.8124
2938 6 -0.85167 -22.8937 5.82227
1614 6 7.76411 -17.2229 15.8621
1774 7 2.31291 -19.8087 14.7342
1773 7 2.95784 -21.0374 15.8766
1770 7 5.35689 -20.2162 13.4703
1607 6 5.34155 -17.2657 16.0204
1663 6 -0.477418 -19.555 17.9391
1793 7 0.0827084 -19.1145 13.3924
1611 6 6.4461 -18.395 14.1585
1609 6 5.36714 -19.3546 14.2126
521 6 7.79883 -21.5846 16.8515
1617 3 3.21643 -20.4073 14.9979
1815 7 0.973938 -16.9829 16.374
1610 6 6.45821 -17.4478 15.2084
1604 6 3.42137 -17.0063 17.9435
529 6 6.06794 -23.1976 16.3877
1605 6 4.38486 -18.3375 16.1936
1794 7 0.791856 -20.7173 13.1214
1775 7 3.41355 -21.0987 14.1112
1603 6 3.36717 -18.2218 17.2503
2185 6 0.577614 -23.2778 14.7628
1616 18 2.1801 -19.4817 17.4166
2950 16 -0.423768 -22.3467 8.68728
1665 6 0.260447 -17.5825 16.9094
684 7 5.69804 -21.2917 17.3851
1632 6 -0.740709 -18.724 10.6574
1640 3 0.0869319 -19.9734 12.7032
2919 6 4.09328 -24.1033 9.88503
527 6 7.02753 -24.1965 16.0439
2136 7 5.8937 -17.773 20.0377
3166 7 5.94584 -21.0887 6.18976
3146 7 -0.490714 -20.9242 6.74416
3132 9 5.99253 -22.8906 9.71326
1792 7 -0.876309 -20.5448 12.7944
3145 9 -0.277834 -22.5262 9.59346
3165 7 6.30533 -19.4096 5.90494
1748 7 -0.0696569 -17.5166 20.5245
1771 7 7.80546 -16.6705 16.8625
1980 18 1.72415 -14.6407 -3.23338
1967 6 2.35752 -14.6211 -4.77784
1968 6 2.62548 -13.3488 -5.29798
2132 7 2.41775 -12.524 -4.64204
1970 6 3.39228 -14.3062 -7.35387
1966 6 3.14708 -13.1611 -6.59619
1964 2 4.93478 -11.6775 -7.49598
2129 7 5.4545 -11.3204 -6.6364
1965 2 3.38461 -11.8253 -7.30967
2128 7 5.31401 -12.7105 -7.62624
2131 7 3.08498 -10.9298 -6.75893
1971 6 3.12784 -15.579 -6.86066
1969 6 2.494 -15.7598 -5.56339
2025 6 0.747919 -13.2493 -3.0654
2133 7 3.66943 -14.1979 -8.37988
2130 7 2.86366 -11.8324 -8.27778
1960 1 5.28597 -10.8262 -8.67502
3566 7 -0.17785 -11.7805 -8.05115
2313 2 6.94092 -12.7629 -4.48597
3159 7 4.88394 -16.021 -1.06959
244 7 5.18964 -11.1372 -2.28592
1833 6 -0.0273492 -9.26411 2.43199
58 2 3.51275 -9.73092 -1.5995
2122 7 7.24883 -11.3757 -8.66608
2465 7 7.51411 -9.86944 4.75925
2471 7 6.11969 -12.9067 -5.21667
1686 8 0.470773 -14.2658 5.03242
2452 9 7.74747 -16.0981 -8.23646
3407 2 -0.400073 -10.6611 -8.04416
2971 4 5.34664 -12.9143 1.90062
3157 7 3.1689 -15.5783 -0.704299
2962 6 1.4338 -16.2883 2.16535
3409 4 -0.288015 -9.97809 -6.72774
3155 7 6.50066 -11.9429 0.472876
3565 7 0.336829 -10.2353 -8.82211
2180 7 -0.190778 -10.8638 -0.587281
3152 7 0.470022 -15.9796 1.87996
242 7 2.99214 -9.69511 -2.55761
2963 6 3.6703 -15.8016 2.97524
2027 6 -0.385942 -13.0977 -3.87768
2179 7 1.80541 -12.5773 -1.27863
2035 7 3.38285 -10.5671 5.57603
3568 7 0.611168 -10.056 -6.12702
2464 7 7.43825 -12.1568 4.86787
2032 2 -0.87705 -13.8448 -5.06831
2038 7 1.26955 -11.3685 4.96843
2972 3 4.18403 -15.7374 -0.26776
2969 4 4.70912 -14.5556 0.514055
1825 6 3.32801 -9.77844 4.81704
2030 6 -0.153622 -11.5737 -1.45503
2967 4 4.9112 -14.2179 1.83962
1745 7 0.217685 -15.309 -7.9027
3156 7 5.55823 -12.3953 2.92235
3154 7 4.83272 -11.2569 0.739217
2470 9 7.2762 -14.5495 -6.16775
2312 16 7.03119 -15.3664 -5.74309
3153 7 4.8997 -13.3755 -1.32783
1835 6 0.0294883 -10.3431 3.44504
2968 4 4.97634 -13.3142 -0.212454
1492 11 1.40108 -14.1623 5.36188
2029 6 0.867797 -12.4865 -1.88625
1959 1 5.57779 -9.32077 -8.49577
59 4 4.90997 -10.1497 -1.77779
2970 2 5.43055 -12.1694 0.625682
2047 7 5.45252 -9.23087 -5.93884
1836 6 1.10993 -10.4994 4.2456
2182 7 -0.26788 -13.7121 -5.99075
2961 6 2.50246 -15.4359 2.27083
3151 7 2.39644 -14.4566 1.84754
54 15 7.25006 -9.67834 -1.37872
2966 15 4.754 -14.9637 2.94852
1687 8 1.99861 -14.7564 4.80366
1826 6 2.22731 -9.67093 3.99859
243 7 3.04047 -10.4 -0.840316
1587 2 -0.291078 -15.3007 -8.8542
2289 6 7.31604 -14.0386 -3.73819
55 4 5.92101 -9.3235 -1.36745
2127 7 3.64876 -9.21053 -7.61853
2120 7 6.51631 -9.32334 -7.905
2463 7 7.36337 -14.327 3.9925
2288 6 7.22708 -15.2593 -4.38297
2472 7 6.49144 -12.0363 -3.81216
2135 7 5.36495 -15.8618 -8.41085
2287 6 7.58832 -13.9178 -2.39433
1688 9 -0.796305 -13.757 5.35436
2034 7 5.28605 -9.34412 5.32125
1821 6 4.42988 -9.00185 4.74256
2284 6 7.55404 -16.5032 -3.71042
2457 7 7.49031 -12.9955 -1.82428
2183 7 -0.898764 -14.937 -4.91577
2138 7 0.453428 -16.4201 -3.91021
1469 6 0.469804 -14.2837 7.70692
1464 6 2.22812 -15.3981 10.7612
1465 6 0.67855 -14.5731 9.06831
1466 6 1.98366 -14.9553 9.44192
1467 6 3.03508 -14.9322 8.4976
1475 2 4.52302 -14.9313 8.83303
1480 6 5.27467 -14.0547 11.1002
1468 6 2.76871 -14.7769 7.19883
1476 6 4.92036 -13.8058 9.79444
1712 9 2.83172 -10.5274 10.0135
1528 16 1.98792 -10.2453 10.3194
1478 6 4.91711 -12.4464 9.32636
1494 16 4.62971 -12.1823 7.99704
1477 6 5.06698 -11.4044 10.2692
1458 6 -0.106464 -15.042 11.3855
1460 6 -0.297294 -14.6408 10.0479
1463 6 1.25064 -15.3089 11.7846
1689 9 4.18758 -12.9259 7.56911
1482 6 5.24555 -10.0433 9.91643
1470 6 1.49888 -14.4328 6.72568
1961 2 6.39753 -11.514 20.2981
1479 6 5.12211 -11.7232 11.6805
1677 7 5.14451 -14.7745 7.96689
1679 7 5.42546 -15.0983 11.4465
1675 10 3.0383 -15.9545 13.5353
1481 6 5.4488 -13.0561 11.9946
1757 7 3.81703 -12.0769 17.8056
1486 2 4.68206 -11.1031 14.0388
1673 7 3.63734 -14.896 6.48465
1495 3 5.7402 -9.61824 8.5431
2124 7 7.55266 -11.4763 18.4433
2118 7 6.35987 -9.20061 17.0556
1672 7 3.24698 -15.6763 10.9076
2123 7 6.23243 -12.5467 20.0519
1483 6 5.00983 -9.06219 10.9013
1484 6 4.85415 -10.772 12.639
1602 6 4.24231 -15.9284 17.6974
1762 7 2.32052 -9.7492 16.2742
1680 7 5.60817 -13.3293 13.0164
1962 2 6.75895 -10.909 18.904
1599 2 3.02988 -10.5764 15.9832
1596 1 2.7903 -12.4738 17.5677
1692 7 6.40773 -10.4546 8.15846
1678 7 4.84028 -15.9569 9.10642
1764 7 1.94955 -14.5799 17.5689
1769 7 5.86478 -15.2233 16.592
1471 6 -0.792384 -13.6729 7.40567
1595 1 2.38651 -11.9273 16.197
1756 7 2.88994 -12.4914 15.448
1957 1 6.97718 -9.40355 19.0351
1750 7 1.07645 -13.136 14.1869
2125 7 5.83533 -10.8976 18.3165
1751 7 0.775646 -11.3083 13.9081
1758 7 2.24027 -12.4142 19.6482
1682 7 4.44793 -12.146 14.2873
1597 2 1.89515 -12.0295 18.7045
1726 7 -0.799907 -11.7709 12.3171
1753 7 0.303678 -13.8811 16.7171
1760 7 -0.108141 -13.0028 19.1227
1683 7 2.51085 -10.4968 13.8335
1767 7 4.87703 -14.0771 18.323
1598 2 0.336159 -12.3286 18.3666
1600 2 2.86604 -14.0288 17.4451
1763 7 3.93125 -10.4583 16.6084
1487 1 3.40364 -10.3027 14.5178
1765 7 3.25253 -14.3397 16.4316
1592 1 0.856213 -11.8534 15.9758
1761 7 -0.137128 -11.2713 18.4907
1591 2 0.562354 -12.1808 14.5483
1766 7 3.65705 -14.6272 19.4191
1759 7 1.8884 -10.9184 18.8341
1593 1 0.100853 -12.8431 16.9343
1485 6 4.74492 -9.48561 12.2225
1691 7 5.00059 -9.57969 7.8029
1601 2 3.94154 -14.5914 18.3789
1681 7 5.49858 -10.7853 14.6559
1752 7 0.463971 -10.784 16.2205
2121 7 4.43711 -10.7326 20.3961
1746 7 0.444874 -14.9704 20.0731
1606 6 5.19228 -16.0926 16.7382
1473 19 1.72221 -15.8852 13.3783
1845 6 1.60205 -7.23478 -3.42464
1850 2 3.77436 -8.0253 -5.20417
2048 7 5.20608 -5.36739 -6.94485
1853 2 5.54593 -5.74813 -5.99596
1849 6 4.56686 -5.59426 -4.92953
2049 7 6.49153 -5.18105 -5.81147
1847 6 4.39042 -4.34764 -4.21952
1855 15 5.16219 -3.24356 -4.54949
1848 6 3.77276 -6.68265 -4.57652
1846 6 3.61455 -4.2173 -3.0471
1852 6 5.97931 -7.19047 -6.15242
1860 6 4.76939 -2.48802 -5.62607
1862 6 3.58264 -2.71913 -6.29633
2057 7 2.85204 -3.45565 -6.0153
1841 6 2.72978 -5.28818 -2.78955
1843 6 2.77943 -6.41652 -3.58675
1718 7 0.124496 -7.61644 -7.99842
239 7 6.59817 -7.7857 -2.97237
1854 14 7.20766 -7.39632 -6.5439
1844 6 0.811559 -7.16827 -2.36462
56 4 3.89068 -8.39533 -0.979162
1859 3 3.85838 -3.02559 -2.09594
1851 1 4.9943 -8.29095 -6.19473
1822 6 3.26339 -7.70983 3.06259
1839 2 -0.312024 -5.99914 -0.434077
2126 7 4.12868 -7.74206 -8.12543
3541 7 0.201248 -3.77118 -4.90327
2056 7 3.08781 -2.28331 -2.1849
799 13 0.812062 -2.39473 2.60455
2054 7 4.78612 -2.47603 -2.2034
2044 7 1.39811 -8.11579 -4.03293
94 6 7.54637 -3.54269 5.00679
3536 7 -0.759857 -3.95352 -8.4936
3366 3 -0.387436 -3.82967 -5.85118
1719 7 3.39909 -4.93816 -8.76189
2043 7 -0.0141848 -7.82912 -2.19406
2045 7 2.83835 -8.15493 -5.80523
2036 7 2.07104 -5.45458 0.926791
93 6 7.55999 -2.24859 5.40404
1861 6 3.17742 -2.06138 -7.46676
1827 6 3.08702 -6.52951 2.26967
1866 16 1.93809 -2.19948 -7.93297
1842 6 1.6739 -5.03259 -1.90716
2053 9 0.477218 -3.63963 -1.2629
2046 7 3.89288 -8.79505 -4.37123
1838 16 5.51659 -7.11014 3.87059
49 6 7.53964 -7.5654 -2.40196
1695 7 -0.596023 -5.54506 3.90908
60 3 5.80812 -7.08511 0.00828784
246 7 6.91445 -6.77418 -0.196905
57 4 5.28745 -8.16153 -0.813791
984 9 2.42472 -1.54216 4.01672
2041 7 -0.165066 -5.02701 0.0826711
1824 6 2.12633 -8.64166 3.08047
2114 7 7.01628 -7.0676 -9.06218
245 7 5.20924 -6.10272 -0.14748
2039 10 3.69955 -4.23184 1.6018
1828 6 2.05125 -6.37975 1.44125
1542 6 1.69635 -6.16651 -8.32936
1858 16 1.42586 -3.76249 -1.33875
1837 19 4.13468 -5.10811 2.51283
2055 7 3.85854 -3.39104 -1.03951
1505 6 -0.376223 -6.08264 4.83454
1506 6 0.724701 -5.73713 5.48481
247 7 5.7181 -7.21369 1.13884
1840 6 0.757836 -6.04984 -1.57376
3542 7 -0.247474 -2.84972 -6.29633
1823 6 4.39373 -7.96531 3.84438
1541 6 0.67949 -7.00709 -8.75856
2040 9 6.02954 -7.26353 4.6966
3543 7 0.193184 -4.52081 -6.40853
1830 6 1.00703 -7.34697 1.33036
1545 16 2.03817 -6.24209 -6.95527
1831 6 -0.0696822 -7.18953 0.520138
1720 9 2.79334 -5.72591 -6.82559
1696 7 1.3688 -4.96062 4.9888
241 7 3.12038 -7.7364 -0.4732
269 7 6.9588 -4.26838 5.6779
1890 5 7.09607 -1.30287 -5.6184
2058 9 1.57577 -3.02458 -7.58584
1864 6 5.68035 -1.54222 -6.17302
240 7 7.77758 -5.62048 -3.36082
1829 6 1.07868 -8.45481 2.289
1963 2 4.57283 -8.57945 -7.65052
1496 6 3.98808 -7.39588 9.5905
1499 6 2.20925 -6.64329 7.50974
1497 6 3.49186 -6.00338 7.5912
128 16 5.25751 -3.50115 8.86185
1693 7 5.28213 -5.93921 8.67374
1498 6 4.2776 -6.3686 8.67098
286 9 5.93836 -3.84051 8.23983
104 6 5.67993 -2.3291 9.42059
129 2 3.56444 -2.41234 10.7868
288 7 3.11329 -3.13205 10.1051
1501 6 1.97685 -7.51872 8.44684
1491 15 4.97968 -7.73027 10.5368
1503 6 1.13532 -6.58643 6.57318
1502 16 3.90286 -5.03491 6.72188
130 4 3.95124 -3.05986 12.0647
1508 6 0.221446 -7.49379 6.9097
2115 7 5.3546 -6.5851 19.9841
291 7 5.14099 -4.76531 11.4054
3526 7 -0.64851 -2.7544 12.1146
105 6 4.80317 -1.70942 10.3171
2116 7 4.84631 -8.86987 19.1299
1958 2 7.18517 -8.84136 17.6497
100 6 6.83428 -1.70056 8.82255
134 4 3.60548 -2.58438 13.3424
1694 9 4.72089 -4.56633 7.01985
1956 1 5.81715 -8.69553 19.7437
1532 6 -0.626067 -7.61798 15.2594
3518 7 1.6753 -3.37024 7.69464
132 4 4.69651 -4.24103 12.2839
1685 7 3.38802 -7.82007 12.7586
1684 7 5.11959 -7.56302 13.1844
3334 2 0.868437 -2.65088 7.54886
1690 7 6.27088 -8.68035 8.53959
2091 7 6.96965 -8.15139 15.125
1912 6 7.5629 -4.60376 17.3647
290 7 4.0891 -5.48652 13.9231
1490 14 4.20895 -8.1396 15.5443
3531 7 -0.700987 -2.06305 14.5411
2311 16 7.59848 -7.49293 5.99671
1716 7 2.23209 -5.75707 15.9343
1538 11 -0.368021 -8.02346 18.9322
1488 6 3.92712 -8.89167 14.4923
1715 7 0.780538 -6.58073 14.0427
1915 6 7.4276 -7.35498 17.6482
1537 6 1.32899 -6.37005 16.1459
289 7 5.7548 -4.8796 14.1152
2092 7 7.50333 -6.76932 14.1975
1536 6 0.48429 -6.70582 15.1316
1722 7 3.9233 -5.32671 17.782
133 4 4.13094 -3.41696 14.3559
1723 7 3.66607 -3.93655 18.9303
1500 6 2.65837 -7.99934 9.5527
99 2 7.58971 -2.2209 7.64645
1721 7 2.48637 -4.08387 17.5985
1546 3 3.1568 -4.69209 18.3043
98 15 6.8167 -1.86813 6.52154
1489 2 4.29437 -8.30615 13.149
1543 6 2.32508 -5.56058 19.1642
1540 6 1.36589 -6.45122 18.7129
1535 6 1.01274 -6.80579 17.4014
1893 15 7.64091 -3.22722 17.2351
1917 6 6.87929 -6.55885 18.6147
3335 4 0.126415 -2.26698 8.75425
292 7 3.74765 -3.30293 15.4355
1955 2 6.23964 -7.2136 19.803
3519 7 0.150499 -2.8567 6.76154
2090 7 6.3455 -4.43941 19.1102
131 2 4.7754 -4.61487 13.7227
3332 4 1.58846 -1.36157 7.38355
1916 6 6.84211 -5.20129 18.5058
1533 6 -0.129793 -7.64924 17.5522
1539 6 0.534981 -7.14414 19.6117
1504 20 0.389127 -8.55116 8.41235
287 7 2.76004 -1.7423 11.0165
1527 13 1.1785 -8.5945 11.3048
1919 2 7.77898 -7.71424 14.6316
1711 7 -0.154398 -6.37074 10.2626
293 7 2.91171 -1.76285 13.4847
271 7 7.58961 -3.31858 7.73416
3520 7 -0.707891 -2.86633 9.29976
2469 9 6.82131 -7.99969 6.19727
2106 9 7.69931 -6.52615 10.9504
3530 7 -0.749041 -2.90234 16.2437
1526 5 1.97478 -8.90281 10.5295
1544 6 2.5561 -5.46131 20.4792
796 6 1.1282 0.605819 -5.02823
795 6 1.5819 0.338337 -3.69931
980 7 0.933954 -0.019496 -2.85689
794 12 1.98498 1.08519 -5.93471
985 7 2.27251 3.103 -7.09068
797 3 5.09571 1.81739 -3.87005
793 6 3.6544 1.34891 -4.22439
792 6 3.21841 1.42892 -5.58656
802 15 3.98471 2.0448 -6.54423
983 7 5.04467 2.67742 -3.14762
791 6 2.82162 0.731201 -3.29511
981 7 5.56419 0.981407 -3.38895
803 2 3.15383 2.52208 -7.5775
987 7 5.8931 3.1948 -7.33275
808 6 5.31141 3.74531 -8.13101
982 7 5.70384 2.11602 -4.64989
804 6 3.98388 3.47403 -8.37815
783 4 2.18713 5.32506 -2.57327
801 15 -0.180648 0.47466 -5.34955
1868 20 6.62421 0.0889981 -7.88098
782 15 2.26808 3.95811 -2.60847
986 7 2.81256 1.74374 -8.3618
3025 16 5.59535 5.18788 -2.44561
2076 9 7.03257 0.639885 -5.05983
3059 6 3.71697 3.36729 4.88196
788 3 2.51881 6.10749 -5.13919
3120 6 7.06843 3.30487 0.942162
790 2 3.34787 0.336705 -1.88638
979 7 4.37457 0.0198543 -1.90117
3058 6 2.43932 5.12495 3.85006
3274 7 5.43847 5.23513 4.73875
3191 7 7.79387 4.2373 -6.10807
972 7 1.93322 5.75129 -0.438616
789 2 3.17076 1.55401 -0.901273
3072 18 4.78635 2.03212 4.661
977 7 3.91744 2.25847 -1.19289
778 6 -0.736186 3.41627 -0.66041
3124 2 6.37324 4.76569 4.37544
3022 6 6.44627 6.0602 -3.0759
3272 7 6.44847 1.38083 0.207501
298 7 7.43011 0.779764 4.47693
3271 7 5.25973 0.64211 2.29427
3119 6 6.27147 3.70557 3.28193
976 7 3.60072 1.2911 0.0528451
785 4 2.3302 6.22838 -3.6435
3060 6 3.32202 4.08295 3.74786
775 6 -0.387035 2.28531 0.150345
978 7 2.79694 -0.465453 -1.50781
988 7 7.07648 4.75513 -8.75388
1892 16 7.44297 -0.186927 -4.82632
772 6 -0.229467 -0.393868 2.49345
3024 6 7.73198 5.60722 -3.6128
3123 4 7.20141 5.77496 3.69349
3224 7 3.72245 3.99605 2.73139
1863 6 4.14382 -1.11571 -8.04929
773 6 -0.169835 0.580834 1.54898
3121 6 5.74244 1.61949 2.20564
3117 6 5.60525 2.5135 3.30839
809 6 6.04427 4.58933 -8.94887
777 6 0.152313 3.91577 -1.5581
776 20 1.5587 0.371602 0.945437
3118 6 6.93211 4.07723 2.17353
3122 6 6.38072 2.06909 1.04541
779 6 1.43883 3.38306 -1.69722
781 6 1.83142 2.21486 -0.885436
780 6 0.843358 1.92415 -0.0117631
3270 7 7.48526 3.78232 0.0518619
967 7 -0.273768 4.7623 -2.1818
3223 7 1.09033 5.91133 2.48178
3188 9 5.16366 4.64627 -3.13443
973 7 1.7103 5.48008 -5.55106
3222 7 2.7172 5.6714 1.7931
974 7 3.44199 5.56636 -5.33208
3275 7 6.83645 4.37676 5.36658
2068 7 7.62866 2.10997 -8.76381
3062 6 1.94065 5.44865 5.12864
2517 7 -0.782745 3.88377 4.16187
1865 6 5.18456 -0.971133 -7.28737
3057 2 2.17257 6.01861 2.69792
787 4 2.02001 6.16889 -1.43168
3125 4 7.42526 5.44128 2.38246
800 16 1.69038 -0.923312 3.93575
997 7 -0.791269 2.9794 -4.6262
3225 7 1.14724 6.2397 5.23166
1014 9 -0.424105 6.30943 -4.49697
798 5 0.92141 -1.25756 2.85415
3067 6 2.75031 5.04475 8.67239
3234 7 2.11127 3.18677 10.8023
3078 6 2.70312 3.81426 11.5008
101 6 6.25765 0.214539 10.2151
3229 7 4.57044 1.39312 7.17144
3231 7 5.49245 2.24221 8.48714
3073 3 5.154 2.33656 7.44501
3230 7 5.95413 2.47522 6.75116
3226 7 4.17831 3.63647 9.42702
275 7 5.7901 3.02798 11.215
3064 6 4.06829 3.41691 7.35064
3065 6 3.67609 4.02124 8.52971
3074 6 2.8736 5.14439 11.1522
108 6 6.97835 1.40112 10.3404
3063 6 2.45538 4.8707 6.27553
273 7 4.50001 0.0422429 11.6668
111 6 6.80972 2.68129 10.8892
3061 6 3.35454 3.78975 6.16324
102 6 6.90786 -0.556179 9.40439
2059 7 3.3683 0.832897 17.3942
3235 7 4.31 6.00945 14.0751
2062 7 7.18269 -0.807328 14.4307
3336 3 2.0576 0.899924 8.37365
1881 2 7.42505 1.783 19.8456
3522 7 1.3939 1.66023 8.80203
2069 7 7.38171 2.79929 19.2631
3517 7 2.35953 -1.14562 6.58895
3068 6 2.68161 5.72701 9.89244
3331 4 0.303557 -0.907928 9.17213
3080 6 3.77558 5.29639 13.4653
1878 2 6.43093 0.0227156 14.3785
3247 7 -0.498087 3.82415 11.6794
3238 7 2.61449 1.19944 11.9488
3521 7 2.89685 0.934087 9.05707
1875 4 6.03176 1.57325 16.2349
996 9 1.9425 3.58997 18.8721
3236 7 3.91496 3.49133 14.6559
279 7 7.25362 4.88903 8.57282
3081 6 3.61532 3.94198 13.7254
3083 2 1.00936 1.7273 13.3312
1870 6 3.36749 -0.108086 19.3064
2061 7 7.61118 1.69057 13.3339
806 6 3.32589 4.1187 20.2253
3239 7 0.357743 1.95764 12.4979
1871 6 5.21452 1.27928 18.3664
3333 4 1.30596 -0.378724 8.35335
1873 6 6.11079 1.12395 19.6032
1869 6 3.92308 0.665197 18.2962
3243 7 0.0106296 1.51137 17.2091
2063 7 5.60546 -0.224544 13.636
3084 2 0.611481 2.45689 14.6181
3330 15 -0.240969 -0.357604 10.2634
1867 6 4.29201 -0.393832 20.3998
2060 7 2.3719 -0.426373 19.2623
1876 4 6.99394 1.40663 14.1658
3082 2 2.51098 1.80204 12.9126
3491 7 0.0772555 5.35801 17.698
3066 6 2.36847 5.60315 7.47903
2066 7 6.24935 4.55109 15.0724
1879 4 5.86598 0.303083 15.7435
1877 4 6.67129 2.28164 15.1996
3494 7 -0.745655 3.84348 19.3834
805 6 3.98039 5.06254 19.4819
2064 7 5.40357 -0.500669 16.2925
3237 7 3.18731 1.25416 13.6577
3075 6 3.41478 5.91209 12.2382
3242 7 1.10438 3.44738 14.7436
3241 7 0.982629 1.99798 15.4906
3079 6 2.95622 3.22743 12.7407
3523 7 2.16037 1.25089 7.3411
1874 15 5.63101 2.14573 17.4155
3246 7 0.121746 4.76395 13.2873
3240 7 0.853252 0.625353 13.4105
812 6 5.76472 6.2258 18.643
115 6 7.00858 5.85655 10.4999
119 6 6.86824 5.7457 9.13659
807 6 5.32105 5.4123 19.7189
810 11 3.46513 5.89008 18.424
3281 6 -0.89627 5.43381 17.1504
1872 6 5.46359 0.248078 20.4253
2520 7 -0.683274 3.90664 6.4843
103 6 5.07175 -0.485731 10.8975
819 16 2.04274 3.77391 19.8155
1880 3 6.96903 3.71703 15.0217
114 15 7.68093 4.87347 11.2005
3095 3 -0.790528 4.27937 12.7331
2067 7 7.47389 3.88489 14.0632
989 8 2.69311 5.67504 17.8398
2065 7 7.67591 3.89703 15.8037
299 7 7.67014 0.271232 6.17987
2072 7 7.38439 -0.577794 17.7504
784 4 2.15746 7.54226 -3.13326
969 7 2.08414 8.41834 -3.72677
2409 7 0.59883 12.8483 -4.70644
2209 6 -0.259247 11.7446 -6.90867
2207 6 0.99457 11.1267 -6.71098
2205 6 1.24038 9.91812 -7.40787
2214 2 1.66255 12.942 -4.9823
2212 6 1.87559 11.5778 -5.68615
2226 6 6.42353 8.0585 -6.58717
2217 2 3.7884 10.9641 -4.1175
2413 7 4.71894 11.598 -4.23595
2412 7 4.03191 10.0389 -3.50212
2255 13 5.6616 12.3864 -6.04436
2228 6 5.87696 10.4067 -7.24808
2254 5 5.31685 11.8081 -7.00218
2211 6 3.17586 9.6583 -6.21042
3018 17 6.87867 9.54209 -3.40058
2224 6 5.46928 9.1585 -6.57063
2213 6 2.90063 10.7484 -5.37915
2216 6 2.88966 11.771 -3.32645
2219 15 4.30962 8.96704 -5.96462
2210 6 2.45835 9.26524 -7.32741
2215 1 2.58689 13.2076 -3.70264
3183 7 6.16017 11.7867 -2.91762
2421 7 6.19812 7.00778 -6.16636
3021 6 6.15114 7.45196 -3.04616
3003 16 7.2837 11.463 3.10405
2419 7 3.92022 7.74455 -7.99223
2218 14 2.10299 11.028 -2.50866
2327 2 1.92923 13.9156 -2.57621
3186 7 5.32031 8.03775 -2.79918
3180 9 7.56116 12.1873 2.61586
3138 7 1.12753 10.6947 4.90519
2418 7 2.35986 7.20438 -8.00565
860 4 -0.759466 9.83387 -2.43663
2223 3 2.93736 8.08511 -8.18033
2408 7 -0.663479 12.5633 -6.15552
3208 7 3.17051 10.5492 -0.0637927
2225 6 7.65068 8.09647 -7.26418
2440 9 4.49417 13.3645 -7.70621
2411 7 3.55529 13.7105 -4.00342
1018 7 -0.179223 9.45287 -0.331056
3137 7 -0.420539 10.5588 4.13814
3170 7 5.22977 13.6534 3.98824
2206 6 0.258813 9.49257 -8.40459
2229 6 7.09239 10.2558 -7.83623
786 2 1.76368 7.62684 -1.71355
2990 6 7.46367 11.7695 4.47896
970 7 0.682554 7.89977 -1.59719
971 7 2.30405 8.32468 -1.08844
3019 6 7.18352 8.14329 -3.58487
2988 6 7.06756 13.029 5.06059
3054 2 5.11148 8.63748 0.659608
1019 7 -0.0787355 10.5417 -3.03077
3206 7 3.95254 12.1614 2.39858
2490 7 2.43744 13.5216 -1.71193
3009 6 4.88193 12.8511 0.594077
3216 7 6.14 8.21494 0.797355
2945 2 -0.60836 13.4238 2.56812
3184 7 6.82133 13.2637 -3.47036
2204 6 -0.842772 10.319 -8.74937
3055 2 1.32203 10.3344 2.17647
3050 2 6.05855 10.7453 -0.0791737
2232 20 7.40799 11.9717 -8.4778
3051 1 2.76855 9.83459 2.0967
3214 7 4.89232 8.08152 2.6011
3209 7 5.42761 10.2079 2.0426
3047 2 3.74874 12.1415 1.33391
285 9 3.80478 10.5255 4.59126
2942 2 0.42638 11.2354 4.29645
3048 1 3.6076 10.6437 0.953668
3005 6 6.7145 13.0186 -0.919304
3217 7 4.71217 8.44417 -0.315341
3219 7 0.594449 9.66962 2.50058
3221 7 1.2398 7.86208 3.29993
3220 7 2.94032 7.72758 3.86049
3215 7 4.3441 6.73374 1.55316
3052 1 2.82348 8.27477 1.87002
2944 6 -0.217084 12.0433 2.30969
2410 7 1.81732 13.7592 -5.64727
3053 2 4.2968 7.86038 1.74303
1015 7 -0.263465 8.48443 -4.85226
3211 7 7.12741 10.4519 0.182747
3007 6 5.83658 12.2069 -0.17314
3207 7 2.84642 12.8574 1.20215
3218 7 1.0257 10.453 1.12878
3056 2 2.30454 7.51124 3.01713
3212 7 3.35881 10.0906 3.00609
3213 7 2.16426 8.05551 1.0245
3210 7 5.749 10.2349 -1.01673
3049 1 5.08964 10.0712 0.959592
3139 7 1.91424 12.2648 2.93261
2943 1 1.01222 11.6223 2.93796
2940 6 0.00573999 12.6612 4.93191
3011 2 7.11703 12.2853 -3.11809
127 16 4.64589 10.0745 4.86053
2491 7 0.980843 13.4089 -2.57111
2256 16 4.59227 12.484 -7.97803
2941 6 -0.490966 13.6186 4.09348
3010 15 7.65522 12.4559 -1.75846
2492 7 -0.168317 13.5412 -0.647671
2222 16 0.385322 8.28366 -9.09933
3273 7 7.57641 6.64224 4.2901
975 7 2.48606 7.05823 -5.63434
2987 2 6.32037 13.9675 4.17841
3228 7 1.81883 8.80281 8.51225
2936 6 0.342762 12.3459 8.49589
3076 6 2.71054 7.89532 11.0604
118 6 5.89754 7.94406 9.05115
116 6 6.03276 8.08001 10.4321
284 7 3.08457 11.6406 8.83464
123 6 5.32548 9.15989 6.89243
121 6 5.25745 8.99712 8.27484
125 6 4.4576 9.98673 8.97065
283 7 4.50772 10.0965 10.002
126 6 3.74389 10.9243 8.27708
277 7 5.77488 8.94471 11.0424
124 6 3.776 10.9702 6.90776
3071 6 1.97816 7.76072 8.70999
2937 6 0.392999 12.0498 7.19165
3232 7 2.47835 8.97565 11.1249
3136 7 0.658166 11.0212 6.99079
281 7 5.87653 8.50332 6.26996
3135 7 0.491691 11.5365 9.2466
2404 9 2.90191 12.9764 15.7094
2992 6 7.49568 13.2416 6.38221
2186 6 0.28853 13.0951 16.2253
3227 7 1.92724 7.49747 6.54959
2192 6 0.0479384 11.4599 18.0022
2932 6 0.0424766 13.5883 8.98288
2918 6 5.55941 11.7972 12.4932
990 7 3.93723 7.31646 15.8564
533 6 7.62315 11.649 16.1012
811 6 4.65423 6.50772 17.8454
3143 8 1.51651 9.79252 14.3147
2948 11 0.835252 10.4957 13.9795
3077 6 3.27855 7.31591 12.1597
992 9 7.16602 7.68544 14.4512
3069 6 2.40394 7.11961 9.9204
2926 6 1.4486 11.343 13.0508
2201 19 2.50704 11.726 17.2167
2925 6 2.86095 11.4844 12.8809
2187 6 1.2333 13.967 15.5132
3070 6 2.03607 6.98682 7.56009
2923 6 1.00472 12.9128 11.2651
2191 6 0.843309 12.1316 17.1413
3233 7 3.67594 7.96651 12.9719
2403 10 2.48312 10.4906 17.6201
3142 8 0.637151 10.9652 14.8168
2931 2 -0.00173389 13.7779 10.4973
2921 6 3.27244 12.4141 11.9286
687 7 5.64503 12.2339 16.3367
2924 6 0.58106 12.0633 12.2114
813 6 4.7813 7.06008 16.5856
2916 6 4.62371 12.5777 11.7444
280 7 6.06432 6.56395 7.36277
2949 16 3.44024 9.85115 14.724
117 6 6.58474 7.03452 11.1623
817 16 6.27666 7.89472 14.8173
2935 6 0.0352311 12.9978 6.27302
3130 7 5.82825 10.3139 14.0307
3144 9 2.55325 9.6164 14.7314
2928 6 5.09291 10.8909 13.4743
282 7 3.35023 11.7477 6.21675
532 6 6.63053 12.6146 16.1234
2400 7 0.519401 10.7314 18.6421
2202 16 2.59296 13.8755 15.4684
2922 6 2.36986 13.1408 11.1403
814 6 6.04021 7.31965 16.0324
2927 6 3.80645 10.7818 13.7526
2913 6 7.35363 13.1905 11.5565
2917 6 6.93346 12.0676 12.3486
2420 7 3.02023 8.30836 20.3997
815 6 7.03502 6.52045 18.1375
688 7 7.31621 10.5748 16.08
122 6 4.55725 10.0913 6.20841
2914 6 5.05996 13.5047 10.8082
816 6 7.1095 7.12912 16.8958
120 6 6.26727 6.74799 8.42497
2417 9 -0.0965816 8.39611 19.7896
2915 6 6.41951 13.8245 10.7571
3129 7 -0.493282 11.9046 12.4632
278 7 6.57276 6.9909 12.2622
3127 7 7.69607 11.6208 13.1988
3490 7 -0.231894 6.59303 15.5016
2920 6 2.76437 13.9232 10.0826
507 2 15.4025 -20.053 -6.94963
355 7 12.4064 -21.5469 -4.57383
202 2 12.2987 -20.6494 -3.92362
670 7 14.5362 -19.7804 -6.29972
398 14 14.2538 -22.2934 -5.98757
354 7 12.7739 -19.815 -4.41324
201 2 10.7265 -20.3341 -3.78597
353 7 10.2734 -20.1573 -4.77349
2247 6 9.6829 -22.7575 -8.26583
2248 6 9.64066 -20.4016 -7.98555
2249 6 10.374 -21.5245 -8.35251
2441 7 8.78601 -18.1066 -7.04336
352 7 10.6043 -19.4752 -3.05436
1223 2 12.3988 -16.9944 -4.60944
592 7 15.3718 -23.9509 -4.92243
2294 6 9.20421 -17.4939 1.53949
351 7 10.3699 -22.4935 -3.75921
200 1 10.0249 -21.4977 -3.15724
2250 12 8.3305 -20.3908 -7.56957
2253 3 11.8712 -21.5074 -8.68897
345 7 14.7909 -20.046 -2.86677
396 6 15.5144 -22.1985 -5.80107
2251 6 8.40464 -22.7478 -7.77726
2443 7 12.1171 -17.5807 -8.14453
2259 2 9.37111 -18.0843 -8.03071
2258 15 10.3345 -19.1662 -8.00803
2749 2 10.7311 -21.3703 4.82575
659 7 15.9433 -19.1619 -4.53182
346 7 14.706 -21.8266 -3.02736
182 6 14.1829 -23.8647 3.14409
1225 4 13.3472 -17.0547 -3.47974
2901 7 10.3517 -20.8041 3.96581
180 6 15.2605 -23.221 3.79103
504 1 15.3948 -18.1363 -8.62532
660 7 15.006 -17.5591 -6.00383
2293 6 8.89839 -17.9836 0.198104
179 6 15.7414 -23.6508 4.97483
397 2 16.1715 -23.2156 -5.07539
671 7 14.8776 -20.5377 -7.79133
1304 2 14.9248 -19.3331 3.23278
500 1 16.0906 -17.8128 -6.15609
665 7 14.3659 -17.984 -8.16126
356 9 8.45045 -20.5069 -2.74917
2748 1 10.4992 -22.8187 4.73317
2290 17 8.24306 -17.4004 -1.88555
1298 6 14.5689 -16.9804 3.62746
1299 6 15.4189 -18.0914 3.89369
1384 7 14.0905 -17.8386 -3.3017
198 2 14.9192 -21.1692 -0.942283
194 6 12.7447 -22.5602 -0.652411
1303 4 13.5291 -18.7343 2.70498
2297 16 9.72958 -18.3462 2.51306
347 7 14.9328 -20.208 -0.436264
343 7 12.284 -22.9392 -2.72673
196 1 12.8625 -20.9035 -2.50039
197 2 14.4415 -20.9845 -2.39635
505 2 16.1788 -16.8027 -8.87503
193 6 12.1554 -23.587 0.0624145
2904 9 8.70873 -22.4993 3.95804
341 7 15.3922 -22.1593 1.35303
332 7 15.7368 -22.2912 3.3353
192 6 13.9932 -22.1631 -0.225744
1455 7 14.8301 -20.0161 4.06652
188 6 13.8588 -23.5754 1.75799
344 7 12.5031 -20.0147 -1.98989
195 1 12.1416 -22.1508 -1.97068
350 7 10.1476 -22.8595 -1.49231
199 2 10.6732 -21.8855 -1.82071
349 7 10.4111 -21.2046 -0.97834
2460 9 9.91427 -19.1602 2.0876
2458 7 9.18472 -18.993 -0.0641985
1453 7 12.839 -19.3543 2.163
191 6 14.5524 -22.7032 0.956395
348 7 15.9264 -21.5424 -1.04822
2264 6 11.4716 -16.7993 -8.51368
2751 16 9.37277 -23.1998 3.94278
2899 7 11.2803 -23.1489 4.03125
2455 7 8.31653 -18.3352 -4.14889
589 7 16.0319 -22.5122 -8.14222
1382 7 11.6249 -17.7663 -4.68229
2750 2 12.2183 -21.1233 5.23319
2902 7 12.3197 -20.0001 5.26119
2442 7 8.68094 -18.3141 -8.88045
1381 7 12.8798 -17.0005 -5.58598
503 1 16.0482 -18.7721 -7.39664
395 1 16.3353 -21.147 -6.49346
2291 6 8.54287 -16.8956 -0.578274
2102 7 11.1872 -17.6938 5.06838
2439 7 12.1646 -20.4691 -8.75848
1305 4 13.4179 -17.3612 2.9379
1454 7 15.6043 -19.7584 2.42449
2903 7 13.0138 -21.5163 4.64563
203 16 8.62459 -21.393 -3.02356
2260 6 10.1372 -16.8304 -8.42324
342 7 11.17 -23.979 -0.262705
1456 7 12.5684 -16.7656 2.64195
2437 7 12.5145 -21.8383 -7.8593
2900 7 10.0958 -20.9968 5.63711
593 7 16.481 -22.8783 -4.06571
2434 7 11.3325 -24.0529 -8.92577
1297 6 16.4371 -17.917 4.76533
2436 7 7.83544 -23.6708 -7.7256
2246 2 10.2749 -24.1456 -8.64306
189 6 12.6573 -24.1399 1.25865
2895 7 12.9211 -21.1068 9.10129
2746 2 13.6527 -21.8193 8.65735
2896 7 14.6256 -21.6938 9.13353
2893 7 14.0776 -20.4163 6.97816
2892 7 11.4391 -21.1421 7.19567
2745 2 13.6798 -21.4556 7.17504
1779 7 9.63871 -20.8457 10.0362
1619 6 8.79574 -19.9675 11.8386
2743 1 12.059 -23.1596 6.57769
2744 1 12.2816 -21.6691 6.65652
2740 6 13.1541 -23.2406 8.87328
1777 7 10.7985 -20.3577 12.1462
1621 6 9.95263 -19.9601 12.6357
330 7 16.4885 -23.4276 7.32852
2889 7 14.042 -23.2901 10.8759
1944 6 11.1421 -17.8329 6.1561
2739 6 13.4719 -23.8697 10.0786
1624 6 8.78237 -20.338 10.4715
2747 2 10.696 -23.5656 6.09312
1411 7 16.205 -18.8217 7.42469
1946 6 12.3413 -17.8281 6.78627
1262 2 16.265 -16.7345 12.7837
673 7 14.8792 -19.9873 19.938
675 7 13.503 -17.6978 19.1923
2894 7 14.3699 -22.1467 6.71341
683 7 12.1775 -23.4142 13.3435
1941 6 11.2122 -17.7121 9.03598
1945 6 12.3873 -17.8358 8.16947
1417 7 15.252 -17.1635 12.8812
1938 6 11.2504 -17.2507 10.4224
676 7 15.3674 -19.0166 16.4831
523 6 8.29209 -20.6063 17.7096
2897 7 9.95962 -23.4665 6.92646
2891 7 12.6944 -23.5741 5.79668
682 7 13.7605 -22.8454 13.7405
2097 7 13.328 -16.9122 10.5699
1947 16 8.72594 -17.556 6.40268
510 6 13.84 -19.2196 17.7284
515 6 11.9239 -20.6027 17.0211
1772 7 9.69564 -17.4948 15.9928
508 2 15.2829 -18.8754 19.7493
511 6 13.9297 -20.4417 15.6565
681 7 12.5595 -21.7791 12.8063
723 7 15.8577 -21.8642 16.8679
1620 6 10.0511 -19.3635 13.8298
513 6 12.6729 -21.054 15.8422
517 6 10.825 -22.3963 15.022
2103 7 13.3608 -17.8982 8.63141
677 7 12.1165 -19.5334 18.902
516 6 12.1583 -21.9685 14.9101
514 6 12.6161 -19.788 17.9767
522 6 9.64245 -20.3492 17.8361
2742 6 12.5022 -23.8972 7.89415
672 7 16.3493 -19.0464 19.4299
726 7 16.0111 -22.4258 12.1787
520 6 8.74499 -22.4834 16.2442
679 7 9.83126 -19.4465 18.4633
509 2 14.38 -18.198 18.7282
1942 6 9.97064 -17.7274 6.94908
1776 7 11.0855 -19.2079 14.241
1613 6 8.89054 -18.7319 14.2934
2431 7 14.0446 -23.8628 16.9049
569 6 16.3285 -21.6681 14.7781
678 7 10.4239 -23.0508 14.3326
518 6 10.6061 -21.0084 17.0982
2101 7 8.9974 -17.5018 8.7524
524 18 14.9193 -20.8074 14.3433
674 7 14.8211 -17.366 18.1495
519 6 10.0759 -22.0184 16.1824
512 6 14.4672 -19.5793 16.5802
525 3 12.7464 -22.5046 13.6252
1615 6 8.87214 -17.8278 15.4082
2438 7 12.2237 -22.089 20.0537
526 6 8.37825 -23.8266 15.9001
1943 6 10.0141 -17.6529 8.32856
2104 7 13.2558 -17.9803 6.25757
2105 9 8.03214 -17.4236 7.06162
1936 6 12.3933 -16.8002 11.0301
1410 7 16.1984 -19.8631 8.86981
1940 6 10.046 -16.8452 11.0735
2100 7 9.13038 -17.1849 10.5955
1780 7 7.82778 -20.4322 8.57115
1193 6 15.1383 -12.0941 -3.21892
1195 6 13.9517 -12.8399 -3.38846
1365 7 13.6316 -13.1906 -4.3394
2315 2 10.4648 -11.9058 -6.04903
2317 4 9.84161 -10.6499 -5.6283
2473 7 10.5926 -11.8719 -7.10401
2316 4 9.34486 -12.8316 -5.66591
2474 7 11.4173 -12.0879 -5.54621
662 7 15.293 -15.6069 -5.0747
2265 6 12.2492 -15.7671 -8.9337
248 7 11.1017 -9.51753 -0.39168
249 7 9.70539 -10.5037 -0.597592
1222 4 12.361 -15.0747 -3.1358
1221 2 11.7843 -13.7977 -2.52797
1380 7 10.9803 -13.3119 -3.20629
1383 7 10.9315 -15.1838 -4.78518
250 7 9.86927 -10.2947 1.92417
1197 6 13.0477 -12.9839 -2.38684
1379 7 11.4311 -14.0557 -1.54793
2309 6 10.8911 -10.081 5.44773
2459 7 8.53741 -14.0611 1.21754
2292 6 8.31478 -15.5841 -0.408929
2318 4 8.60728 -10.8292 -4.99077
1198 17 16.3946 -10.9437 -1.68202
1185 6 15.3428 -11.7256 2.69728
1194 6 15.2411 -11.6922 -1.94812
2449 7 14.4678 -14.047 -9.05518
2285 6 7.90056 -15.1257 -1.65273
2296 6 9.01884 -16.1071 1.89301
2476 7 10.1446 -9.58104 -5.9337
2295 6 8.53349 -15.1629 0.95176
669 7 14.9342 -15.6327 -7.57383
2302 6 9.50058 -11.699 4.26036
251 7 8.41106 -9.47017 1.41369
2477 7 7.90244 -10.0028 -4.88752
1378 9 12.4606 -11.9431 0.570584
1226 4 13.2987 -15.9289 -2.62697
2286 6 7.91801 -16.1685 -2.46997
2298 15 9.38856 -15.7582 3.19629
2303 6 8.25742 -13.8057 3.90679
62 2 9.53514 -9.44988 1.40962
2304 6 8.31051 -12.5356 4.35767
1361 7 13.5087 -10.9999 3.53684
1192 6 14.5251 -11.6855 -0.82478
1300 6 14.7949 -15.7634 4.34853
1363 7 14.2788 -10.3343 0.780546
1450 7 14.0419 -14.9565 4.23916
1364 7 15.9416 -10.786 0.561041
2314 4 8.29055 -12.1611 -4.96169
1196 6 13.3336 -12.4238 -1.08747
1367 7 16.446 -12.1561 -6.11253
2307 6 8.5137 -9.58132 5.04404
253 7 11.9372 -9.62039 2.34323
1302 6 15.9102 -15.5906 5.11555
2300 6 10.6821 -12.3587 3.60777
1191 2 14.9151 -11.1557 0.509465
2305 6 9.64462 -10.4406 4.9197
2461 7 11.5715 -11.8138 3.43543
1186 6 14.6107 -11.1366 3.69743
2299 6 9.41313 -14.3912 3.38688
1220 16 12.4154 -12.6419 -0.078561
2475 7 9.27671 -13.9269 -5.69251
2462 7 11.4831 -14.0263 2.77413
2301 6 10.625 -13.6528 3.22585
1190 15 14.7104 -12.1124 1.52046
2444 7 13.313 -15.6762 -9.05799
1184 6 15.1798 -10.8495 4.94992
1224 4 11.8352 -15.6401 -4.28779
1200 6 16.2719 -11.6508 -3.89766
1385 7 13.8807 -15.7259 -1.75032
1452 7 16.1285 -14.6989 5.6727
1370 7 15.5626 -9.96436 -6.22049
1188 6 16.521 -10.8353 5.05916
1369 7 13.9775 -8.93242 -7.75713
61 2 10.0406 -9.49771 -0.179246
2467 7 11.7939 -10.746 5.42232
2087 7 12.8144 -9.54905 -4.65114
1209 6 15.8987 -9.69861 -7.25029
1208 6 14.9978 -9.15121 -8.13114
2262 6 9.4659 -15.6917 -8.87671
2275 16 8.09973 -15.5557 -8.90999
506 2 15.9974 -15.8221 -7.75848
2086 7 13.5241 -9.42452 -3.06961
502 2 16.3967 -15.5964 -5.25148
668 7 16.4423 -14.8807 -8.12024
1150 2 8.75207 -13.5795 8.21997
1148 4 9.85041 -13.8465 7.26364
1331 7 13.0035 -14.854 8.84338
1142 6 14.9467 -14.5279 9.45272
1141 6 13.6403 -14.1262 9.40703
1151 4 9.6326 -12.9973 9.28396
1336 7 9.21577 -12.6327 10.2169
2095 7 10.9995 -13.3141 12.1861
1149 4 11.1279 -13.4061 7.69922
1152 3 12.2098 -13.4814 6.68885
1923 6 9.30988 -9.90585 11.2281
1143 6 13.1772 -12.9203 9.95518
2093 7 9.7118 -10.4383 10.3331
1146 15 11.8257 -12.5151 9.95186
1153 2 13.6466 -10.8523 11.4321
1145 6 14.1018 -12.0881 10.6838
1341 7 12.8316 -11.1725 12.0367
1344 7 13.0555 -10.9992 8.15521
1340 7 14.3979 -10.4372 12.099
1144 6 15.3772 -12.6025 10.5853
1147 4 10.9763 -13.034 9.03721
1332 7 15.2658 -15.4747 9.13034
1339 7 12.3658 -14.5575 6.35534
2098 7 13.3359 -15.5517 12.579
1159 6 13.8627 -10.2184 8.11459
1139 6 15.9031 -13.6211 10.0226
2267 6 10.8074 -12.7662 19.2023
1333 7 9.63725 -14.2031 6.23987
1154 2 13.2322 -9.71142 10.4636
1934 15 11.2486 -14.9474 14.0325
1939 6 10.0235 -15.9445 12.1811
2272 6 13.27 -11.7273 18.5338
1935 6 11.2333 -15.5961 12.7911
1921 6 9.31341 -10.5121 12.508
2447 7 14.1577 -11.3824 18.1474
1927 6 9.31665 -11.5515 14.4429
2099 7 9.08197 -15.572 12.5236
1265 6 16.4222 -14.2393 15.7836
1422 7 15.9008 -16.2108 15.5764
1160 6 14.6445 -9.9401 7.00934
1334 7 8.14778 -14.4668 8.56553
1932 6 10.5822 -13.7587 14.1182
1933 16 10.3276 -14.2568 16.4828
1264 2 15.8106 -15.3543 14.964
1271 6 14.7487 -12.5077 14.9482
1420 7 16.2168 -14.5849 13.1113
1343 7 12.2517 -9.92046 10.0625
1929 6 9.45689 -12.1669 15.5856
667 7 15.929 -16.2998 19.8618
2263 6 11.5985 -14.6273 20.2526
1931 6 10.4102 -12.9567 13.022
2117 7 7.89512 -9.19868 19.6271
1274 6 15.1574 -10.1916 15.3641
2448 9 11.0878 -10.0042 16.9633
1424 7 13.3635 -10.9519 14.5209
1928 6 9.67341 -11.6925 13.1789
2269 6 10.8849 -11.7795 18.2768
2445 8 9.0581 -13.7156 18.8251
2270 6 12.0833 -11.1495 18.071
2451 7 14.6902 -14.4013 18.9039
2094 7 9.11816 -11.7851 16.5536
1421 7 14.7577 -15.162 14.9017
1272 6 14.3447 -11.2347 14.9024
1930 6 10.1093 -13.4354 15.4257
1337 7 13.2023 -13.3345 7.05103
1155 6 14.172 -9.50695 9.28499
1165 15 14.1933 -10.4952 5.86838
1926 17 8.68257 -10.2875 14.7396
2096 9 11.0422 -14.8826 16.3243
1423 7 14.1961 -13.2511 14.4443
2446 7 10.0385 -11.2151 18.0055
1922 6 8.78843 -9.73812 13.3974
2273 16 12.0284 -10.1308 17.1261
2119 7 8.1412 -9.30816 17.2488
1937 6 12.4055 -15.9228 12.0562
2271 6 13.2237 -12.9212 19.2284
2268 6 11.9789 -13.443 19.6199
2266 11 9.64216 -13.4824 19.6038
1338 7 12.0273 -12.786 5.88684
1418 7 16.2973 -16.4613 11.7248
1273 6 16.3524 -10.5153 15.9424
1267 6 15.9297 -12.9118 15.6649
2274 3 14.477 -13.5617 19.612
2261 6 10.208 -14.6262 20.2815
1335 7 8.10918 -12.7957 7.81055
1158 12 15.5917 -8.98559 6.92993
1140 20 16.4638 -11.397 11.6338
2450 7 15.4246 -12.996 19.6331
2081 8 14.8008 -4.88431 -7.47885
1897 6 12.9087 -5.13424 -6.64888
1902 11 14.3268 -4.89416 -6.56866
1899 6 12.5054 -6.11022 -5.70722
1904 6 13.7228 -6.63977 -5.18582
1901 6 11.1642 -6.35357 -5.59593
1903 6 14.7598 -5.79415 -5.60585
1898 6 12.1049 -4.52447 -7.53195
1896 6 10.7806 -4.9779 -7.54428
1900 6 10.3345 -5.89008 -6.58452
1908 6 15.2117 -7.74005 -3.66595
1907 6 13.9279 -7.68587 -4.30779
46 16 9.6883 -3.5498 -3.73128
2080 7 10.7991 -7.08738 -4.86765
2079 7 9.29234 -6.05619 -6.48566
41 6 10.6313 -4.00992 -2.85632
42 6 11.8025 -3.35427 -2.71356
236 7 16.2914 -2.58847 -4.27897
81 6 15.6733 -3.81682 5.11998
47 6 9.539 -6.2145 -2.12338
43 6 10.5297 -5.23542 -2.16807
39 3 15.212 -2.39808 -4.20567
2088 9 13.5198 -3.3019 -8.23946
73 15 8.0217 -5.24526 3.38778
67 6 8.88056 -7.21706 2.26267
50 6 8.19651 -6.36703 -2.68623
97 6 9.1746 -1.70514 3.76384
1906 6 16.2091 -6.79668 -3.97778
1891 13 7.85894 -2.15714 -5.80174
1911 16 12.6096 -3.59838 -8.43029
257 7 11.3419 -5.30858 5.29346
228 7 11.269 -1.38692 -0.455252
256 9 14.405 -4.15576 0.640538
40 6 12.8877 -3.78667 -1.8432
68 6 9.1073 -5.95067 2.85892
35 15 14.0496 -3.05091 -1.82042
229 7 12.8361 -2.25848 0.0182796
52 6 9.912 -7.20839 -1.35525
69 3 12.2887 -8.6178 2.5132
234 7 14.96 -2.28155 -5.30619
92 6 8.30674 -4.00935 3.92836
235 7 14.6246 -3.29397 -3.95885
2078 7 9.02861 -5.05517 -8.80955
1894 15 9.66518 -3.16867 -8.17821
2085 7 12.0666 -8.38168 -3.40791
48 20 11.621 -7.27512 -0.528458
45 6 11.5929 -5.64441 -1.44234
44 6 12.7513 -5.06793 -1.17548
71 13 14.4523 -6.69578 -0.962782
27 6 14.0074 -1.68154 -2.20822
1905 6 15.9613 -5.78446 -4.94079
51 6 8.0746 -8.57464 -1.63937
65 6 11.1228 -7.71912 2.44714
66 12 10.2459 -5.6388 3.30895
252 7 7.81581 -7.49152 2.13337
64 6 11.2625 -6.47518 3.142
238 9 8.85778 -4.01067 -3.72035
1895 2 9.94489 -4.46671 -8.58428
2083 7 15.5643 -8.45714 -2.85215
96 6 9.16373 -3.04796 3.34896
80 6 14.4732 -4.13609 4.50635
259 7 14.3164 -4.03792 3.3836
75 2 12.1375 -5.08529 4.50767
70 5 13.9648 -5.72884 -0.539613
72 16 14.5968 -5.1185 0.575577
237 7 12.0581 -2.35574 -3.19639
258 7 11.7931 -4.24532 3.91672
76 6 13.4391 -4.64262 5.19431
53 6 9.41105 -8.41492 -1.02519
2791 7 15.5354 -6.34662 3.11075
254 7 13.1867 -8.36587 1.89296
63 6 9.92183 -8.08641 1.99114
74 15 12.4848 -6.20978 3.73719
270 7 9.93653 -3.32621 2.62223
2800 7 16.4234 -2.65757 0.974604
1910 3 13.0255 -8.79713 -3.85585
255 7 12.7423 -8.77092 3.50032
1950 4 9.72134 -6.79426 9.74194
1953 4 11.2288 -5.03757 9.79883
77 6 14.6471 -4.48204 7.20637
1954 4 11.0035 -6.43423 10.0844
91 16 12.5576 -5.47039 7.30201
2112 7 12.2488 -4.61233 9.81701
1951 2 10.0328 -4.36834 9.15595
82 11 14.8818 -4.55403 8.60501
2113 7 11.795 -7.14765 10.4129
1444 7 13.8273 -2.2839 11.4855
261 8 14.4079 -5.25509 9.18792
1949 2 9.05346 -8.09477 9.70129
78 6 13.4939 -4.81917 6.55757
268 9 12.8209 -5.35889 8.20524
1952 4 9.1462 -5.6155 9.13672
1373 7 12.7153 -8.55258 20.3802
1436 7 13.2706 -4.55867 12.4072
2110 7 10.2732 -3.90235 8.20012
2109 7 9.54348 -3.55977 9.7292
1347 7 15.4833 -6.86962 10.5464
1213 6 14.5611 -7.60457 19.671
2466 7 10.0194 -6.96053 6.35512
1439 7 11.8136 -7.00174 13.1052
1217 6 15.0782 -6.51441 18.9152
2077 7 10.5791 -4.5563 20.2374
79 6 15.7966 -3.97932 6.48744
1440 7 11.3618 -6.8553 14.9376
1161 3 15.7696 -7.93579 10.5919
1441 7 15.5682 -4.24395 12.5058
2673 6 14.616 -1.74804 18.8987
272 7 8.68638 -1.91073 7.69283
1293 2 13.7378 -2.0765 12.5922
2674 6 15.5753 -2.43702 19.597
1446 7 11.7406 -2.72069 12.7133
1294 2 12.6249 -2.85204 13.3355
1292 1 15.1206 -2.28335 13.2156
1288 1 13.0538 -4.27053 13.4842
2089 7 8.94452 -5.05338 15.702
1342 7 13.1778 -8.82585 11.0454
1157 6 15.2688 -8.71617 9.32875
1345 7 15.461 -8.48743 11.4584
1295 16 16.1751 -1.68593 12.4861
1214 6 12.3453 -6.90737 18.9751
1886 12 8.73836 -3.21817 19.3476
1291 2 15.5084 -3.79659 13.493
2831 7 13.5289 -1.84796 19.0226
2107 7 9.62347 -8.70807 8.98576
1438 7 11.5646 -4.71448 14.9766
1280 6 14.9181 -8.85744 15.0813
1920 6 8.2502 -8.5443 13.4509
1377 9 10.8705 -7.92275 19.4662
1216 6 12.9112 -5.87851 18.2181
1924 6 8.29853 -7.92351 12.1354
1925 6 8.87657 -8.6052 11.0659
1286 6 14.5098 -6.02965 14.5186
2111 7 8.11228 -5.69375 8.65772
1435 7 14.3281 -4.01243 15.2297
1374 7 12.1848 -5.3091 17.6045
1948 16 7.90606 -6.63862 11.8508
1287 1 14.31 -4.47577 14.2494
1210 6 15.4532 -8.49144 20.358
2108 7 8.08902 -8.03514 9.19519
1437 7 10.9885 -4.79278 13.3358
1215 6 13.1449 -7.80571 19.6699
1285 6 15.7137 -6.51956 14.8625
1284 6 13.4773 -6.95184 14.4604
1290 2 12.0278 -6.572 14.1178
1219 16 11.0402 -7.10595 19.0085
2468 7 12.0645 -8.43887 6.223
1443 7 15.0548 -1.67663 14.0837
1447 7 12.4911 -2.56125 14.3851
1218 6 14.2854 -5.67027 18.1544
1156 6 15.8584 -8.33008 8.11879
1281 6 15.9561 -7.85747 15.0922
1283 6 13.6956 -8.28503 14.7462
1918 15 8.77803 -7.60751 15.6219
1289 2 11.855 -5.08111 13.955
2308 6 9.95268 -8.01058 6.04423
1884 6 9.2128 -2.49655 20.3685
1376 7 14.7215 -4.80851 17.6482
2306 6 8.69047 -8.36888 5.71392
2832 7 15.2018 -3.20619 20.2553
1914 6 8.25677 -5.42505 16.488
1913 6 8.11679 -6.78706 16.5684
2310 6 11.0316 -8.84314 5.97918
1375 7 16.1711 -6.51397 18.938
1888 6 8.21115 -2.53405 18.3017
83 6 16.2228 -4.13747 8.72271
1434 7 16.3878 -5.67869 15.1674
1433 7 12.6736 -8.88232 14.6824
3032 6 9.71674 3.41176 -6.63339
3029 6 10.1344 3.22956 -3.85428
3030 6 10.9583 3.07175 -6.181
21 6 14.8954 0.176609 -3.50395
3035 6 12.5775 1.25258 -6.61124
3193 7 12.4173 0.924584 -5.61359
3033 6 11.9663 2.45828 -7.01147
3189 7 12.0892 2.71764 -4.39745
3028 6 11.1151 3.0268 -4.78509
20 6 15.7163 2.11639 -4.66782
3034 6 13.3062 0.501353 -7.45128
295 7 10.2437 -0.992836 2.02742
3192 7 9.50233 3.43179 -7.69725
2642 6 14.7371 -0.545707 4.88985
216 7 14.5326 4.1743 -6.84654
2817 7 13.733 -0.899396 4.63915
3190 7 10.3475 3.25649 -2.7948
150 6 14.7779 5.89339 3.50754
2816 9 16.2369 4.29045 -0.615973
305 7 8.53502 2.68939 4.554
24 6 14.9258 2.95463 -3.91411
3031 6 8.71111 3.88539 -5.75466
3276 7 8.06945 5.97645 1.65531
141 2 10.4996 3.23008 4.98922
313 7 15.0761 5.06591 4.10651
138 2 8.16657 0.18645 5.18333
227 7 13.4263 1.5416 1.31956
10 6 16.1641 5.18785 -5.96584
3027 6 8.92736 3.82082 -4.32301
3039 16 13.7511 -0.718747 -7.09405
2616 6 16.3969 -0.699618 1.74865
3197 9 13.7644 -0.827295 -6.13659
23 6 14.097 1.01765 -2.68764
25 6 14.0503 2.37559 -2.9972
26 6 14.7031 -1.21034 -3.31278
224 7 13.4236 3.07449 -2.3879
3195 7 11.3945 3.77951 -8.70596
22 6 15.7495 0.748169 -4.40831
28 6 13.341 0.546288 -1.64861
29 6 13.2533 -0.806932 -1.39091
306 7 10.4602 1.00617 1.01374
139 1 11.1576 1.64881 2.99217
302 7 11.363 3.09376 5.61179
311 7 11.4284 5.93125 3.73396
3037 6 11.9432 2.81936 -8.3888
296 7 9.13017 1.01395 2.68264
32 6 12.5313 -0.402654 0.967285
308 7 13.1476 3.40647 3.37067
2621 15 15.5599 -1.12491 2.71826
300 7 12.0505 1.23997 3.42037
303 7 10.1081 4.29548 5.12415
223 7 14.9084 4.0515 -3.90585
310 7 12.4958 5.17564 4.90945
2806 7 16.2405 3.28935 1.39083
142 2 9.3324 2.3026 5.25776
30 2 12.5122 1.41328 -0.723634
294 7 11.144 -1.07264 3.52103
31 1 12.5557 1.07939 0.800701
144 2 12.2069 3.96666 3.18531
146 6 13.427 6.20753 3.26387
17 19 12.4999 6.14934 -7.19131
140 1 10.9557 3.10363 3.47108
226 7 12.6599 2.47239 -0.822681
222 7 15.6567 2.53046 -6.80555
2640 6 15.766 -0.565919 3.94949
225 7 11.4624 1.13718 -1.12289
1889 3 10.0827 -0.360861 -8.2781
307 7 11.0102 2.67485 1.15242
143 2 11.2673 1.65463 1.43275
135 2 10.1723 -0.799 3.13795
301 7 10.0649 3.47855 2.94471
136 1 9.91542 0.718695 3.3492
309 7 12.2288 4.22204 2.15852
361 7 14.1294 6.29444 -3.2332
3036 6 13.5729 1.0517 -8.73855
137 1 9.51908 0.844171 4.84148
8 6 14.9034 5.19943 -6.61985
34 14 12.8147 -1.01186 2.04317
2075 7 10.2342 0.711514 -8.48307
145 2 12.3468 5.32646 3.86316
2834 9 13.6187 3.23992 5.50905
297 7 10.3239 0.379275 5.50419
3187 7 9.54715 6.17585 -4.68039
233 9 16.4491 -1.06389 -5.01327
2073 7 9.81042 -0.473877 -7.2469
2074 7 11.1068 -0.753304 -8.23497
364 7 11.5183 6.01688 -3.25573
3026 15 8.05725 4.27018 -3.40956
19 2 16.3678 2.59343 -5.90959
33 2 12.4569 -1.29518 -0.206468
95 6 8.25409 -1.27877 4.71646
274 7 9.86611 1.74853 8.52031
2650 6 13.2051 2.24521 9.01935
2655 6 12.1369 1.37135 10.6733
2654 17 12.3632 1.13934 9.24082
2648 6 13.47 2.20095 7.72395
2656 6 12.6772 2.43805 11.1511
2649 6 13.4928 3.03075 10.0843
2652 6 14.1198 3.42165 7.36302
2821 7 14.4837 4.94628 10.3846
2653 6 14.5252 4.37265 8.30907
2651 6 14.2389 4.20272 9.65781
113 16 9.96865 4.26792 9.78998
2659 6 12.3148 2.52018 12.545
2646 15 13.8472 -0.113481 7.10352
2677 2 15.2589 5.63773 7.87099
109 6 9.08324 2.02457 9.23087
276 9 10.6027 3.96701 9.12543
2822 7 10.7694 -0.386223 10.4148
2657 6 11.2301 0.410662 11.0138
2647 2 13.2135 1.09155 6.72252
110 6 9.00496 3.25468 9.90029
3194 7 14.2039 0.525918 20.2895
3176 9 10.6097 5.82308 8.43912
2658 6 10.8952 0.524696 12.3867
704 7 14.5778 5.63389 20.1208
551 6 12.5511 5.47668 18.147
2668 6 12.6725 0.0738793 17.4782
993 7 8.40165 5.24064 18.9597
2886 7 14.7444 6.11215 14.3823
2885 7 13.4295 6.03712 13.3189
2671 6 16.4061 -0.502373 17.8403
2664 6 14.4412 0.298587 15.7761
2071 7 8.45172 1.21073 18.0021
304 7 9.04519 2.4748 6.2355
2660 6 11.4839 1.59497 13.1175
3196 7 12.6815 2.48579 19.3934
1887 6 8.11854 -1.12754 18.3023
721 9 10.7016 3.94227 17.8413
2669 6 15.004 -0.827575 17.9022
2665 6 13.615 0.837332 14.8636
2905 9 13.2252 6.05107 11.7902
3038 6 12.7763 2.14697 20.461
550 6 11.6142 5.41897 17.1767
2826 7 13.9425 1.02212 13.8368
106 17 8.16678 0.0631449 8.88801
703 7 12.6638 4.59154 18.7397
1882 2 8.61634 1.06416 19.1101
2823 7 12.8434 3.19099 13.2053
2819 7 13.5564 1.33018 5.72916
2846 7 16.314 1.6957 8.19418
2667 6 11.8613 0.693169 16.5412
568 16 10.7497 4.38192 17.0247
702 7 9.31457 5.08412 14.7482
701 7 10.4403 4.97516 13.2987
548 3 10.3722 5.13491 14.4192
2732 3 14.5221 6.2616 13.3386
2070 7 9.6539 1.55173 19.2789
2663 6 12.3212 1.07283 15.309
1883 6 8.72334 -0.416716 19.3279
1445 7 13.5007 -1.00502 12.6484
2835 7 15.5616 5.52747 6.86421
2643 6 16.1683 0.274528 6.60723
700 7 10.919 4.20198 14.7694
2827 7 10.7681 0.804393 16.8076
2828 7 12.3266 -0.145649 18.4572
2662 15 11.2815 1.63086 14.5408
2847 7 15.9479 0.0848826 8.80645
2666 6 14.0524 -0.120177 17.111
2820 7 12.1958 0.948657 6.77204
1885 6 9.27191 -1.08806 20.3697
2661 16 10.0357 -0.354451 13.0125
2641 6 14.9088 -0.144646 6.20781
3637 7 15.9844 4.56762 18.1497
3001 16 10.5502 5.9889 7.49395
2912 7 16.2946 1.11894 12.6593
2676 16 14.3744 3.65171 5.97853
2678 4 16.2514 6.0029 8.89506
2884 7 15.0805 5.47909 12.8001
107 6 8.01234 1.2447 9.54261
2824 9 10.0979 -0.316986 13.9496
2825 7 15.4617 -0.0278197 15.5204
2909 7 16.2739 3.45697 12.06
818 3 8.24897 6.27807 18.948
2686 2 16.4986 0.641016 8.04497
1448 9 16.4005 -0.909175 12.9937
112 6 7.83469 3.57341 10.6552
3013 6 8.92984 9.14639 -4.44492
3016 6 9.22746 11.9867 -4.43924
3041 2 11.6008 11.788 -5.31004
3199 7 12.0919 11.2294 -6.09171
3042 4 12.463 11.9397 -4.15778
3044 4 12.5668 10.9957 -3.12729
3017 6 10.2557 11.1284 -4.90364
3015 6 10.1068 9.74151 -5.04319
3185 7 10.8461 9.05809 -5.55486
3203 7 11.9954 10.0567 -3.18939
3200 7 11.3506 12.7565 -5.83085
2230 16 8.53043 7.1059 -7.18177
3 6 14.1604 8.79482 -6.60713
1 6 14.9009 9.97905 -6.41301
3198 9 9.92001 13.5572 -5.19772
2989 6 8.19564 10.8348 5.21008
3014 6 8.13318 10.0924 -4.02257
3043 2 13.3603 11.4915 -1.9843
208 6 10.218 7.45045 -1.0005
360 7 8.92107 8.52275 0.463452
5 6 16.1865 10.0397 -5.92133
2422 9 8.25035 6.49439 -6.53717
601 7 16.2608 12.2638 -2.00455
2994 11 8.6167 9.5295 4.77406
3045 4 13.7185 12.8458 -2.52506
2231 6 9.12366 9.70772 -8.64124
3201 7 14.2628 10.9318 -1.72181
161 3 16.3422 10.3093 1.60244
340 7 10.9718 12.6229 1.65171
2227 6 7.94809 9.3068 -7.93676
148 6 13.121 7.37917 2.56629
3046 4 13.2006 13.0697 -3.78342
706 7 16.523 6.42622 -8.6822
3040 16 9.3769 13.3538 -4.45383
152 6 16.3765 9.08105 2.52467
211 4 13.4963 6.63348 -2.46532
4 6 16.069 7.59969 -5.77457
2236 6 9.05612 10.9812 -9.01067
312 7 12.042 7.5338 2.36395
214 7 14.4165 10.8881 -6.65607
2428 7 12.969 11.3799 -8.56217
3020 6 8.31519 7.90097 -4.20699
151 6 15.7339 6.93542 3.38133
358 7 9.40095 6.90727 -1.53506
190 6 11.9701 13.0574 2.00302
3202 7 12.7804 11.4811 -1.07613
213 4 12.1162 6.50458 -2.49393
318 7 15.6391 11.0357 1.97637
602 9 16.5162 13.0392 1.31458
3023 6 8.57865 6.47226 -4.25405
212 2 13.9857 7.49473 -1.28378
2 6 14.734 7.57554 -6.27638
206 6 11.5704 7.28801 -1.44375
3174 7 9.96423 6.85786 5.28272
362 7 14.5564 8.37915 -1.71389
185 6 12.4616 12.5819 3.24052
209 6 10.967 8.95933 0.591047
3012 6 8.03534 11.4329 -3.89706
18 16 12.9358 8.87185 -7.21362
220 9 12.8603 9.71434 -7.72075
410 16 16.2405 13.0248 0.398404
219 10 11.5401 7.05813 -6.8164
207 6 12.6628 7.91438 -0.794971
204 16 12.1807 9.6947 5.29763
147 6 14.1444 8.08965 2.07236
205 6 12.3423 8.7769 0.224385
2242 2 14.8014 12.7125 -8.99737
2435 7 10.2437 13.4883 -7.70844
181 6 13.5553 13.2483 3.81452
339 7 10.9431 11.0779 3.62779
160 18 13.6797 9.48173 1.1408
187 6 11.9065 11.5014 3.89011
2424 7 10.6878 8.10286 -9.08616
210 6 9.89905 8.22673 0.0895639
359 7 10.7354 9.70512 1.42879
149 6 15.438 8.0374 2.56477
3204 7 14.298 13.6439 -2.02943
186 6 12.6849 10.8348 4.80582
175 6 15.2502 13.4094 5.61521
363 7 14.6601 7.03583 -0.517682
3173 8 8.38501 9.1637 3.88192
317 7 16.0874 10.0739 0.518248
174 6 14.2777 12.6324 4.89916
2427 7 15.4746 11.9891 -8.498
176 6 13.904 11.3588 5.36624
2426 7 14.5814 13.5673 -8.32566
3205 7 13.3921 13.9591 -4.29007
7 6 14.2082 6.34476 -6.69595
3000 6 9.61461 8.00307 8.46127
2887 7 11.8008 8.42103 9.7248
2735 6 12.5338 8.78628 10.4421
2730 6 13.8849 12.1611 11.4177
2738 6 12.1324 10.9399 9.47972
2733 6 12.7419 10.1507 10.4653
2888 7 11.5301 10.4518 8.68382
2737 6 12.4834 12.2864 9.31094
2729 6 13.7085 10.7575 11.3529
2734 6 13.2456 7.89569 11.185
2998 6 10.0258 7.24979 7.34247
2999 6 9.02588 9.24552 8.36463
2890 7 11.6134 12.4434 7.40877
3175 7 9.74004 7.54348 9.46953
184 3 14.4644 9.28483 6.77493
547 3 9.8721 7.45015 13.1616
177 6 15.419 11.5554 7.12853
337 7 13.7934 9.04525 7.57576
695 7 13.2994 10.5852 15.1397
2996 6 8.77814 9.6929 7.04447
2721 6 16.351 9.53149 13.5574
2993 6 8.04484 12.2259 7.16665
995 7 9.13742 6.62454 18.4198
705 7 16.2877 10.4723 18.1897
2724 6 14.1984 8.50433 12.0799
2722 6 14.4923 9.8846 12.1048
2728 6 14.898 12.6339 12.2255
553 6 15.4581 7.40975 19.4712
690 7 11.0522 11.3461 16.1137
530 6 9.27672 13.3145 15.9728
2723 6 15.4487 10.3679 12.9921
2727 6 15.6467 11.7842 12.9886
2244 3 14.0435 13.2644 16.9896
693 7 10.9939 9.79734 12.681
2880 7 15.2689 13.6579 12.0739
2997 6 9.72505 7.65793 6.0432
2741 6 12.1157 13.0102 8.12398
2839 7 15.7846 8.16114 9.1398
699 7 9.43809 8.37837 12.8987
2233 6 11.2015 9.90721 19.7122
555 6 16.3657 9.54757 18.82
336 7 14.1097 8.70538 5.91106
335 7 15.3633 10.5212 9.06606
2240 4 15.1058 13.1651 19.2759
698 7 8.9633 6.83768 13.2657
2991 6 8.31219 10.9614 6.60903
686 7 10.3587 13.518 16.0399
183 3 16.1249 10.8785 8.31085
2433 7 10.0623 13.7029 18.875
2752 16 13.016 6.57707 11.0068
2725 6 16.0514 8.18005 13.5386
3126 7 8.41103 13.531 11.5945
991 7 8.1194 7.49085 16.4798
535 2 10.0552 10.7323 14.3
357 9 12.4734 9.48436 6.14444
3177 7 8.72485 9.25768 10.4038
2726 6 14.9122 7.70651 12.9562
540 6 11.6301 6.512 16.3117
696 7 14.9105 10.6831 16.881
173 6 15.7154 12.9373 6.83705
546 6 14.2711 8.744 17.7432
544 6 14.2018 9.8391 16.9177
2430 7 14.9624 12.9515 16.5095
552 6 15.3466 8.56803 18.6847
692 7 10.2072 11.6904 13.6617
545 6 13.2695 7.76534 17.5883
538 6 12.4 7.66259 16.5347
2241 4 13.9592 12.8954 18.4353
697 7 10.4132 6.94886 12.2663
537 6 11.3688 8.72819 14.7
2235 6 10.9914 11.2405 19.4725
689 7 9.98677 10.0841 16.3255
2429 7 13.1952 12.7552 16.4091
536 2 11.1826 9.89863 13.7568
694 7 12.1512 10.4612 13.7436
3178 7 7.99421 10.6818 9.61967
541 6 10.7773 7.54633 14.3337
531 6 8.94772 12.0274 16.0457
3179 7 9.72712 10.7829 10.025
2239 4 13.0118 12.2484 19.1454
2423 7 12.0575 9.48738 19.2165
2736 6 13.247 12.9461 10.3151
2238 15 11.8126 11.8921 18.6495
691 7 9.09693 10.3696 13.9795
539 6 12.3264 8.73086 15.6835
534 2 10.0434 11.0189 15.8294
338 7 15.5227 8.84187 6.85911
543 6 13.2109 9.80271 15.9392
2245 2 9.5978 13.3798 19.8575
2237 6 9.74091 11.888 19.952
2879 7 16.3965 12.2654 13.6013
2432 7 8.56035 13.7469 19.6522
178 6 14.5786 10.7553 6.4255
2995 6 9.04975 8.81754 5.92499
3002 3 8.84757 10.0702 9.64394
542 6 10.9492 6.36645 15.0412
2425 7 15.9904 13.6565 18.8559
549 6 13.3985 6.61762 18.4051
2836 7 14.4867 6.39052 7.81118
2898 7 10.6817 13.5647 5.78021
3172 7 8.10413 12.4762 8.26322
554 6 14.3758 6.50921 19.3898
994 7 8.22517 6.50332 20.0489
329 7 16.388 13.7825 8.7141
2680 4 16.4445 7.30507 9.45981
2881 7 16.51 7.32668 15.4116
2243 4 13.5109 12.011 20.4232
2234 6 10.3784 9.11666 20.5012
ITEM: TIMESTEP
100000
ITEM: NUMBER OF ATOMS
3694
ITEM: BOX BOUNDS pp pp pp
-1.8558977833025160e+01 1.6739958054099723e+01
-2.4065884032873711e+01 1.3838475790786305e+01
-9.0646692355813663e+00 2.0437328062159569e+01
ITEM: ATOMS id type x y z
623 7 -14.3965 -20.4229 -8.35468
435 13 -13.512 -22.6435 -6.57629
1411 7 -16.6388 -20.3231 4.72565
444 6 -14.0217 -19.5374 -8.97177
1405 7 -11.369 -16.9457 4.2183
440 6 -13.686 -18.3568 -8.28179
439 2 -13.9387 -18.2674 -6.80099
438 15 -12.888 -18.9714 -6.10664
622 7 -14.8681 -18.7201 -6.4652
434 5 -13.5842 -23.4648 -5.74077
461 6 -17.621 -17.4967 -6.16891
442 6 -13.1265 -17.2844 -8.92859
395 1 -18.1352 -21.178 -9.03678
1580 6 -10.3766 -22.1089 -7.64808
1403 7 -12.1257 -17.3538 0.659456
604 7 -16.7751 -23.1903 0.27956
1297 6 -16.97 -17.587 2.25808
393 6 -16.728 -23.524 -8.16963
1239 6 -14.7141 -18.5506 3.24308
1242 6 -12.3946 -17.4018 3.99436
1238 6 -12.6405 -17.6165 2.67618
618 7 -10.5117 -19.3217 -4.90724
658 7 -16.9108 -18.9853 -7.46588
328 7 -15.118 -23.6948 4.97192
421 4 -12.1476 -23.1905 2.27704
407 6 -15.7872 -23.4478 -2.59176
423 4 -11.9853 -21.462 3.68907
433 3 -11.0353 -20.0408 -4.2289
1740 7 -11.5963 -23.6182 -8.6126
428 6 -13.2466 -19.0119 -4.78809
1241 6 -14.4417 -18.4616 4.63913
591 7 -17.2555 -20.8619 -8.41334
1582 6 -11.0947 -22.6744 -8.68386
500 1 -18.2269 -17.7491 -8.56597
1243 6 -13.2559 -17.8064 5.01583
420 4 -11.5058 -23.6616 3.48069
1301 6 -16.7627 -16.4984 3.08989
1410 7 -17.4595 -18.9388 5.47208
431 6 -14.0403 -18.8739 -2.1525
425 2 -11.906 -21.0931 -1.09806
1240 6 -13.8254 -18.1511 2.28
606 7 -10.3536 -22.4753 4.75019
432 6 -14.8844 -18.4757 -3.19065
617 7 -11.2786 -20.9254 -4.85505
430 12 -14.4461 -18.5727 -4.44823
607 7 -12.032 -22.8517 5.34044
608 7 -12.1381 -20.4764 4.23016
1252 18 -16.2425 -19.1016 2.68247
634 7 -17.2417 -19.1592 -4.89853
612 7 -11.3808 -21.541 -1.97774
1738 7 -10.4384 -22.5859 -6.6636
616 7 -14.4547 -18.696 -1.07483
408 6 -14.881 -23.5412 -4.89484
460 6 -17.2607 -18.0629 -4.9469
409 6 -14.938 -23.2689 -3.5978
422 2 -11.4374 -22.5957 4.43973
615 7 -12.219 -19.1634 -0.394803
411 6 -15.3397 -22.9191 -1.38108
419 4 -12.4172 -21.8261 2.40975
593 7 -17.5611 -22.5156 -6.58621
619 7 -10.3546 -20.3512 -3.45129
417 6 -13.2641 -21.5982 -0.781069
429 6 -12.3464 -19.4262 -3.73293
1404 7 -14.074 -18.2382 1.20514
614 7 -10.805 -19.3786 -1.532
499 2 -17.8653 -18.4301 -7.29886
437 15 -16.0698 -17.8025 -2.86837
1454 7 -17.6526 -18.8458 -0.686854
1237 2 -11.7377 -17.0557 1.63492
397 2 -17.9209 -23.1058 -7.41682
603 7 -15.3342 -21.9675 1.96076
415 6 -13.7463 -21.4826 0.563953
413 6 -15.0669 -22.0189 0.833262
426 2 -11.8906 -19.5899 -1.32089
1304 2 -18.1989 -18.6756 0.218615
418 15 -12.9659 -20.9262 1.53771
427 6 -12.7541 -19.2473 -2.45151
414 6 -15.8364 -22.7203 -0.0582503
412 20 -13.3125 -22.3346 -3.24948
613 7 -11.2357 -21.4168 -0.298773
416 6 -14.117 -22.3971 -1.5448
456 6 -16.6784 -17.2772 -3.96736
1402 7 -10.7528 -17.4829 1.67026
621 7 -13.9758 -17.2549 -6.32965
1299 6 -17.7171 -17.5698 1.13375
330 7 -17.4352 -22.9528 4.80969
179 6 -18.5172 -23.3066 2.53905
331 7 -17.6714 -22.684 2.97636
172 2 -17.1845 -24.0017 5.14842
661 7 -16.2522 -16.723 -8.56675
501 1 -17.3008 -16.5495 -8.72064
3623 7 -9.75471 -23.3314 1.44883
1253 3 -16.6213 -19.6149 5.49254
611 7 -11.7832 -23.7592 0.0955725
602 9 -17.7687 -24.0257 -1.27881
1244 6 -15.278 -18.9 5.6918
1245 6 -14.8751 -18.7127 6.97295
1248 6 -13.3025 -18.0242 8.69732
1249 6 -11.8755 -18.2273 8.95247
1406 7 -15.5747 -18.9998 7.76363
392 6 -16.5065 -23.1108 20.0527
1427 7 -16.352 -16.5696 14.8773
624 7 -14.147 -20.6794 18.6622
1246 6 -12.7636 -17.7777 6.35427
1247 6 -13.665 -18.2082 7.38626
1250 6 -11.3497 -17.756 6.65843
1251 6 -10.9485 -18.0607 7.88245
1408 7 -9.90688 -18.305 8.19187
726 7 -18.1737 -22.1921 9.15013
1258 6 -15.4862 -17.556 9.74657
1254 6 -14.1805 -18.0844 9.81162
1418 7 -17.9537 -17.2065 9.55554
575 4 -16.005 -22.5599 9.26706
1409 7 -16.7129 -20.2771 6.34838
401 16 -11.4911 -23.355 10.8242
727 7 -17.1493 -20.8179 9.4566
1262 2 -17.8297 -17.3389 10.6349
590 7 -16.7726 -21.462 18.7622
450 6 -12.4105 -17.1906 14.6453
443 6 -13.4158 -18.4732 18.5126
3646 21 -12.3611 -21.6985 7.99742
503 1 -18.1818 -18.8136 19.7386
722 7 -15.2334 -23.8296 13.1381
581 7 -12.8113 -23.3209 15.5562
388 6 -14.4072 -24.0327 17.1651
573 6 -18.0385 -21.8291 13.4542
627 7 -12.9603 -19.0253 13.9191
1732 9 -9.84766 -17.9175 12.3102
1573 6 -9.73019 -20.7451 15.632
445 6 -13.8701 -19.625 19.1436
1256 6 -11.5553 -18.8791 10.1965
577 4 -15.448 -23.1915 10.3648
594 8 -12.5483 -22.3761 12.0881
1259 6 -16.4035 -17.8762 10.7356
725 7 -15.6671 -22.5967 8.23418
394 2 -17.4112 -22.0871 19.3237
631 7 -15.116 -20.2596 16.2059
629 7 -13.6758 -21.254 16.1815
454 3 -14.1189 -20.2947 15.8256
1412 7 -10.543 -19.1544 10.3646
441 6 -13.0201 -17.3123 19.176
505 2 -17.6954 -16.9008 18.346
664 7 -17.0766 -18.9879 19.5672
572 6 -16.0511 -23.0583 12.9383
400 11 -12.3833 -22.387 13.1061
1415 7 -14.4508 -20.0458 12.5955
1413 7 -12.0968 -19.9729 12.0161
574 6 -16.9583 -22.6009 13.8577
595 8 -13.1682 -22.0148 13.5969
448 6 -13.1929 -18.2413 17.1222
1736 7 -10.3472 -18.2438 18.5956
724 7 -16.8137 -22.8757 14.9224
1577 6 -10.2326 -21.0132 19.2681
588 7 -16.0305 -22.7759 17.5309
630 7 -14.3355 -20.5629 14.8094
1257 6 -12.4968 -19.2911 11.0924
1261 6 -16.0781 -18.8606 11.6952
376 6 -12.3009 -24.0368 14.919
387 6 -15.3562 -23.6173 19.4015
570 6 -16.205 -22.7544 11.557
3648 22 -13.1519 -21.9071 8.81989
1416 7 -16.7993 -19.2948 12.4223
1575 6 -9.80508 -18.4987 16.5678
451 6 -13.4256 -19.0196 15.9562
452 6 -12.9071 -18.4451 14.8247
1260 6 -14.8021 -19.3886 11.7977
596 9 -11.2946 -23.3843 9.90406
1255 6 -13.8004 -18.8894 10.9492
576 2 -17.2672 -21.8216 9.65512
453 16 -11.9911 -16.671 13.443
389 6 -15.2261 -23.3673 17.9869
1576 6 -10.2386 -19.0023 17.7683
1581 6 -10.9052 -22.2796 19.5096
3647 22 -11.57 -21.49 7.17491
447 6 -12.6818 -16.9385 16.9762
672 7 -17.7402 -18.9066 16.7082
571 6 -17.3359 -22.0158 11.1638
1407 7 -10.5228 -17.7773 5.89102
666 7 -16.785 -17.4881 18.2271
569 6 -18.1972 -21.5047 12.12
378 6 -12.0473 -23.6981 13.5555
728 7 -14.5923 -23.8306 10.3861
1422 7 -17.7663 -16.5191 13.0939
1414 7 -15.7959 -16.7958 9.01134
1739 7 -11.4775 -22.6825 18.6454
1735 7 -9.84994 -17.3946 16.4934
589 7 -18.1517 -22.5808 18.6556
1574 6 -10.309 -20.3795 17.9816
1425 7 -15.4122 -16.712 13.2125
1572 6 -10.0848 -21.2403 16.8911
1733 7 -10.1342 -22.329 17.066
329 7 -17.226 -23.9402 6.24528
2425 7 -18.4779 -23.7688 17.0203
1324 9 -10.1541 -22.4385 10.0183
635 7 -14.7612 -15.141 -5.74681
3557 7 -11.768 -15.2375 -5.83105
463 2 -15.1665 -14.1505 -6.05112
465 6 -12.7167 -11.2483 -6.41317
466 6 -13.5359 -12.3202 -6.49222
472 6 -12.311 -11.0278 -7.76824
471 6 -12.9217 -11.9571 -8.47867
663 7 -16.971 -14.5896 -7.91914
467 6 -12.5627 -10.7785 -5.07672
1126 14 -14.0301 -10.9946 5.12056
470 17 -13.736 -12.8466 -7.76714
464 6 -14.3047 -13.0405 -5.64445
1198 17 -17.6329 -10.3892 -4.03452
475 6 -11.49 -10.2028 -8.62315
636 7 -15.2192 -14.3362 -7.11381
1120 6 -10.463 -12.9884 5.49144
462 15 -16.5054 -14.0246 -5.55284
1158 12 -18.2697 -9.01398 4.88602
3399 6 -10.8929 -15.5981 -5.30163
1395 7 -13.1309 -15.8829 -0.564687
1204 6 -16.2319 -10.3936 -7.78553
637 7 -11.9794 -9.888 -4.77379
1185 6 -18.4161 -11.7261 0.339193
455 16 -12.7558 -16.1396 -8.32502
1300 6 -18.1697 -15.1829 1.58354
3403 16 -12.3311 -16.0029 -3.46912
495 2 -10.3345 -11.7117 -0.494288
497 4 -10.2172 -12.72 -1.59419
492 16 -15.0262 -12.8529 -3.29561
1401 7 -11.3662 -15.2268 2.72381
1202 6 -15.5402 -9.68623 -6.76193
459 6 -17.4542 -16.0889 -6.36257
1391 7 -16.24 -12.0253 -1.24679
1393 7 -13.9561 -15.48 1.85096
1318 7 -10.0162 -11.4998 4.03499
3396 6 -9.85784 -14.1147 -7.95234
1229 1 -14.8492 -13.0204 0.0827496
1452 7 -17.6158 -14.5306 3.55158
655 7 -12.1006 -10.1544 -0.333543
457 6 -16.9015 -15.3337 -5.32127
468 6 -14.261 -12.3887 -4.36876
3556 7 -10.1197 -13.1778 -7.35085
1187 6 -17.103 -11.8781 0.709315
1122 2 -10.6496 -12.3954 4.20104
502 2 -17.6471 -15.4845 -7.72733
469 6 -13.3678 -11.3716 -4.13651
1302 6 -17.4696 -15.3122 2.78554
632 9 -13.2424 -16.0629 -7.49409
3398 6 -11.1133 -16.0011 -4.02291
1317 7 -10.2948 -13.0343 3.35284
1231 1 -13.3083 -13.5002 2.04249
1189 6 -16.6791 -11.5563 1.99108
650 9 -14.9757 -12.1286 -2.5725
1123 1 -12.1169 -11.9859 3.90856
1397 7 -15.4795 -15.0943 -0.12126
1362 7 -17.1043 -10.9458 3.89817
1394 7 -12.5632 -14.1703 -0.526968
458 6 -16.6604 -15.9006 -4.09806
1232 1 -13.1183 -14.9099 1.44262
494 4 -12.0139 -11.4091 -2.16728
1389 7 -14.1031 -12.3806 -0.422565
498 4 -11.1875 -12.4593 -2.59798
3561 9 -12.8365 -15.3889 -4.05688
639 7 -10.9907 -9.34454 -8.24734
496 4 -11.5548 -10.9131 -0.934802
1228 1 -14.782 -13.1318 1.59848
1396 7 -14.8963 -14.3052 -1.50904
1400 7 -11.0013 -15.0794 1.02296
1386 7 -14.5509 -10.9688 1.80831
1236 2 -11.7215 -15.5321 1.76495
1203 6 -17.3208 -11.2276 -7.5629
1235 2 -12.941 -13.1982 3.53084
633 7 -16.3219 -15.212 -3.2536
1230 2 -16.2303 -12.5865 -0.319537
1233 2 -13.3196 -14.8892 -0.0854149
493 2 -13.2323 -10.8197 -2.8013
1188 6 -17.5779 -11.0528 2.92049
1319 7 -12.0234 -11.3544 3.06588
1399 7 -12.6843 -14.1706 4.07308
1388 7 -15.4799 -13.9156 1.88739
1392 7 -12.6924 -12.8275 1.41783
1201 6 -16.0238 -9.68461 -5.43483
1234 2 -14.6814 -14.4301 -0.468465
1367 7 -18.0592 -11.5617 -8.35122
1227 2 -15.1724 -11.7934 2.26825
652 7 -14.0895 -10.8793 -2.14827
1390 7 -16.8369 -13.5157 -0.526942
651 7 -12.9945 -9.71298 -2.81635
1387 7 -15.0532 -11.8027 3.35308
1199 6 -17.1084 -10.5139 -5.4053
1398 7 -13.9539 -13.0262 3.89801
1364 7 -18.2329 -10.2885 -1.55958
1124 6 -12.7838 -11.3595 5.12936
657 7 -11.2682 -13.0959 -3.45212
1298 6 -18.3562 -16.3707 0.854521
1200 6 -17.8173 -11.2494 -6.22698
653 7 -10.5067 -12.1638 0.469756
1370 7 -18.1478 -8.98351 -8.425
1330 9 -14.3492 -15.5081 5.70781
3400 6 -10.0003 -16.2662 -3.19373
1366 7 -15.5031 -9.20224 -4.59953
3558 7 -10.1679 -16.3698 -2.10955
1451 7 -16.1674 -16.4899 4.05689
1118 6 -10.5296 -14.1202 8.11089
1131 3 -10.8074 -14.7183 9.50152
1134 6 -13.8265 -13.8316 7.33564
1133 6 -15.0915 -14.2074 6.90823
1329 7 -13.009 -14.447 6.90426
1138 16 -15.1947 -15.212 6.03067
1135 6 -16.2471 -13.4429 7.39887
1127 15 -12.3016 -12.584 8.74152
1137 6 -15.8905 -12.4819 8.26689
1121 6 -11.2587 -12.4393 6.53182
1136 6 -14.7014 -12.013 8.81035
446 11 -12.7026 -16.3156 18.2589
1125 2 -11.9679 -11.1083 6.3107
1320 7 -12.4809 -10.7978 7.22615
473 6 -13.0079 -12.3948 19.7433
917 6 -10.0127 -9.17784 10.3608
1426 7 -14.5976 -16.0874 14.7585
1264 2 -18.0645 -15.5943 12.6389
1132 6 -13.6164 -12.8197 8.23886
1119 6 -11.2652 -13.0172 7.81446
1209 6 -17.8948 -9.16056 20.0259
449 6 -12.2423 -16.4157 15.8075
1060 7 -10.4003 -10.1403 14.1788
1142 6 -18.5236 -14.3032 6.54546
3696 21 -14.3213 -14.7389 11.3062
478 15 -10.6249 -9.77125 18.7082
1332 7 -18.116 -15.1091 5.94308
1162 5 -14.5713 -10.7511 9.65977
474 6 -12.2319 -11.5439 18.9412
1164 16 -15.0256 -9.57235 9.07284
1326 7 -11.8318 -14.6813 9.75718
638 7 -13.7414 -13.1709 19.3244
640 9 -12.919 -12.2686 17.2775
1431 7 -14.2507 -9.27921 13.5095
1275 3 -15.6088 -16.1214 14.1881
1268 6 -15.6539 -12.3815 13.9233
506 2 -17.6021 -15.842 19.4631
1273 6 -17.3519 -10.737 13.0681
916 6 -9.75208 -9.25098 11.7125
1419 7 -17.0122 -15.247 10.7177
1140 20 -17.2658 -11.3469 9.0331
1278 6 -14.6257 -11.4115 13.8565
1276 3 -14.3122 -13.8412 15.5149
1296 16 -13.2907 -11.8116 14.096
1211 6 -16.4461 -9.83242 18.1578
1163 13 -13.7566 -10.6132 10.4813
1269 6 -16.1179 -14.7106 13.9675
1279 6 -14.9881 -10.1314 13.525
1266 6 -16.9316 -12.0661 13.3932
3395 6 -9.82473 -13.9465 20.1901
1430 7 -13.4546 -14.4312 15.1869
1428 7 -14.7439 -14.4213 16.3477
625 8 -12.3058 -15.4399 18.4709
628 9 -11.4462 -15.9451 13.5807
477 16 -12.1601 -11.7742 17.5829
1263 2 -17.8916 -15.8225 11.0999
1429 7 -13.8708 -13.0123 16.0274
1277 6 -16.2959 -9.72067 13.1292
3555 7 -10.0534 -13.0244 19.6724
669 7 -18.5915 -15.2713 19.5636
626 7 -11.604 -15.4737 15.8133
668 7 -16.8327 -15.0977 19.1753
1270 6 -15.3509 -13.6484 14.402
1206 15 -15.8212 -10.3135 20.3938
1144 6 -18.2291 -12.5096 7.9524
1449 9 -12.6458 -11.2124 13.8105
1371 7 -15.5577 -10.3877 17.7752
1212 6 -17.4007 -9.40467 17.2606
1207 6 -16.6961 -9.70697 19.5611
908 6 -11.0114 -9.2574 13.8207
1265 6 -17.2938 -14.4173 13.1954
1139 6 -17.6484 -13.4374 7.2009
1372 7 -17.1915 -9.4305 16.1805
476 6 -11.4211 -10.5095 19.5193
667 7 -17.8284 -16.3217 17.3749
1328 7 -10.6119 -15.7927 9.62281
3552 9 -10.1594 -13.1397 15.0336
1267 6 -17.7769 -13.0951 13.078
1059 7 -12.0237 -9.34056 15.6667
2450 7 -18.4597 -12.5914 16.7948
1321 7 -11.1467 -10.3785 6.03526
1327 7 -10.1998 -14.2208 10.3078
3389 16 -9.9018 -13.8773 15.5726
883 6 -12.3917 -3.91126 -6.82892
881 6 -12.575 -5.17865 -6.22566
1042 7 -13.3716 -5.82663 -6.64915
892 6 -14.6364 -1.65465 -8.61932
2793 7 -15.2093 -7.36524 -2.52077
890 6 -13.9132 -4.35519 -8.74709
2790 7 -18.1666 -6.02581 1.65629
263 7 -14.3982 -3.55119 5.2121
886 6 -11.594 -1.74067 -6.51327
884 6 -13.2312 -3.49566 -7.87429
235 7 -17.8487 -2.21432 -6.82037
1906 6 -17.859 -6.19135 -5.69021
882 6 -11.504 -3.08573 -6.14737
1091 7 -12.7761 -7.79088 0.141049
879 6 -10.7027 -3.58078 -5.04366
880 6 -11.9918 -5.59226 -5.10268
1183 16 -14.6465 -5.67093 3.3856
2794 7 -16.49 -8.58385 -2.45457
2615 6 -17.206 -1.39624 -2.31098
87 6 -16.4454 -3.46205 4.46476
935 6 -10.5823 -7.42576 0.0929713
1909 16 -16.8578 -5.88582 -4.85341
889 3 -12.2821 -7.0478 -4.78474
2604 4 -17.5029 -7.38143 0.0504991
1047 7 -12.5835 -7.67038 -5.68919
1905 6 -17.9985 -5.64981 -6.9756
2084 9 -17.2085 -5.76946 -3.95021
2795 7 -15.1449 -8.54067 -1.12191
2797 7 -13.7285 -2.39535 -4.32595
1205 16 -14.4869 -8.91932 -7.07268
2792 7 -17.5289 -4.1281 0.250042
1168 6 -14.5338 -7.36809 5.06503
2800 7 -17.5679 -2.41951 -2.08723
2610 2 -15.9293 -2.29448 -4.25859
1050 7 -12.3092 -5.78483 -9.00985
1045 7 -11.5279 -7.57654 -4.24676
933 6 -10.2297 -6.94228 -1.15377
2788 7 -13.4452 -3.37946 1.60221
2796 7 -14.5091 -3.95302 -4.18247
877 6 -11.2008 -4.68138 -4.37962
941 4 -10.2677 -8.41803 2.13519
2602 15 -15.9157 -4.8477 -1.97054
1167 2 -15.9704 -7.73406 4.81671
1176 6 -10.5077 -6.35616 5.0029
2609 2 -14.5491 -2.9086 -3.81857
875 6 -10.733 -4.84799 -3.01834
1046 7 -13.1724 -7.14858 -4.17982
2607 4 -17.5174 -5.17783 -0.0869576
90 3 -15.9982 -2.7181 3.18864
2600 6 -13.5048 -2.19481 -1.56174
888 18 -11.4731 -6.12636 -2.02204
2787 7 -15.0603 -4.71002 0.645805
1360 9 -14.1073 -5.08448 2.8686
2603 4 -16.6804 -5.58597 -1.15516
885 6 -13.4969 -2.10092 -7.97178
1353 8 -12.2243 -4.65185 2.83645
1171 6 -11.8377 -6.80045 5.31219
2598 6 -13.6294 -3.2284 0.500681
2799 7 -16.0639 -2.16363 -5.32541
2595 6 -13.0976 -2.19158 -0.284978
2608 3 -15.8093 -7.98444 -1.83387
2594 16 -11.0039 -1.64402 2.20397
2599 6 -15.0059 -3.95967 -1.45135
266 7 -16.5658 -1.7941 3.00373
939 4 -11.5853 -8.20057 1.98429
84 6 -17.7629 -3.8254 4.59987
1175 6 -10.5561 -5.27958 4.11632
267 7 -16.1372 -3.4321 2.40432
2798 7 -16.592 -3.07142 -4.02495
2606 2 -18.289 -6.27067 0.594435
2601 6 -14.3925 -2.9445 -2.28509
2591 6 -12.006 -1.31328 -0.0431549
1090 7 -12.1585 -6.3179 1.06255
2082 7 -17.1 -5.02777 -7.28029
940 2 -11.9601 -7.36104 0.767123
1368 9 -14.5368 -8.62845 -8.02954
2597 6 -14.5635 -4.06919 -0.098304
2605 4 -16.6131 -7.00753 -0.995818
88 6 -15.5123 -3.69726 5.41069
1170 6 -13.9265 -6.4102 4.28535
1174 11 -11.921 -4.91716 3.75989
265 7 -14.9575 -2.46353 3.18286
1349 7 -16.4833 -7.00345 4.1947
1169 6 -12.6282 -6.0463 4.4022
1350 7 -16.1616 -8.7148 4.41224
878 6 -9.72389 -2.75725 -4.46387
2786 9 -11.7154 -2.24094 2.27708
2789 7 -17.5149 -8.38144 0.375888
1089 7 -12.232 -8.53875 2.76479
876 6 -9.80479 -3.95591 -2.4829
1092 7 -9.78704 -8.79716 3.04741
946 7 -10.2807 -5.95111 9.39393
765 16 -11.8071 -4.23073 8.1138
1067 7 -12.9537 -6.79689 9.24639
959 8 -12.2543 -3.14673 6.67467
764 11 -11.8162 -2.32554 6.21729
1448 9 -17.5781 -1.49605 9.66242
1052 7 -15.9893 -6.86899 18.6295
1054 7 -12.4055 -7.85301 19.6447
3577 7 -11.2341 -5.06232 15.9237
3307 1 -10.1631 -2.53878 12.8401
1051 7 -16.9787 -4.72266 19.2041
3586 7 -10.2437 -3.10009 18.6151
86 6 -15.8235 -4.38891 6.57001
89 16 -14.8441 -4.69295 7.43535
2830 7 -16.94 -2.75292 16.2623
264 9 -13.9663 -4.58964 6.99764
643 7 -10.3525 -7.08568 19.2268
742 6 -10.3846 -2.36306 6.34971
960 9 -12.0897 -3.28096 7.89334
3582 7 -10.596 -4.57888 12.7014
1442 7 -17.7175 -4.26844 10.9562
3587 7 -12.0544 -3.48236 18.3001
896 6 -15.9203 -4.91708 19.5705
1068 7 -11.2403 -8.34485 8.85101
1085 9 -14.3876 -5.16271 9.63089
897 6 -15.3751 -6.14571 19.238
914 6 -13.562 -6.02278 11.1976
83 6 -18.0415 -4.53235 5.84796
2672 6 -17.6856 -1.972 16.0214
3421 2 -11.1218 -2.87786 17.9942
1352 7 -11.874 -8.55781 6.7666
895 6 -14.0722 -6.42736 19.499
1281 6 -17.9677 -8.04138 12.475
3588 7 -13.4639 -1.78725 17.6244
744 6 -9.79145 -5.16478 8.76313
3585 7 -11.5742 -2.90895 15.8433
1064 7 -15.6897 -4.18432 12.7008
85 6 -17.1406 -4.66164 6.78914
1066 7 -14.7388 -3.40288 14.0409
3581 7 -10.0817 -6.96929 16.1621
1210 6 -18.5091 -8.68886 17.7258
1057 7 -13.8263 -8.79278 16.2425
1056 7 -11.9793 -7.80697 17.2485
1053 7 -13.8218 -8.58721 19.1726
3422 6 -11.517 -1.40774 18.2794
898 2 -13.3095 -7.61356 19.0257
1055 7 -12.7989 -6.1952 17.3804
3420 2 -10.7889 -3.10476 16.5339
1282 6 -16.6556 -8.40666 12.7641
1058 7 -14.9824 -7.52639 16.7359
915 6 -12.8846 -6.88326 10.3444
262 7 -17.4111 -5.01474 7.80372
909 6 -11.6399 -7.75175 12.1415
1375 7 -17.5996 -7.09394 15.6444
1161 3 -18.1772 -8.09253 8.46923
918 6 -11.1005 -8.44946 9.91329
912 3 -14.7106 -4.0585 13.1617
1062 7 -14.8689 -5.38663 16.7575
743 6 -10.4502 -4.27126 7.9932
904 6 -13.4252 -6.19958 12.5993
1063 7 -14.4177 -4.04343 15.7524
3419 2 -10.5595 -3.81781 13.4781
1432 7 -15.8508 -7.63709 12.8985
3583 7 -11.5444 -3.77227 13.918
1434 7 -17.5865 -5.99386 12.1885
932 16 -14.3697 -5.1247 10.5942
899 2 -12.9271 -7.30903 17.5229
902 6 -12.5381 -7.19129 13.0147
1351 7 -14.2665 -8.80337 6.62511
3308 6 -10.7474 -2.38242 11.4522
958 8 -12.2888 -1.48193 6.40059
1347 7 -17.411 -7.24925 8.36778
913 6 -11.9108 -7.73818 10.801
906 6 -14.0587 -5.41493 13.5343
901 6 -13.618 -7.02336 15.2051
905 6 -14.2289 -5.85609 14.8008
3310 14 -11.8178 -3.05278 11.0347
1295 16 -18.0382 -2.27425 9.37288
911 3 -14.8929 -4.97655 15.7692
3416 1 -10.3087 -4.44019 15.9928
1065 7 -14.0645 -3.58929 12.414
900 2 -13.9417 -7.72071 16.505
903 6 -12.6933 -7.68828 14.3419
1061 7 -15.9441 -4.84508 15.516
3715 21 -14.7801 -1.90516 8.54607
891 6 -15.1653 -3.96095 20.2051
907 6 -11.9524 -8.82398 14.694
1166 15 -16.7416 -7.73271 6.05677
1173 6 -12.4214 -7.87649 6.10728
1346 7 -17.8189 -8.81831 9.22167
3579 7 -10.0762 -5.23448 18.0245
1156 6 -17.8503 -8.58033 6.05568
1172 6 -13.7657 -8.05153 6.02443
894 6 -13.381 -5.57154 20.2899
1049 7 -16.3998 -2.14409 19.8407
1285 6 -18.3432 -6.70863 12.0922
910 6 -10.7243 -8.66928 12.5917
3584 7 -10.0139 -2.33375 16.2677
893 6 -15.4299 -2.57359 20.2265
2833 9 -15.5681 -1.50323 15.5938
1348 9 -14.6817 -8.7825 9.49702
2816 9 -17.4851 4.67493 -3.04698
1044 7 -12.753 -0.149247 -7.26968
2619 13 -10.3716 0.583982 -3.7145
3595 7 -14.1107 3.2717 -8.43728
2806 7 -17.4294 3.37104 -1.76914
3429 6 -11.7179 2.84211 -8.75011
2639 16 -16.9175 5.36546 -3.41061
2686 2 -17.8932 0.929777 4.9214
3590 7 -12.1552 3.67718 -8.06784
3431 6 -10.3411 2.52957 -8.78097
2857 7 -11.7909 2.11758 5.59064
316 7 -15.8852 4.72284 3.10325
2808 7 -13.1974 5.86483 0.258427
3598 7 -10.5789 5.65632 -8.07024
2687 1 -14.1608 1.76924 4.52254
3442 6 -10.2934 5.29544 -7.07858
2854 7 -14.0853 3.46718 3.13787
2629 6 -13.9628 5.87455 -0.539143
2614 12 -17.128 0.823936 -1.64627
2774 7 -11.295 4.24037 4.21198
2578 2 -11.3222 3.9011 3.15603
2590 6 -10.1807 0.0158114 0.72509
20 6 -18.2746 2.0097 -6.56129
2846 7 -18.4367 1.85287 5.14789
158 6 -17.5212 5.79642 2.17655
2842 7 -15.1747 1.08263 2.29847
2801 7 -15.4406 1.20938 -5.35258
2844 7 -16.0301 2.72309 4.70133
2802 7 -14.1338 1.26248 -4.06851
221 7 -16.4071 1.9436 -7.54588
217 7 -15.3741 3.43188 -6.25772
2848 7 -13.8336 0.877784 3.98064
2685 1 -16.4168 0.782725 5.20806
2643 6 -18.1561 0.564216 3.48277
2773 7 -11.7425 4.77298 2.66787
2847 7 -18.4478 0.187484 5.56411
159 6 -16.3646 5.69661 2.88889
10 6 -17.7198 5.10606 -7.95046
2617 3 -14.8711 0.599171 -4.59701
2596 20 -12.8446 -0.960359 -2.72046
2843 7 -16.0418 2.66608 2.2795
2775 7 -11.5121 1.81952 3.31277
2592 6 -11.0375 0.347477 -1.5444
14 6 -15.3823 5.5337 -6.47402
2644 6 -17.3763 0.411472 1.21953
12 6 -15.8104 4.28214 -6.71811
1048 7 -14.8752 -0.627081 -8.58836
2624 6 -15.5804 4.51532 -1.55864
2589 6 -11.0665 -1.03015 0.990276
2645 6 -17.2453 0.914195 2.51194
11 6 -16.9242 4.01737 -7.4348
2580 6 -12.4963 2.55228 1.61785
2777 7 -11.6572 2.76118 -0.4499
2613 6 -15.7589 0.131908 -3.51727
2620 16 -11.6209 2.25415 -2.93442
945 7 -10.1274 -0.604657 5.05238
2683 2 -15.9743 1.596 2.83242
2582 14 -13.5458 2.00872 1.05772
2803 7 -14.2989 -0.144344 -5.19217
2622 15 -15.8362 2.42072 -2.65825
2805 7 -16.285 2.59935 -0.673196
2807 7 -14.4358 3.94712 0.0531625
887 6 -12.6045 -1.24112 -7.24481
2776 7 -11.804 4.2756 0.442639
2579 1 -12.1787 2.61044 3.03245
2581 2 -11.597 3.18443 0.593599
2618 5 -11.1277 0.967153 -2.89009
230 8 -14.3484 6.30811 -4.83047
2691 2 -13.4055 2.9335 3.80929
2612 6 -16.2009 1.11467 -2.54086
2626 6 -15.9585 5.54189 -2.46472
38 16 -18.0148 -0.106691 -7.75889
2616 6 -17.649 -0.412012 -1.49897
315 7 -18.1908 4.92145 2.05253
19 2 -17.2981 2.51774 -7.60761
2628 6 -14.6584 4.70935 -0.623472
2804 9 -11.7822 2.60648 -2.01886
2818 7 -16.515 0.649258 0.60825
2623 2 -16.3674 3.17225 -1.64528
36 11 -14.3193 5.61725 -5.58807
2845 7 -16.1872 -0.225897 4.7854
2593 6 -11.7939 -0.669124 -1.17968
2855 7 -13.3152 3.71074 4.58622
2684 1 -15.6444 1.74342 4.29932
222 7 -17.7876 2.30672 -8.68361
2576 6 -10.0072 3.53455 2.44679
233 9 -17.7775 0.461208 -8.4519
231 8 -13.8428 4.79997 -5.31356
320 7 -14.1848 5.6412 4.35797
3445 6 -10.0637 5.92959 -4.79867
3594 7 -14.7484 1.71 -9.08858
1043 7 -11.0966 -0.964605 -5.91629
2611 6 -16.304 -1.14249 -3.3497
2577 6 -10.1668 3.06721 1.12282
2588 6 -10.0876 0.713492 -0.486692
2841 7 -17.5831 4.07029 5.08525
22 6 -18.5418 0.61518 -6.72402
2849 7 -13.871 2.87245 6.454
2853 7 -16.5239 1.73251 7.05494
2859 7 -12.1079 0.520045 8.13386
2689 2 -14.5836 0.845162 6.87343
3305 6 -9.86222 0.00529794 11.3992
2851 7 -14.3494 1.10202 7.89645
2690 2 -16.0972 0.807167 6.70472
3299 6 -9.87931 1.16138 13.444
3499 7 -10.023 2.5474 16.6107
714 7 -15.5022 5.43763 18.0845
3504 7 -11.1331 -1.00121 9.85038
2693 2 -11.7732 1.47162 7.6275
2692 2 -12.3468 1.43184 6.2068
3424 6 -12.8155 -1.02238 18.0758
2694 6 -11.9753 2.78145 8.36676
2861 7 -11.2462 3.95837 6.83264
2698 6 -11.5773 3.97097 7.84917
2699 6 -11.7674 5.22236 8.53383
2858 7 -10.6532 1.40831 7.4716
3640 7 -17.7953 4.70355 14.8942
2906 7 -16.6126 -1.13638 11.3842
2908 7 -14.4387 -0.802749 12.883
2697 6 -12.3854 5.1928 9.79109
3304 6 -10.0951 0.00894915 12.7364
2850 7 -14.2158 -0.143861 6.5262
2696 6 -12.6187 2.74368 9.53299
2911 7 -15.8275 3.55778 9.05632
3436 18 -14.7735 0.769558 18.1778
2852 7 -16.6081 -0.0371183 7.19071
2671 6 -18.2 -0.0335572 14.821
2829 7 -17.9761 0.885149 14.1958
3485 6 -13.558 2.24923 16.2897
3425 6 -12.2491 1.08066 19.2446
3423 6 -13.1557 0.24932 18.4549
2860 7 -12.6782 1.83614 10.1359
3489 4 -17.4002 3.90037 15.5394
3427 6 -10.8842 0.793448 19.2039
3636 7 -12.6953 3.85309 14.9318
2909 7 -18.3372 2.66899 8.60199
2755 6 -15.807 2.24791 10.7845
2761 4 -17.5908 1.09569 9.84724
3430 6 -9.86516 1.61203 19.7731
3639 7 -17.4237 2.43453 18.3059
3634 7 -14.6702 4.78178 14.4672
2708 18 -13.7043 3.76626 11.6437
3481 6 -14.7643 1.96729 16.9802
720 9 -12.8742 4.21419 18.2751
2757 6 -14.1492 1.12839 12.1511
567 16 -12.9373 4.99638 17.7192
2756 6 -16.0547 -0.157834 11.4665
2840 7 -15.5786 5.0725 6.39603
2758 6 -14.8462 -0.0543593 12.146
3483 6 -15.9941 2.51917 16.6915
2754 6 -16.4942 1.02228 10.7182
2753 6 -14.6638 2.28716 11.5924
2910 7 -16.7125 4.29147 10.4846
2695 6 -12.9296 3.93332 10.1892
3301 6 -10.2825 1.40551 14.7833
2670 6 -17.2925 -0.946096 15.2104
2907 7 -13.2562 1.05738 12.802
3638 7 -17.52 1.02262 17.1007
3426 6 -10.6131 -0.520119 18.7774
2760 2 -16.4511 3.32278 9.90851
2759 4 -17.5846 2.39572 9.38823
3488 2 -17.3555 2.15837 17.2313
715 7 -13.6927 5.67835 19.4013
3309 2 -10.3545 -1.21816 10.6459
3482 6 -15.9861 3.53969 15.7345
2912 7 -18.1572 0.28921 9.36786
3635 7 -12.6536 1.70594 16.5039
3593 7 -14.4308 3.02279 19.3578
3486 6 -13.6054 3.31715 15.3851
3306 2 -10.6399 -1.23841 13.481
3484 6 -14.7663 4.0011 15.1693
3428 6 -12.659 2.13953 20.0236
3500 7 -10.7873 0.623438 15.3089
2681 4 -16.5374 5.55172 6.38278
3437 3 -14.0885 2.56643 20.274
3487 4 -18.2375 3.05456 16.3529
2866 7 -12.6571 6.13146 12.6173
3300 6 -9.82823 2.47636 15.5031
2682 4 -17.6117 4.92567 5.69038
2675 16 -15.9557 -0.778623 15.0368
3502 7 -10.3957 -1.19835 14.5468
2688 1 -13.7722 1.85095 6.03651
3501 7 -11.7153 -1.20844 13.4011
564 1 -13.5502 6.09237 18.4401
706 7 -17.7794 5.9973 17.981
2865 7 -14.1685 6.16619 11.7327
2856 7 -12.3889 0.404182 5.78101
403 3 -14.0822 11.7613 -7.60833
598 7 -12.9913 11.8915 -7.46214
599 7 -14.0181 10.7889 -8.15342
600 7 -14.4522 11.4926 -6.59787
3605 7 -11.1014 10.1026 -7.85495
3448 2 -10.5908 10.0704 -6.84001
324 7 -13.1261 12.2636 4.32104
157 6 -15.5497 6.78066 3.10996
399 15 -16.3023 12.8479 -6.44087
3602 7 -11.8623 7.53015 -7.41336
3446 2 -11.2099 7.61484 -6.49108
156 6 -15.8483 8.02444 2.52881
4 6 -18.1507 7.47141 -8.08922
152 6 -17.994 8.94668 -0.278972
173 6 -18.1836 13.0254 4.45605
161 3 -17.9882 10.0782 -1.32188
13 6 -16.0671 6.63573 -7.15942
3447 2 -10.0782 8.65731 -6.57434
15 6 -15.5748 7.94617 -6.93978
37 16 -14.2767 8.2429 -6.43883
620 9 -12.8346 13.0641 -4.61977
164 6 -14.3357 6.55437 3.83012
3606 7 -11.3641 10.1863 -6.00739
325 7 -16.2548 12.9825 2.47663
3601 7 -11.9695 7.99673 -5.66432
2814 7 -11.5594 9.11746 0.801544
2636 6 -12.9546 10.4117 -0.97948
5 6 -18.2954 9.88072 -8.54655
154 6 -17.8666 7.00908 1.59137
169 6 -13.7257 11.3866 3.92429
3600 7 -10.1442 6.74476 -4.02879
9 6 -17.3488 6.44095 -7.71708
16 6 -16.4441 8.93538 -7.23456
166 6 -15.7484 10.4755 3.00075
218 7 -16.0317 9.99773 -7.22083
170 2 -15.5007 12.9317 3.28605
406 6 -17.0207 13.2556 -4.27863
2638 3 -12.281 8.43837 0.335135
319 7 -17.1481 10.7688 -0.949839
605 7 -11.132 13.257 3.65082
424 3 -12.3099 13.7658 1.15867
327 7 -15.735 12.5958 5.4741
2634 6 -13.6923 10.8614 -2.04322
3607 7 -10.4174 10.7503 -4.37433
410 16 -17.8994 13.3281 -2.02068
168 6 -13.2082 10.117 4.10932
390 6 -14.7806 12.8987 -8.28471
171 2 -15.8024 13.3993 4.69317
232 9 -13.809 7.41787 -6.60117
314 7 -16.2689 9.88666 0.828835
6 6 -17.6846 8.75789 -7.85718
404 6 -15.9858 13.5287 -5.22861
167 6 -14.9848 11.5645 3.3659
215 7 -17.8529 10.8952 -8.60961
163 6 -13.9486 8.98309 3.72445
2632 6 -13.8228 8.2281 -1.66382
155 6 -16.8794 8.04773 1.58933
2627 6 -14.1966 6.85884 -1.47435
2631 6 -14.6242 8.76854 -2.69387
2813 7 -13.05 8.16354 1.04228
2812 9 -14.3449 12.466 -2.92461
2811 7 -12.2509 10.8918 -0.264482
2635 6 -12.9786 9.03254 -0.854667
3608 7 -9.87615 12.0961 -2.45044
2637 16 -13.6787 12.2159 -2.30353
405 6 -16.9407 13.6581 -2.9468
2633 6 -14.5076 10.1314 -2.94187
2625 6 -15.2482 6.69446 -2.40927
153 6 -17.0126 9.09305 0.646635
2630 11 -15.5384 7.83099 -3.19328
2810 7 -15.0357 10.6662 -3.74841
323 7 -12.179 10.0899 4.52744
165 6 -13.5563 7.69043 4.10201
2809 8 -16.4948 8.07372 -3.08577
3645 21 -9.84789 7.74239 2.44415
2815 7 -11.6835 7.47678 0.194019
162 6 -15.179 9.17925 3.01249
436 16 -12.6035 13.5674 -5.36596
322 7 -16.7567 10.5962 2.60755
609 7 -13.2401 13.3932 0.929755
601 7 -17.8262 12.5922 -4.54014
610 7 -11.7439 12.9069 1.38973
321 7 -12.5893 7.61705 4.68829
391 6 -15.8172 13.4702 -7.59503
317 7 -17.8848 9.76087 -2.38089
177 6 -18.4677 11.7551 4.89294
326 7 -14.6712 13.597 2.89205
3443 6 -10.5007 6.26527 -6.11703
2703 6 -11.9433 7.67031 8.50942
2704 6 -11.7113 8.90622 7.87735
2883 7 -17.8386 6.68437 10.7399
2711 6 -12.142 11.3001 7.42294
2710 6 -12.5479 10.0073 7.92595
705 7 -18.0707 10.3474 15.8258
555 6 -18.1151 9.40336 16.4108
710 7 -15.9044 10.1369 19.286
2716 6 -12.9899 12.3862 7.54108
2714 6 -13.8607 9.96634 8.52008
2870 7 -14.2076 8.93536 8.82669
2717 6 -14.2957 12.2423 8.0579
2715 6 -14.7698 11.0102 8.52495
2873 7 -16.6052 9.89262 8.74243
2718 2 -16.1414 10.7518 9.1808
2713 6 -10.945 11.2375 6.72206
719 7 -13.6036 8.45674 20.1133
2701 6 -12.3331 7.64063 9.8499
2874 7 -16.7924 11.5774 8.88406
370 6 -10.3225 11.1816 11.2572
707 7 -15.6768 7.53722 19.6716
385 6 -14.4203 13.359 19.9954
585 7 -11.4048 12.6885 17.693
2879 7 -18.3784 12.645 10.6698
718 7 -12.7601 9.36417 18.8878
377 6 -11.4522 13.1581 12.7737
711 7 -15.4183 10.159 16.3183
366 6 -10.3649 9.63115 13.1543
583 10 -10.5939 7.92202 16.5428
713 7 -14.9556 6.57949 16.8553
709 7 -14.4356 10.8467 18.4534
2869 7 -10.6553 12.2282 6.30421
383 2 -12.2704 12.3992 17.0446
2705 6 -10.5962 8.90517 6.96031
380 6 -10.7045 12.3457 10.6191
2712 6 -10.2443 10.103 6.36567
369 6 -9.79041 10.1853 10.5178
335 7 -18.5226 10.7416 6.70076
183 3 -17.8054 11.2457 6.05072
2867 7 -13.3445 7.65193 12.1835
2720 2 -17.3957 10.4511 11.5225
561 2 -15.2773 10.1067 18.4206
2838 7 -16.5209 7.70035 6.9288
3658 22 -13.5915 9.43249 13.974
368 6 -10.6979 10.8759 12.6326
372 6 -11.0057 10.4367 15.3569
597 9 -11.7844 11.9083 18.9878
375 6 -11.9754 12.6203 15.5384
2881 7 -16.9574 7.91399 11.8015
2862 7 -12.4823 8.62574 10.2957
2679 2 -16.994 6.73129 7.15645
563 2 -14.9749 6.35179 17.945
580 7 -11.0766 10.1832 16.4184
2719 2 -16.0964 10.6506 10.7392
384 6 -13.4046 13.0937 17.7819
367 6 -9.81627 8.64496 12.2917
374 6 -11.3398 11.6543 14.7409
558 6 -16.8345 7.93348 17.7294
2875 7 -15.5336 9.69874 10.9845
586 7 -12.42 11.2908 17.1461
556 6 -17.0479 9.16619 17.1995
373 6 -11.239 11.8941 13.3886
2872 7 -14.9987 13.1404 7.9402
2876 7 -15.5765 11.4783 11.2166
565 2 -12.6386 7.30366 18.5067
371 6 -10.5507 9.41341 14.5484
557 6 -17.8895 7.06068 17.5962
2837 7 -16.8566 6.61011 8.25172
3659 22 -15.4514 10.7827 13.6573
2877 7 -17.087 9.84573 12.4301
2706 6 -10.2226 6.55084 7.20656
3610 7 -9.75471 10.8909 19.5748
3657 21 -14.5214 10.1076 13.8156
559 1 -15.6286 7.59925 18.5637
562 2 -16.0587 10.2326 17.2099
2709 3 -13.2368 6.58948 11.8124
560 1 -14.6581 8.6932 18.2752
708 7 -14.4093 8.58426 17.2291
2731 3 -17.909 7.61119 11.3943
566 2 -13.3647 8.51672 19.0112
402 16 -12.4291 12.0213 19.6444
712 7 -16.5486 11.2526 17.1282
716 7 -12.4532 7.36557 17.4451
386 6 -13.4467 12.8349 19.1341
2878 7 -17.6902 11.4258 11.995
381 19 -10.0311 7.94593 15.3146
2871 7 -12.6873 13.3778 7.1627
2680 4 -18.4195 6.67971 6.81687
717 7 -11.5856 7.16454 18.9425
582 7 -10.468 12.4569 9.55078
2702 6 -11.4031 6.47684 7.98785
2700 6 -12.5481 6.43906 10.4743
333 7 -16.913 10.6626 5.81835
2721 6 -18.5658 9.91879 10.7223
334 7 -17.4901 12.121 6.70395
379 6 -11.2048 13.3457 11.4122
2707 6 -9.77315 7.73364 6.80472
587 7 -14.6551 13.8199 16.0557
3615 7 -5.99768 -21.8619 -6.16462
3148 7 -1.25851 -21.3863 4.55423
1994 6 -4.20014 -19.564 -8.66277
2001 6 -4.54465 -18.2671 -8.30764
2548 7 -3.75514 -17.0794 1.68057
3633 9 -5.42957 -22.484 -8.02244
3629 7 -7.70794 -18.1016 3.54319
1993 6 -2.71878 -21.4331 -8.38554
1999 6 -2.43818 -19.4749 -6.97129
3462 6 -6.73641 -23.5898 -7.22603
1995 6 -3.15714 -20.1614 -7.94706
2149 7 -1.52299 -23.1043 -7.69757
2000 6 -2.77317 -18.1874 -6.5874
2002 6 -3.8469 -17.5851 -7.30164
2152 7 -2.14699 -17.6656 -5.8244
3625 7 -9.32768 -19.0468 0.123436
3146 7 -1.01856 -20.7645 2.90802
2530 7 -5.81944 -22.8704 5.38493
2529 7 -5.33788 -21.5021 4.21965
3467 6 -8.79473 -23.5837 -1.25833
2381 2 -5.06781 -22.3158 4.88163
3475 2 -8.19888 -18.9785 0.284056
3472 1 -8.32187 -20.9062 1.89228
3616 7 -6.60452 -21.0214 -4.2174
3463 6 -6.59259 -22.781 -6.13172
3149 7 -1.23054 -20.0396 0.124679
2543 7 -3.9774 -21.2455 -2.96828
2331 6 -3.16912 -23.4314 -1.93108
2150 7 -1.50442 -21.8442 -6.59169
1583 16 -8.84301 -20.4188 -6.84378
3479 16 -7.84051 -16.6521 1.25408
2544 7 -3.68093 -18.8102 -3.50041
3621 7 -8.13231 -22.6013 3.24298
1992 2 -1.55765 -22.0475 -7.69044
2151 7 -1.49307 -19.8987 -6.47894
3620 7 -9.43705 -20.9132 1.85292
2532 7 -5.26685 -23.6387 3.21381
2392 6 -3.67967 -18.2531 -1.37304
3466 6 -7.11331 -21.9458 -3.96768
2390 6 -3.86468 -18.7347 -0.0552318
3630 7 -8.40305 -20.3949 4.04469
3471 1 -7.7618 -20.4325 0.567028
3474 2 -8.72703 -23.2414 1.26424
2330 6 -1.6134 -23.3292 -3.73761
3618 7 -6.92425 -20.2777 -1.97563
3150 9 -1.1727 -18.1259 -0.915972
3469 6 -7.5407 -21.179 -1.72011
3477 2 -8.28571 -18.5628 2.81408
3627 7 -6.64786 -18.2653 1.57875
3465 6 -7.79381 -22.0569 -2.77402
2394 6 -3.66793 -19.1766 -2.43943
2395 4 -3.5355 -19.0941 2.11505
3470 6 -8.04478 -21.4329 -0.504768
3464 6 -8.52367 -23.264 -2.57033
3461 6 -7.35326 -22.9643 -4.96592
3619 7 -6.62049 -20.2968 0.711524
3473 2 -7.91646 -22.4115 2.15716
2397 4 -3.74827 -18.0882 1.21728
3476 1 -7.75918 -18.0681 1.45366
2531 7 -3.66082 -22.8179 3.27075
3626 7 -7.83169 -18.6606 -0.7051
1741 9 -8.12216 -19.8144 -7.11725
2391 6 -3.86244 -20.1315 0.180359
3468 6 -8.54939 -22.7409 -0.226275
2528 7 -3.03933 -21.7585 5.31489
2545 7 -3.34557 -18.8744 3.16037
2344 18 -3.70936 -22.6354 -0.46312
3631 7 -6.96713 -20.2326 3.20613
2382 2 -4.45358 -23.2729 3.87049
3480 16 -5.86752 -23.3325 -8.182
2546 7 -4.73915 -20.6856 2.03281
3622 7 -6.82304 -22.7089 2.06094
2332 6 -2.04035 -22.9511 -2.45899
3478 2 -8.01442 -20.0275 3.06849
2396 2 -3.75068 -20.4803 1.6283
2389 6 -3.72904 -20.9681 -0.870442
2393 6 -3.74086 -20.5357 -2.18534
2547 7 -2.96689 -21.2309 1.94177
2496 7 -1.59359 -22.0474 -2.0724
2542 7 -3.4267 -17.1838 -1.50997
1578 6 -9.63831 -20.9317 -7.88289
3553 7 -8.50288 -17.2553 -7.74462
3628 7 -9.37701 -18.2712 2.90254
2161 7 -3.76498 -16.4679 -4.84558
2537 7 -3.83973 -19.5322 8.07162
2384 1 -3.16055 -21.4914 8.6938
2416 9 -4.66796 -23.0041 14.4216
1104 6 -7.67679 -18.8168 7.16808
2386 2 -4.31942 -20.7715 6.57015
1734 7 -9.51729 -21.4163 14.8634
2539 7 -5.32699 -20.9606 6.99302
2006 6 -5.86106 -19.4819 18.9409
2385 2 -3.3303 -20.4112 7.64037
1101 6 -6.96657 -19.3305 9.73909
1102 6 -6.39619 -18.2441 9.08877
1103 6 -6.82172 -17.9089 7.7976
2536 7 -2.30317 -20.1432 7.22584
1997 6 -3.27164 -21.9395 19.9004
1105 6 -7.91076 -20.2141 9.14177
2535 7 -3.92288 -21.5684 9.43799
2538 7 -4.3767 -19.9274 5.91176
1643 6 -1.87858 -17.3609 8.1474
2005 6 -5.4244 -17.5335 20.4476
1571 6 -9.61346 -19.3792 15.5122
2159 7 -6.88051 -17.6606 18.7617
2527 7 -4.78077 -23.4359 7.26323
2387 16 -1.97764 -21.0696 9.33592
1996 6 -4.68465 -20.0717 19.5455
2221 16 -4.2955 -22.9549 13.5316
2177 9 -7.36832 -19.5432 17.6606
1107 6 -8.66005 -21.1544 9.96827
1310 7 -8.86025 -22.0362 11.8357
1111 2 -6.50206 -16.7309 6.86676
2003 3 -2.96 -23.3237 19.4302
2383 2 -2.87412 -22.8204 8.00119
1566 6 -8.32032 -16.9253 13.1899
1579 6 -9.57764 -20.3627 20.3456
1642 6 -0.919705 -18.0486 8.86132
2157 7 -5.46801 -22.5183 17.9771
1817 7 -1.46371 -21.8879 16.2638
1323 8 -9.63086 -21.4334 7.33687
1667 4 -0.967521 -21.057 15.7637
1795 7 -2.86823 -17.2633 8.70223
2380 1 -3.95321 -21.9753 5.8486
2024 16 -6.67232 -20.0512 18.0015
1128 11 -8.98281 -20.7955 6.98752
1998 6 -4.15206 -21.2282 19.1172
1099 6 -5.07182 -17.7425 11.0255
1096 6 -6.58325 -19.6343 11.1014
2379 1 -3.81054 -23.1128 6.7939
1729 7 -4.72629 -16.6217 17.8717
1098 6 -7.1903 -20.6609 11.7922
1749 7 -1.44672 -16.9262 16.3281
1110 16 -4.4049 -18.3187 13.8062
1731 7 -7.28068 -18.4156 16.2227
1093 6 -5.7539 -20.2797 13.6458
1106 6 -8.17337 -19.9783 7.78308
1129 16 -9.71468 -21.8639 9.3906
2156 7 -4.67333 -21.1243 16.9447
2155 7 -3.92528 -23.9183 19.1606
1322 8 -9.45938 -20.3384 6.29089
1737 7 -9.10806 -19.3823 20.0822
2199 6 -3.01424 -23.3811 13.7538
2200 6 -2.07478 -22.7923 12.9469
1100 6 -5.46874 -17.4643 9.71606
1568 6 -8.25608 -17.8198 14.2968
1108 6 -8.29363 -21.2752 11.2645
1669 4 -1.72214 -19.9413 15.3204
1820 7 -2.76967 -19.8953 15.4074
1312 9 -4.48419 -17.4701 13.3434
2158 7 -3.80475 -22.5126 17.366
1097 6 -6.7284 -21.0505 13.0445
2540 9 -2.30674 -20.7616 10.1946
2402 7 -2.45852 -22.114 12.1714
3554 7 -8.71831 -17.0661 19.3746
1567 6 -7.34074 -17.6854 15.3554
1307 7 -7.16578 -21.9412 13.5177
1095 6 -5.19568 -19.1511 13.0706
1306 7 -5.43685 -20.4035 14.7446
1094 6 -5.54455 -18.886 11.7596
1570 15 -9.2423 -18.8091 14.2759
1660 16 -1.33028 -18.4329 10.1475
2533 7 -1.88615 -22.6205 7.63186
2004 3 -4.57243 -21.8701 17.7819
2007 6 -6.09327 -18.1589 19.3133
2534 7 -2.96499 -23.6681 8.62876
1814 7 -1.96948 -17.277 14.0437
1641 6 -1.8031 -17.1068 6.77357
1569 16 -9.27554 -17.0893 12.2134
1564 6 -6.54023 -16.5133 15.274
1309 7 -7.97643 -18.5693 6.19486
2153 7 -2.34851 -23.3337 18.4922
1313 7 -6.21961 -17.1869 5.89571
1813 9 -1.75877 -19.3393 10.1047
1664 6 -1.06162 -17.9213 13.9455
1109 19 -4.04106 -16.5941 11.7447
2154 7 -2.54948 -23.9273 20.2625
2013 6 -5.56678 -14.269 -7.21442
2162 7 -6.24912 -13.8269 -7.9443
2014 6 -5.37839 -13.7839 -5.91755
1804 7 -1.50521 -15.2476 0.115241
931 16 -6.57748 -11.209 5.22307
2163 7 -5.32239 -11.6137 -5.71375
656 7 -9.36723 -13.4644 -1.61437
2170 7 -7.47125 -12.2414 -7.10138
2181 7 -2.63521 -13.064 -7.59601
1856 11 -2.05487 -9.50232 -1.61913
2171 7 -7.5897 -10.0534 -5.8811
2012 6 -4.57038 -14.5549 -5.13723
1705 7 -1.20533 -9.80976 3.2863
2184 7 -2.42734 -10.9169 -6.12509
2015 1 -5.98006 -12.4588 -5.50599
2019 2 -7.44116 -12.2717 -6.02188
1644 6 -1.3661 -16.1723 4.12346
1812 9 -8.6146 -12.0442 2.11417
1659 16 -7.90229 -12.416 2.64145
2023 16 -9.48094 -11.095 -5.70714
3632 9 -6.96853 -16.348 1.54689
1808 7 -5.74093 -10.9604 2.13671
2020 1 -8.05179 -10.9559 -5.45467
1116 6 -7.83354 -15.4218 5.19773
2173 7 -8.14314 -9.95088 -3.51092
641 7 -6.74289 -10.0452 -8.58446
1805 7 -5.4236 -12.6748 3.43284
1801 7 -2.46841 -12.9173 -0.542166
1651 1 -4.46514 -13.9531 1.96274
1650 6 -3.39355 -14.6869 2.78391
2033 4 -1.78096 -11.7503 -6.01705
2172 7 -8.34756 -11.6644 -3.48848
2051 8 -2.24809 -10.1233 -0.86527
1655 2 -5.70454 -13.4808 2.72284
1647 6 -1.2083 -15.7015 2.81115
1649 6 -3.46505 -15.0351 4.1186
2169 7 -7.93386 -13.1591 -5.53895
1657 2 -6.03053 -11.6478 1.32483
1645 6 -2.5689 -15.9111 4.77084
2031 4 -1.93316 -12.9178 -6.71446
1798 7 -4.27345 -14.74 4.70134
2166 7 -3.84386 -12.0753 -4.34631
1316 7 -8.87867 -14.3373 3.80679
2018 2 -4.14085 -14.1963 -3.73428
2175 7 -5.71814 -10.1779 -4.06251
2168 7 -3.02534 -14.2752 -3.71953
2167 7 -4.63167 -14.8112 -2.91095
2165 7 -4.12148 -12.3846 -2.64355
2009 6 -5.05664 -15.4839 -7.70303
2011 6 -4.06178 -15.755 -5.63417
480 6 -7.50318 -9.33296 -8.90923
1810 7 -4.24821 -10.9514 0.182185
2016 1 -5.89329 -12.4118 -3.97728
1806 7 -6.16461 -14.2482 3.30354
2176 9 -9.66034 -10.8673 -6.63715
1658 2 -4.74365 -11.9831 0.514402
1807 7 -7.02805 -13.5038 1.10302
1809 7 -6.76092 -11.1439 0.693148
1653 2 -2.80188 -13.5324 0.271259
1654 2 -1.72103 -14.3757 0.832193
1802 7 -3.43998 -14.2531 -0.270061
3397 6 -9.6262 -15.6811 -5.94928
3401 6 -8.52815 -16.0809 -5.1655
1800 7 -3.25493 -12.1332 1.92266
1811 7 -5.01939 -12.5453 -0.412942
1656 1 -6.7191 -12.8256 1.89137
2022 2 -6.34304 -10.9618 -3.56816
2164 7 -6.62406 -13.1271 -3.51856
2021 2 -7.79546 -10.8742 -3.94298
2183 7 -1.22298 -14.8098 -5.81608
1799 7 -4.90375 -14.5842 1.15827
1652 1 -3.71684 -12.8089 1.2781
2174 7 -6.18956 -10.7512 -2.54979
2017 2 -4.42429 -12.6651 -3.62024
1315 7 -7.14424 -16.0605 4.51545
1648 6 -2.07893 -14.8825 2.20256
654 7 -9.42258 -11.1098 -0.386634
3564 7 -3.08825 -10.4102 -8.50653
2010 6 -5.62319 -16.1278 -8.79812
2008 6 -4.22706 -16.2827 -6.91659
1084 9 -6.09693 -11.7839 4.64394
3559 7 -7.57332 -16.1596 -5.6481
1674 7 -0.923237 -12.693 5.4792
1117 6 -8.78073 -14.5477 4.82427
1706 7 -2.78627 -9.32289 4.75932
3394 6 -9.49333 -15.3623 -7.32448
1857 16 -0.9383 -11.1271 0.392086
3402 6 -8.73229 -16.2372 -3.80396
3392 6 -8.95668 -16.3217 -8.16339
647 7 -5.21016 -9.00748 -7.83396
3560 7 -7.81109 -16.3306 -3.19323
1359 7 -9.33962 -8.87503 5.74618
1083 7 -5.8431 -13.7407 8.26268
1081 7 -4.65876 -12.8462 6.28832
929 2 -5.23651 -12.16 7.00403
928 1 -6.57226 -11.8953 6.43945
927 2 -7.32809 -10.9747 7.43755
924 1 -6.063 -11.8981 9.31962
1308 7 -5.18304 -16.506 9.28601
930 2 -5.3099 -12.8059 8.35081
1708 7 -2.6711 -10.7013 6.73788
1529 15 -2.42724 -11.2466 9.31796
1524 6 -1.93493 -10.1168 8.71702
1671 7 -1.96821 -13.4016 7.59821
1082 7 -4.19685 -12.9588 8.66288
1523 6 -2.18604 -9.94635 7.33183
1072 7 -5.36868 -10.9978 9.47764
923 1 -7.46173 -11.5233 8.83328
3379 6 -4.57692 -11.3239 19.0767
3549 7 -4.64287 -11.8529 20.1044
1548 6 -1.94024 -11.4216 10.5365
1558 6 -5.0707 -14.8746 15.1921
642 7 -8.46674 -10.9983 19.6483
1080 7 -4.61157 -11.2232 6.98939
1743 7 -2.66407 -14.0624 18.9296
1586 4 -1.38659 -15.5732 18.042
1670 7 -1.68366 -14.424 9.84111
1744 7 -3.13568 -15.7322 19.207
3547 7 -3.51343 -9.50097 14.7207
920 6 -7.92254 -10.6947 11.1643
1549 6 -2.08266 -11.939 12.909
1070 7 -9.67848 -9.94285 8.41722
1076 7 -6.85399 -11.9237 12.6313
922 6 -8.23324 -10.6343 9.79991
3387 6 -7.47778 -13.5605 18.3135
1078 7 -8.28918 -10.5623 6.99526
3405 2 -2.87114 -9.83298 20.0494
3388 6 -8.52436 -14.0063 17.5661
1554 15 -2.91106 -12.0527 14.0394
1071 7 -8.04856 -12.4939 8.73529
1725 7 -3.7516 -11.3774 11.5241
3384 6 -6.63685 -12.5362 17.7802
1314 7 -5.68021 -16.1473 7.24663
3390 15 -9.37477 -15.0069 17.9814
3385 6 -7.91117 -12.5236 15.6268
3550 7 -7.99206 -12.0603 14.5979
481 6 -8.49139 -9.85475 19.8043
3377 6 -5.47245 -11.7505 18.0539
1112 6 -7.61767 -15.7516 6.52834
1074 7 -6.92902 -13.3792 10.6226
1077 7 -6.57938 -10.1501 7.50065
919 6 -8.6595 -10.0073 12.1006
925 2 -6.21907 -12.597 10.654
1550 6 -2.72909 -11.5456 11.679
1073 7 -5.28355 -13.096 11.0751
3383 6 -6.95748 -12.209 16.5371
3380 6 -3.71582 -9.56895 17.6786
3378 6 -5.19151 -11.0403 17.0191
1742 9 -2.5261 -12.3329 16.018
1561 6 -3.56616 -15.0637 17.2906
3375 2 -4.50272 -9.26012 15.2938
1796 7 -3.79039 -16.1395 6.58101
1730 7 -7.33626 -15.1983 12.2016
1584 16 -2.33862 -13.077 16.5632
1114 6 -8.46028 -15.3282 7.52237
3567 7 -1.36229 -12.0916 19.2012
3386 6 -8.75039 -13.5428 16.2782
3381 6 -3.73274 -10.2735 18.8951
3406 4 -1.41933 -9.99911 19.573
1325 9 -8.79201 -15.2455 9.32477
3382 17 -6.14256 -11.2894 15.8596
1728 7 -3.61792 -13.7513 13.1052
926 2 -6.63503 -11.4874 11.6133
1560 6 -3.29743 -14.0764 16.3028
1556 6 -4.07409 -13.9562 15.1318
1563 6 -6.6393 -15.8324 14.1585
1311 10 -4.3215 -15.2543 11.4964
1522 12 -1.39322 -9.14544 9.41851
2160 7 -6.37106 -15.5241 20.1225
1555 2 -3.90451 -13.0498 13.8984
1075 7 -5.85681 -10.7627 11.8791
3376 6 -4.51355 -9.93788 16.5887
1585 2 -2.7176 -15.0532 18.4641
1727 7 -4.83787 -12.5691 13.5277
1562 17 -5.79985 -14.6824 13.9641
1069 7 -8.4207 -10.0924 13.1752
1130 16 -8.17064 -15.6451 8.77696
3551 7 -7.24664 -13.9772 19.3029
479 6 -9.57548 -9.14097 19.4264
3374 15 -5.70126 -9.40409 14.4179
1079 7 -7.01743 -12.8066 6.20954
1565 6 -7.38767 -15.8686 13.0283
1646 6 -2.8115 -16.3814 6.06449
1559 6 -4.62414 -15.8597 17.118
1557 6 -5.45512 -15.8741 15.9687
3391 6 -9.50749 -15.0478 19.395
3393 6 -9.03389 -16.2423 19.9761
3545 7 -3.87033 -8.93685 12.5197
921 6 -9.29594 -9.89429 9.42043
1113 6 -9.55326 -14.4557 7.13754
1519 6 -1.55553 -8.93078 6.61505
1461 6 -0.978223 -13.8013 7.94589
1115 6 -9.60215 -14.0365 5.82673
937 6 -8.89057 -7.06272 -1.59014
3538 7 -4.59096 -5.39259 -7.01351
487 6 -6.94881 -6.39836 -6.70023
1703 7 -2.06277 -3.84351 4.40619
482 6 -7.54469 -7.9727 -8.53937
1699 7 -5.37073 -6.93559 3.78902
3362 6 -2.56838 -4.71173 -6.23697
3359 6 -3.09546 -5.31612 -8.4452
3361 6 -3.52509 -5.13563 -7.15885
752 6 -7.48217 -1.45699 2.93372
1355 7 -7.12109 -6.80927 4.9897
485 6 -6.54443 -7.41343 -7.61046
3365 16 -2.98183 -4.5694 -4.90568
1354 7 -9.48646 -3.93097 2.86812
1701 7 -1.40977 -3.97292 2.91671
3113 2 -6.74798 -2.74524 -7.69066
1040 7 -9.45317 -4.1887 -1.41722
3265 7 -7.26107 -2.64716 -6.71873
1178 6 -8.19652 -5.20277 3.8887
936 6 -8.24555 -8.06134 0.560968
1518 2 -1.82741 -8.74217 5.08024
3540 9 -2.20555 -4.58518 -4.37206
874 6 -9.30196 -2.8717 -3.16464
1516 3 -1.66754 -4.58514 3.72975
1179 6 -9.203 -6.81875 5.41274
873 2 -8.3842 -1.857 -2.51049
645 7 -7.90449 -5.92991 -6.79964
3114 2 -5.50346 -1.76246 -7.59282
489 6 -5.43612 -8.14417 -7.26497
3364 6 -1.33099 -4.2268 -6.64617
1698 7 -5.67085 -6.16441 2.28133
1039 7 -8.4793 -1.88219 -1.4273
486 6 -6.53835 -6.39717 -5.34184
1086 7 -7.49888 -8.63445 1.15808
1177 6 -9.47179 -4.73733 3.5786
934 6 -9.59691 -8.00785 0.953415
1513 4 -2.64858 -5.55894 3.26714
488 6 -5.42204 -7.16866 -5.01462
1028 7 -4.64616 -1.95841 -3.98487
1707 7 -1.96348 -7.65826 4.87393
2050 8 -2.75345 -8.81329 -1.82135
1180 6 -8.09324 -6.2974 4.79158
491 16 -7.13556 -5.63004 -4.42592
1036 7 -6.98667 -2.08101 -4.05213
1356 9 -6.34739 -4.97557 3.69243
1181 16 -7.1036 -4.5582 3.36962
1512 4 -4.04108 -5.35529 3.403
1514 2 -4.85651 -6.5012 2.92083
761 2 -2.18571 -3.48516 0.245336
951 7 -8.50763 -1.64603 3.00694
757 6 -3.12173 -2.5968 1.08805
3266 7 -4.83643 -2.04191 -6.73919
954 7 -5.29869 -4.32044 0.170033
1697 7 -4.4184 -4.41695 3.88479
762 14 -2.9477 -5.38855 -1.10027
1037 7 -6.62777 -3.09618 -2.67615
2037 7 -1.83365 -7.22571 -2.45962
1041 7 -9.34357 -1.89987 -5.00745
763 15 -1.22834 -1.39799 1.78364
956 7 -1.31789 -3.00763 -0.187979
760 6 -3.04319 -4.11519 -0.826159
957 7 -1.73034 -4.31577 0.798415
648 7 -4.08463 -8.5568 -5.7506
1511 4 -2.53988 -6.67587 2.44597
952 7 -7.25827 -2.62229 1.25038
953 7 -6.15981 -3.1124 -0.402222
649 9 -7.75586 -5.06199 -4.9219
490 6 -4.90826 -7.9419 -5.99942
644 7 -8.68658 -6.12265 -9.01836
872 2 -6.94246 -2.08866 -2.96204
1087 7 -8.54214 -6.80819 -2.61108
955 7 -4.44177 -4.05672 -2.33002
751 6 -5.28901 -1.80702 1.84792
1034 7 -2.67307 -2.40677 -2.52724
1700 7 -3.90216 -8.20654 1.69795
756 6 -4.50461 -2.55818 0.921849
753 6 -6.71069 -1.9882 1.93512
938 6 -7.96591 -7.74509 -0.76987
758 2 -5.12486 -3.31986 -0.210373
1035 7 -3.34216 -1.43363 -1.28615
759 1 -4.18327 -3.41332 -1.46981
871 2 -3.65662 -2.09113 -2.04715
646 7 -5.08773 -7.30669 -3.97727
1088 7 -6.97959 -8.02068 -1.34236
1515 4 -3.81687 -7.27322 2.26894
2042 7 -1.03351 -5.06621 -2.8519
3112 1 -7.65628 -2.48394 -8.85419
1510 15 -1.41163 -7.24481 1.88286
3115 16 -8.74392 -3.35683 -8.84109
755 6 -2.56992 -1.58798 1.90463
3263 7 -8.06222 -1.42277 -8.76639
3264 7 -6.37819 -3.72699 -7.70261
3256 7 -4.28378 -2.97428 -8.90585
3108 1 -4.63775 -1.88928 -8.83454
3268 9 -8.75084 -3.88748 -8.02859
3360 6 -1.78707 -4.8877 -8.85159
745 19 -3.83689 -3.73475 6.85359
746 16 -4.39212 -6.14087 7.67521
735 6 -5.57255 -3.57378 6.93549
729 6 -6.38666 -6.72285 8.74167
731 6 -5.69202 -5.79737 8.0462
730 6 -6.27907 -4.5202 7.72373
3528 7 -2.66427 -4.93222 9.39684
3537 8 -4.78466 -5.4881 19.8474
732 6 -7.60608 -4.319 7.89304
1357 7 -9.58801 -8.01648 7.22462
3580 7 -8.71067 -7.16666 17.2432
737 6 -8.27887 -3.40981 7.08655
944 7 -5.61417 -1.79824 5.85243
3544 9 -5.35458 -5.39546 17.764
943 7 -8.17489 -7.22557 9.78756
3111 2 -6.81648 -2.53074 19.3525
942 7 -5.89279 -7.61322 9.1707
948 9 -4.23621 -5.599 6.81042
733 6 -7.63306 -6.438 9.17254
3259 7 -2.36034 -2.49091 19.6359
3520 7 -0.997178 -2.03506 6.5555
3574 7 -8.52397 -8.29003 14.592
3703 21 -4.36703 -2.94301 13.5017
734 6 -8.34841 -5.27878 8.64239
947 10 -3.23281 -2.65154 6.34111
3404 16 -2.9437 -8.42048 17.6039
1714 7 -0.972508 -7.93059 11.2757
738 6 -7.61158 -2.396 6.43144
3533 7 -2.34025 -6.34091 14.8985
3413 1 -8.24654 -6.29694 15.2639
1358 7 -7.89249 -8.21638 6.51821
3563 7 -3.00336 -8.73639 20.302
3342 12 -2.78148 -5.40989 12.7217
741 6 -9.70465 -3.41354 7.0573
483 6 -9.51902 -7.75652 19.5789
3576 7 -8.82145 -3.57033 14.7231
3339 6 -1.62733 -3.66426 10.9296
3343 6 -2.42056 -4.71058 10.4946
3418 2 -9.15589 -6.50647 16.515
3341 6 -1.18443 -3.64884 12.2613
3344 6 -3.08849 -5.53299 11.3886
3412 1 -8.94264 -5.57306 14.1425
3104 6 -3.36802 -1.31 18.1938
3417 2 -9.46168 -5.16229 17.105
3414 2 -7.69387 -7.61764 14.8526
3340 6 -1.88149 -4.55511 13.0897
3562 9 -2.81375 -8.23085 16.6576
3355 6 -1.80051 -4.94812 19.2739
3571 7 -8.36168 -5.19893 12.088
3503 7 -9.07414 -2.42799 12.7737
3411 2 -7.88592 -5.25383 13.0851
3570 7 -7.48313 -4.2422 13.4328
3367 16 -4.71381 -5.63772 17.0856
3534 7 -3.55171 -5.01728 14.6718
3371 6 -6.74613 -7.42337 13.7395
3546 7 -5.7981 -5.15739 11.4641
3575 7 -7.28662 -8.09497 15.7201
3354 6 -3.39799 -5.42844 17.5031
3372 6 -5.83141 -6.10792 12.0159
1711 7 -1.01511 -5.79287 7.10057
3370 6 -4.64896 -8.13722 12.6516
3353 6 -3.07467 -5.43303 18.809
3107 1 -5.57779 -1.67463 19.4138
3373 6 -6.81477 -6.24708 12.9921
3262 7 -7.30661 -2.14964 18.4192
3347 13 -6.86927 -2.27924 9.82359
3573 7 -7.33189 -5.6809 15.5112
3351 2 -2.6043 -5.28995 15.1106
736 6 -6.2249 -2.54727 6.32929
3352 6 -2.43567 -5.10477 16.5765
3349 15 -3.7187 -6.65923 10.9965
3368 6 -4.70375 -7.00142 11.9095
3369 6 -5.63919 -8.28773 13.6059
3578 7 -8.51316 -4.50217 17.2137
3572 7 -9.7301 -6.34152 13.6606
3358 11 -3.86431 -5.76961 19.8836
3350 15 -1.60735 -4.4403 14.4608
3261 7 -6.58772 -3.5947 19.1424
3548 7 -4.39553 -8.21226 15.6089
3415 1 -9.63644 -4.31147 14.6098
1182 3 -8.9375 -8.04792 6.28475
3106 6 -4.76271 -1.51315 18.1856
740 6 -9.65394 -1.35288 5.75228
3505 7 -9.62061 -1.59379 10.0675
739 6 -8.28291 -1.35437 5.78742
3356 6 -1.13821 -4.87062 16.9921
3110 2 -2.52163 -1.41381 19.4863
3527 7 -1.75055 -3.0414 8.88295
3338 2 -1.19647 -2.7918 9.81278
3337 2 -1.33432 -1.36894 10.2406
3254 7 -6.48433 -1.27984 16.8221
484 6 -8.58017 -7.2329 20.3687
1025 7 -4.71536 0.787805 -4.85611
3674 21 -8.15246 5.97836 -0.516686
828 6 -2.70174 5.8656 -7.74966
823 6 -2.07476 1.94447 -5.12407
825 6 -1.71581 0.650269 -5.26764
821 6 -1.57261 2.95819 -5.98143
827 2 -2.64346 4.43002 -7.2587
826 15 -2.03894 4.19684 -5.94253
1000 7 -3.6529 3.89435 -7.29185
3432 6 -9.48828 3.05102 -7.77888
834 17 -4.6569 5.58286 -8.70642
999 7 -2.09316 3.86375 -8.01034
2520 7 -1.84429 3.39552 3.61421
3435 6 -7.70778 1.67359 -8.7029
3109 2 -3.45602 -0.884611 -8.95665
3440 6 -7.54849 2.36519 -6.44583
3596 7 -6.5358 1.80916 -6.4217
961 9 -4.06907 0.612054 4.71298
1027 7 -3.78178 3.18313 -4.58892
3597 7 -7.67907 2.63939 -4.34279
3433 6 -8.26478 2.43944 -7.71207
2573 6 -8.51182 4.56665 4.15981
2769 7 -4.07381 4.34027 4.35174
963 7 -1.33399 -0.69499 3.88954
867 1 -4.50461 -1.30593 -3.10742
2568 6 -6.11166 4.65641 3.74379
866 2 -3.23488 2.29376 -4.21835
1031 7 -7.39068 0.619087 -2.94308
3257 7 -2.95289 -0.783311 -7.95442
2781 9 -5.39048 3.00036 1.07997
2574 6 -7.77578 2.56662 1.13382
2782 7 -6.29875 2.48426 -0.468746
2571 6 -8.73027 3.79488 2.99017
754 6 -3.31571 -0.949452 2.93581
2511 7 -2.86281 5.23197 -0.290831
3267 7 -5.92277 -0.771541 -7.36698
2587 3 -6.71189 1.82295 0.367203
2772 7 -9.27525 4.93196 4.86861
2575 6 -9.03385 2.46696 0.552261
766 16 -4.94372 0.36045 4.83696
2572 6 -7.21089 4.87855 4.51294
1032 7 -5.93065 2.42061 -3.2262
2770 7 -4.22142 5.61779 3.1373
2586 16 -5.1859 3.56663 1.88764
2567 2 -4.71973 5.18959 4.04138
865 1 -4.27263 1.12806 -3.95466
1030 7 -6.40975 0.149401 -4.2807
768 6 -1.03666 -0.291951 0.922712
2569 6 -7.57936 3.39375 2.2272
2771 7 -7.03741 5.53077 5.39537
870 2 -5.4142 1.44246 -3.05808
2570 6 -6.32313 3.88617 2.62193
1038 7 -8.70398 -0.881559 -2.81295
774 16 -2.85303 2.5103 -0.735678
3444 6 -9.42654 4.77305 -4.49574
964 7 -2.66175 -0.134726 4.93721
950 7 -8.47312 0.554582 4.57526
2583 15 -9.20348 1.78955 -0.632874
767 3 -2.34992 -0.215203 3.89305
3439 6 -9.16554 3.81785 -5.51452
868 1 -5.93689 -0.952757 -2.53648
869 2 -6.37356 0.316992 -3.18743
2784 7 -5.88725 1.4255 0.976274
2783 7 -7.14016 0.891355 -0.047327
1033 7 -5.14494 1.51229 -2.02233
769 6 -1.8745 1.58809 -0.508181
2507 7 -6.7422 5.51809 -4.11683
3438 6 -9.7197 3.99917 -6.79595
965 7 -3.11596 0.364819 0.644757
747 2 -7.6661 -0.140575 5.00444
864 1 -3.56794 -0.146561 -3.45863
966 9 -2.48785 3.16883 -1.2961
1026 7 -2.72044 2.54597 -3.29328
770 6 -2.04043 0.537126 0.432582
2353 6 -5.56487 6.28251 -2.4315
3592 7 -6.82918 1.02304 -8.43915
2508 7 -5.36098 5.2897 -1.91826
1024 7 -3.14579 0.183665 -2.54419
3441 6 -8.13793 2.87008 -5.34102
2517 7 -1.80115 3.55209 1.49976
962 7 -2.26752 0.828244 3.6018
863 2 -2.40276 -0.449326 -4.42855
2785 7 -9.48439 0.306492 1.51569
2521 7 -1.74917 3.97618 5.17634
748 6 -6.83381 -0.696455 3.86956
750 6 -5.42626 -0.411337 3.83475
3599 7 -9.02688 4.71778 -3.48779
2361 6 -1.15622 5.5254 2.11449
2368 3 -1.32497 4.12979 4.14757
749 6 -4.67043 -1.04857 2.92253
3675 22 -7.2073 5.30586 -0.524428
1029 7 -5.84856 -0.804354 -1.46729
968 7 -1.36575 4.17978 -2.8691
2362 6 -1.36123 5.45973 3.49816
1023 7 -1.57435 -0.925973 -3.929
2355 2 -2.683 6.15234 -0.832398
2367 3 -0.936092 4.21021 1.45549
2512 7 -2.57237 5.88844 -1.90583
1022 7 -2.91772 -1.0825 -5.20363
949 7 -7.04265 0.513383 5.71839
3323 6 -3.43973 0.946752 7.97673
3346 5 -6.94103 -1.24076 10.4091
3318 6 -7.17038 1.70032 7.95471
3319 6 -4.8591 1.10753 8.11513
3317 6 -5.83977 1.9333 7.50525
3316 6 -7.56863 0.851991 8.98821
3321 6 -5.35563 0.24103 9.02808
3320 6 -6.57526 -0.00928886 9.6136
3322 16 -5.53419 2.9171 6.58913
3258 7 -3.83871 0.0910297 20.2773
3247 7 -1.12316 3.69418 8.98446
3326 6 -2.49415 1.53918 7.06521
3087 6 -1.21176 1.68873 12.9209
3328 6 -3.04707 0.0814497 8.85875
3284 6 -6.31772 6.05632 14.2743
3513 7 -7.89984 2.34842 7.51426
3516 7 -2.78876 2.18857 6.19997
3497 7 -8.85906 5.66362 15.2509
3509 9 -7.72747 4.95541 13.2811
3089 6 -1.27057 3.15415 11.0847
2863 7 -9.6742 5.63057 6.98242
3282 6 -2.48139 4.68833 14.8544
3250 7 -3.58523 3.82778 9.35074
3102 6 -5.3671 0.0294368 14.8708
3311 15 -8.87271 0.812077 9.3929
3249 7 -4.03228 4.9191 10.6679
3434 6 -8.51054 1.3482 19.7499
3313 16 -2.85105 2.33262 17.5171
3329 6 -1.79164 -0.435748 9.14607
3494 7 -1.05514 3.40387 15.8481
3296 6 -9.16301 3.49135 14.8817
3281 6 -1.4291 5.09517 13.9921
2765 7 -3.55453 5.16944 6.44996
3277 6 -1.67907 6.06193 12.9882
3101 6 -4.69254 -0.677724 15.8669
3325 6 -1.22814 0.916267 7.03454
3314 16 -8.43437 4.49385 12.8159
3088 6 -3.29638 2.4535 12.0673
3511 7 -9.42387 4.33601 10.7876
3094 6 -2.55599 0.174911 14.9958
3260 7 -1.52106 -0.865327 19.3841
3498 7 -9.24049 4.76739 16.677
3252 7 -6.47456 0.0911354 14.7818
3591 7 -8.07831 0.584832 19.0542
3508 9 -2.15996 1.74394 17.3097
3105 6 -5.37353 -1.25475 16.9848
3292 6 -2.12101 3.72203 15.7904
3510 7 -7.79744 3.5782 10.2637
3512 7 -9.27438 3.23107 9.4469
3312 11 -5.27505 2.20879 18.2952
3302 6 -9.09115 2.25662 11.3707
1002 7 -6.88057 4.81803 19.9854
3285 6 -4.76471 4.67684 15.4655
3291 6 -3.12478 3.25948 16.5791
3514 9 -4.69657 2.60752 6.18904
3255 7 -6.05771 -0.617987 19.5761
3096 3 -3.21407 4.28533 10.2745
3295 2 -8.6405 4.68535 15.6504
3506 8 -6.14758 1.83035 18.5343
3248 7 -2.47391 5.04593 10.1129
3348 16 -6.99792 -1.13846 11.7191
3251 7 -6.4926 1.53279 13.0592
3253 7 -1.60192 -0.755591 17.3611
3315 3 -8.87624 3.41935 10.4623
3098 6 -4.73873 2.38994 12.1501
3103 6 -2.69417 -0.916132 17.1244
3303 6 -9.14835 0.99968 10.7433
3286 6 -6.08488 5.11847 15.2723
3298 6 -8.95209 3.41199 13.5054
3099 6 -5.38844 1.5657 13.068
3269 9 -6.40458 3.08455 11.6355
3116 16 -5.51505 3.14092 11.3482
3532 9 -7.2022 -0.242656 11.8945
3100 6 -3.27367 -0.574961 15.9096
3280 6 -3.77885 5.12887 14.6225
3086 6 -2.61941 1.6828 12.9542
3092 6 -1.1716 0.281662 14.9791
3493 7 -7.65481 2.99675 17.4092
3287 6 -7.08736 4.47087 15.9654
3290 6 -5.48708 3.15976 17.2581
3090 6 -2.61585 3.28595 11.1731
3278 6 -4.01022 6.008 13.594
3589 7 -9.55156 -0.762369 18.9654
3288 6 -6.81628 3.51461 16.9275
3097 6 -4.64848 0.872423 13.9424
3507 8 -4.55455 1.55141 18.178
3093 6 -3.26644 0.89949 13.9661
3289 6 -4.48833 3.75666 16.4283
3297 6 -9.38221 2.28594 12.7393
837 6 -6.58073 5.80437 19.6494
3324 20 -4.11259 -0.740498 10.0584
2560 6 -4.09364 6.09462 6.25084
2778 8 -2.93686 6.07269 8.57747
841 16 -8.7462 6.22263 18.5933
3524 7 -1.90012 -1.19097 11.2246
2358 6 -1.61869 7.87442 3.49985
3712 21 -8.75566 9.75879 -1.0778
2343 6 -4.91622 10.8659 -6.47636
2500 7 -5.14783 10.8254 -7.47018
2341 6 -5.72945 9.99082 -5.74084
2342 6 -4.25365 11.8906 -5.85993
2348 6 -6.42456 8.91691 -6.35191
2504 7 -6.7781 8.98893 -7.39068
833 6 -1.77555 8.10571 -7.81898
831 6 -2.77285 8.69173 -8.53435
2369 6 -1.56152 8.96744 5.58431
2509 7 -4.63705 6.822 0.144572
2501 7 -6.56576 12.8046 -0.426569
2376 6 -3.77805 13.4609 4.60545
1021 7 -2.6683 8.55872 -5.12026
3624 7 -8.36766 13.5717 1.24303
2559 6 -4.70803 6.33068 5.02308
3453 6 -8.86488 11.3801 -8.03286
3454 6 -7.96662 12.3963 -8.24281
3449 6 -9.53931 11.167 -6.86517
2349 6 -6.67344 7.80801 -5.62024
2767 10 -6.5576 8.3659 0.791404
3617 7 -9.16897 13.3348 -0.961178
3456 6 -9.42029 12.3601 -3.40801
1020 7 -2.08796 9.84155 -2.98889
2338 6 -4.27228 12.0073 -4.48329
3452 6 -7.65545 13.2195 -7.16916
2551 6 -6.81156 11.4608 3.87932
3676 22 -9.09769 6.65081 -0.508859
2372 6 -2.66207 11.3288 4.37397
3450 6 -8.33501 12.9997 -5.91214
2499 7 -3.7229 12.673 -6.44952
2549 6 -6.99306 12.3551 4.86434
2333 6 -3.90144 13.3523 -2.47591
1001 7 -2.79492 9.75822 -8.79855
2506 7 -4.45873 9.36706 -1.90172
2555 6 -5.93083 9.24741 3.0662
2334 6 -2.40166 13.606 -4.3504
2503 7 -5.06953 13.3423 0.260047
2552 6 -5.88507 9.80751 5.40005
2550 6 -6.15108 10.2097 4.11258
2345 3 -5.43942 12.6109 -0.459604
3604 7 -9.43079 8.39645 -7.36759
2364 6 -2.35707 10.1863 2.18874
2498 7 -6.13466 10.859 -1.89574
2565 19 -6.44015 9.48893 1.45592
2340 6 -5.60087 9.96141 -4.34286
2347 6 -6.24823 7.64463 -4.25735
2566 16 -7.12699 11.9158 2.60112
2502 7 -5.33787 11.6302 0.00931984
2346 6 -5.64559 8.72988 -3.5887
2366 6 -2.25207 10.2133 3.60981
3714 22 -7.90747 9.05464 -1.43878
2365 6 -1.79095 9.02321 4.21887
2516 7 -2.77231 10.9239 1.53593
862 4 -1.70925 9.17523 -5.03824
2335 6 -3.47372 12.9783 -3.75521
2339 6 -5.12605 11.1263 -3.76165
2510 7 -3.60076 8.06094 -0.150287
2505 7 -7.28897 6.93068 -6.13096
2337 6 -5.44025 11.4517 -2.43141
2336 6 -4.86576 12.571 -1.86799
2764 7 -5.47764 7.27264 2.4362
2350 6 -4.91905 8.52279 -2.43817
2525 7 -3.82808 12.3405 2.74126
3713 22 -9.60383 10.463 -0.716733
2363 6 -2.01317 9.07669 1.38565
2558 6 -5.17596 7.59944 4.67226
2359 6 -1.67033 7.83414 2.06113
2762 7 -7.53056 13.2642 4.66039
2556 6 -5.4569 7.98121 3.33699
2515 7 -2.13851 9.38056 0.353861
2360 6 -1.33744 6.70531 4.19572
2351 6 -4.77197 7.30383 -1.83547
2768 9 -6.76593 11.2283 2.02535
3451 6 -9.2707 11.9604 -5.7549
3603 7 -9.44026 8.62868 -5.64717
2375 6 -3.48602 12.3403 3.83232
832 6 -1.65725 6.79182 -7.43809
861 4 -1.41157 9.86789 -3.81577
2497 7 -2.04564 13.2474 -5.25417
2356 2 -1.25536 6.69854 -0.204638
2357 6 -1.33862 6.67361 1.35748
2370 6 -1.01116 6.68963 5.61414
2354 2 -3.91688 7.14575 -0.597562
830 6 -3.62406 6.5584 -8.4385
3455 6 -9.69353 11.6054 -4.49389
2514 7 -1.15421 7.76248 -0.572271
3458 6 -8.69625 13.5726 -3.57601
829 6 -3.85859 7.77635 -8.89319
2868 7 -9.34279 10.1213 5.63939
3140 7 -0.964675 13.3572 -0.172755
2352 6 -6.32363 6.40039 -3.5593
3457 6 -8.15753 13.8292 -4.81155
3609 7 -9.32114 9.43794 -9.06815
2557 6 -5.25773 8.62147 5.65627
2406 7 -2.29564 10.2677 17.9688
2553 6 -6.64849 12.0497 6.17421
2564 6 -5.78627 10.4094 7.78365
2766 7 -6.04972 11.1291 8.5514
2563 6 -5.11818 9.30614 8.05677
2585 16 -4.76868 8.97808 9.31643
2561 6 -4.83149 8.36069 6.99088
365 6 -9.55858 8.93689 11.0009
1003 7 -5.6327 9.57943 18.8942
2377 6 -2.72864 12.4903 6.48369
2195 6 -1.75954 11.5016 16.504
840 6 -7.02236 7.98802 18.4737
2374 6 -1.70687 10.2321 6.24342
2554 6 -6.08139 10.7347 6.45231
2526 7 -2.40591 12.4754 7.58246
843 6 -7.34828 9.52574 16.6859
2780 9 -5.21291 9.55747 9.97929
3496 9 -2.30148 7.37083 11.1814
2378 6 -3.38414 13.5639 5.96703
2524 7 -1.57074 10.1993 7.35226
3693 21 -2.62159 7.22002 16.7662
3694 22 -3.08171 8.0058 16.0474
3613 7 -8.30508 12.273 19.1761
3460 3 -7.55085 12.6543 19.8459
3612 7 -7.56616 13.7112 19.6564
2401 7 -3.81966 11.3994 16.9668
2371 6 -1.09547 7.84849 6.32035
3614 7 -6.55016 12.322 19.4976
2193 6 -1.23105 13.2071 14.7998
584 9 -9.36328 6.81257 12.151
2562 6 -4.13433 7.14789 7.19359
2203 2 -1.38675 10.3608 17.3923
3611 7 -8.04128 10.3415 19.7373
845 6 -8.04821 10.6373 16.2919
842 15 -7.8591 8.74376 17.6588
1005 7 -8.21007 12.2792 14.9954
855 16 -7.73183 13.7697 10.3186
2220 11 -4.92443 13.227 15.623
846 6 -6.65977 10.8266 14.2484
3695 22 -2.16138 6.43437 17.4849
1010 7 -5.25197 13.016 9.54246
2373 6 -2.29977 11.4074 5.75045
1009 7 -8.26908 12.5524 12.6094
1006 7 -8.77751 11.1066 16.9855
854 6 -4.75407 11.8321 11.2347
2779 8 -3.64879 7.44161 9.20592
2198 6 -3.5216 12.9554 15.5806
3459 3 -8.99907 10.4695 20.2883
850 6 -6.87136 12.9685 11.07
848 6 -6.03603 9.65032 14.6396
844 6 -7.67211 11.3423 15.1719
2407 7 -1.03342 12.7083 18.7857
1007 7 -5.76028 8.22327 16.0752
3293 19 -5.86567 7.52138 12.148
1012 7 -3.97309 11.2906 10.6717
1004 9 -9.22417 6.93993 18.0592
847 6 -6.26407 9.12506 15.887
839 6 -5.90197 8.57116 19.0379
1008 7 -5.3656 9.11613 13.9422
2196 6 -3.07558 12.0189 16.4803
851 6 -7.18314 12.4394 12.3014
1011 7 -4.30765 10.6557 12.8434
852 6 -5.59708 12.6105 10.5499
853 6 -5.04168 11.322 12.5157
3294 16 -3.17453 7.24181 11.6257
2763 7 -6.78514 12.8216 6.95861
849 6 -6.35001 11.5805 13.0488
3279 6 -2.97299 6.48393 12.751
2197 6 -2.56846 13.6047 14.7267
2415 8 -5.51543 12.4107 15.6485
3283 6 -5.34419 6.39815 13.3725
3495 10 -7.02853 8.07871 12.3933
836 6 -5.03209 7.71502 19.8357
3722 21 -7.62216 6.56163 8.89109
3143 8 -1.18394 12.3584 11.7201
2584 11 -3.44896 6.89323 8.40519
2523 7 -1.02292 7.94215 7.39545
1013 9 -7.3868 13.6758 9.4373
579 7 -9.44082 10.342 9.52417
2864 7 -8.85645 7.81482 6.1678
838 6 -7.50143 6.75157 18.9882
3492 7 -7.3302 6.53156 14.1858
382 16 -9.60518 7.4166 12.8454
835 6 -5.481 6.49687 20.0432
578 7 -9.25477 8.14115 10.2118
2405 7 -1.24635 9.48752 16.7696
2414 8 -5.2291 13.7885 14.8373
2484 7 1.99014 -22.4835 -5.75163
3008 6 5.83716 -23.9947 -1.53896
2323 1 2.7325 -22.6312 -4.88886
2954 6 -0.218769 -19.8371 0.313201
2481 7 3.01357 -19.9103 -5.17991
2478 7 3.14052 -21.0141 -6.94174
2134 7 2.55636 -18.9947 -7.67545
1973 6 2.75103 -17.9477 -7.85525
2279 6 5.77148 -19.8748 -6.39175
2281 6 5.20813 -20.9198 -7.14575
2280 6 5.843 -21.3132 -8.29029
2276 6 6.92553 -20.6748 -8.81065
1788 7 1.05199 -16.9581 3.13761
2322 2 5.12936 -19.4581 -5.04179
3161 7 6.61808 -17.2393 2.23822
2277 6 6.92717 -19.2954 -6.78879
2951 3 -0.46491 -21.3075 3.70683
2320 1 3.97694 -21.7482 -5.24188
2319 2 3.99653 -21.6558 -6.7531
2479 7 3.87734 -22.5657 -7.3259
2282 15 7.56572 -18.1832 -6.0918
3163 7 7.39497 -17.27 -0.288476
2483 7 4.966 -18.3696 -5.14918
2321 1 3.8749 -20.3011 -4.6535
3141 7 0.685675 -23.8203 -0.441927
3160 7 6.04978 -18.8571 1.91158
2939 6 0.0195834 -23.0516 1.99871
2480 7 4.83892 -22.2056 -4.883
1638 6 -0.416367 -16.9828 4.81577
2278 6 7.5116 -19.7084 -8.01022
2938 6 0.0126077 -22.7052 3.35164
2148 7 0.0414667 -20.526 -7.94144
3006 6 6.92293 -23.8943 -3.68725
1635 6 1.69003 -18.2153 4.73336
2983 13 2.84404 -21.6914 2.97941
3181 7 7.31163 -23.2087 -4.45485
2328 2 0.766362 -23.0103 -3.30409
2482 7 5.96276 -19.5394 -4.29932
2933 6 0.448119 -23.6717 4.24232
3717 21 4.39636 -23.3008 5.21345
2973 2 6.32242 -17.895 1.37039
1784 7 5.15776 -18.7738 5.51752
2959 6 2.75025 -17.5304 0.0911413
2485 7 2.8373 -22.834 -2.76647
2952 6 0.3634 -20.9674 0.843484
2953 6 0.38052 -18.6524 0.0323125
1636 6 0.724457 -17.4154 4.12747
2487 7 1.62646 -20.8694 -2.11434
2947 15 -0.36267 -22.1196 1.0166
2494 7 -0.109991 -23.0919 -5.18524
2147 7 0.53186 -22.0809 -7.81932
2486 7 1.38008 -20.3416 -3.82439
2975 6 7.59552 -19.508 0.0849841
2137 7 2.00522 -17.6987 -4.83077
1785 7 3.57181 -20.3403 5.03124
1787 7 2.63798 -18.4486 4.21677
1991 2 -0.291342 -21.5006 -8.31288
2985 15 6.40124 -21.8768 -2.50315
2984 16 3.465 -22.7121 1.17855
2979 6 7.0206 -20.06 -1.03099
3164 7 6.5137 -19.4209 -1.76129
1981 3 1.48719 -17.6868 -5.79745
1782 7 6.05239 -20.7758 5.08155
2488 7 3.23088 -19.1517 -2.88899
2960 20 4.19177 -19.7304 1.20798
3004 6 6.44838 -23.2196 -2.57186
3182 7 5.27589 -23.4371 -0.800751
2978 12 7.68625 -22.2341 -0.473429
2493 7 0.535745 -22.9321 -2.22837
2957 6 2.29111 -19.6852 0.794844
2495 7 -0.491581 -21.502 -4.25321
2964 6 3.91621 -17.9751 0.493378
2329 2 -0.408987 -22.6613 -4.18586
2324 1 2.14404 -22.3644 -3.55601
1972 6 2.38423 -17.0353 -6.94996
3147 7 0.414518 -20.716 3.88694
2956 6 1.82978 -20.886 1.21521
3168 9 3.00299 -22.9312 0.375956
2974 2 7.52367 -18.015 0.478629
2955 6 1.77256 -18.5568 0.295877
2958 16 -0.367017 -17.6308 -0.471459
2489 7 4.07715 -20.7528 -2.51289
2980 6 7.03022 -21.4023 -1.34636
2326 2 3.40315 -20.2069 -3.15759
2982 5 2.61536 -21.9013 1.88073
2325 2 2.05243 -20.906 -3.15174
2965 6 5.10884 -17.3556 0.773604
2139 7 1.08757 -18.6727 -5.93804
2138 7 0.572198 -17.0678 -5.65064
3145 9 -0.186126 -21.6783 5.58318
3171 7 7.98244 -23.983 3.59833
1975 6 3.50238 -17.6824 -9.06797
3170 7 7.01492 -23.8081 1.15229
2454 7 5.33737 -21.9969 -8.97982
3157 7 7.03326 -16.4189 -2.10078
2934 6 0.583322 -23.398 5.62063
1631 6 1.52832 -18.5256 6.15469
1768 7 3.45036 -17.3841 15.0555
1633 6 2.33263 -19.6097 8.17455
1629 6 2.42008 -19.4097 6.78659
1639 3 3.27299 -20.3738 9.03337
2190 6 -0.709096 -23.1019 13.1097
1778 7 6.49301 -19.8358 8.73524
1627 2 5.00663 -19.4542 6.35471
2146 7 -0.912792 -20.7978 19.344
1786 7 3.62692 -21.0932 6.63975
1628 2 3.63916 -20.0921 6.1669
1606 6 6.33052 -16.9006 13.51
1986 6 1.87219 -20.1272 19.6525
1783 7 5.05986 -18.8976 7.31026
1622 6 7.48049 -20.014 8.22876
1623 6 7.36859 -20.3895 6.86167
1987 6 1.19563 -21.2676 19.3471
2136 7 6.389 -16.8459 18.095
1815 7 2.18606 -17.326 12.8521
1790 7 3.84807 -19.8182 9.77534
1611 6 7.73496 -19.3581 11.2158
1665 6 1.32413 -17.8499 13.355
1789 7 4.02599 -20.9902 8.43875
1748 7 1.10588 -17.4074 16.6653
1976 6 3.90322 -18.6505 19.5434
1632 6 0.300485 -18.3148 8.1687
1791 7 2.82831 -21.2313 9.48807
1984 6 5.50428 -19.2764 17.7047
1668 2 0.518457 -20.9766 15.4845
1781 7 5.63032 -21.5075 6.67169
1793 7 0.745898 -20.1491 10.5761
2144 7 1.38235 -23.2263 18.3155
1990 2 -0.200919 -21.6078 19.7244
1608 6 5.62165 -20.285 12.2088
2141 7 5.59135 -21.3442 17.2883
1640 3 1.33723 -19.3007 10.3294
1634 6 1.32636 -18.9539 8.87021
1979 6 5.5269 -17.084 18.7115
2399 7 -0.101864 -21.9129 11.3648
1630 6 0.396391 -18.0978 6.80355
3133 7 2.21427 -23.1995 7.97359
1661 6 1.58428 -19.0487 14.0728
685 7 5.99395 -22.5719 14.841
2140 7 6.24271 -18.9191 16.9927
1982 6 3.21159 -19.8499 19.2882
1819 7 1.08102 -20.9981 16.4241
1989 6 1.87157 -22.2667 18.6868
2950 16 0.276946 -22.2078 6.21496
3131 10 6.48545 -23.7689 7.86902
2398 7 2.23263 -22.6153 11.4588
1792 7 2.32229 -19.4353 10.797
1604 6 4.24086 -17.6297 14.379
1675 10 4.36293 -16.8303 10.5856
1774 7 3.7092 -21.3335 12.0718
1773 7 4.76029 -21.9853 13.2594
1770 7 6.8502 -21.197 10.6993
1607 6 6.54332 -18.0874 12.8776
1663 6 0.520668 -19.6871 14.7354
1610 6 7.73468 -18.301 12.1248
1666 6 0.0293086 -17.2825 13.3604
1609 6 6.68462 -20.3211 11.3533
1988 6 3.20427 -22.0879 18.3546
1617 3 4.74113 -21.5053 12.2283
1983 6 3.89255 -20.8714 18.5259
2145 7 -0.455489 -22.5726 19.3055
1818 7 0.801341 -21.8162 14.853
529 6 7.08168 -22.3881 14.7939
1605 6 5.5337 -19.0778 12.9833
1977 6 5.01542 -18.358 18.6575
1775 7 5.14146 -22.179 11.4633
1603 6 4.36579 -18.8139 13.747
2185 6 1.51991 -22.9897 12.2052
1616 18 3.06495 -19.9288 13.8323
1626 2 5.9868 -20.6376 6.15531
528 6 7.64448 -21.2561 15.2213
684 7 6.96975 -20.5228 15.7364
2143 7 3.71226 -22.9196 17.8398
1985 6 5.03941 -20.5849 17.8076
1794 7 0.878012 -18.4694 10.9589
2257 15 7.40842 -21.2032 19.5805
1602 6 5.24887 -16.6893 14.3292
1589 4 0.506847 -16.7013 17.3488
2187 6 2.00921 -23.8954 13.1372
3134 7 0.407181 -23.3165 8.28203
2189 6 0.195245 -22.5375 12.2153
2931 2 1.35107 -23.9018 7.94469
1637 6 -0.618699 -17.5184 6.10286
3128 7 4.05204 -23.9019 8.436
2142 7 1.24821 -19.2294 19.9796
1662 6 -0.787136 -19.0797 14.6806
1980 18 1.77419 -14.9386 -4.72153
1967 6 2.52809 -14.6076 -6.22488
1968 6 2.88568 -13.2888 -6.5532
2132 7 2.70045 -12.5002 -5.82149
1471 6 0.987195 -13.4173 4.79323
1469 6 2.12059 -14.2083 5.01736
1704 7 -0.289148 -10.2043 4.76453
2129 7 5.70299 -10.4413 -7.85216
3151 7 3.94276 -14.3632 -0.746728
1691 7 5.91924 -10.056 5.13199
1965 2 3.70927 -11.5063 -8.13549
3159 7 5.49248 -16.2439 -3.07429
1969 6 2.75952 -15.7121 -7.12912
2025 6 0.978641 -13.4868 -4.37104
1470 6 3.10012 -14.5133 4.03856
2972 3 6.49159 -15.7416 -2.80201
2034 7 5.20317 -9.53261 2.88129
1833 6 0.138977 -9.11037 -0.449697
1826 6 2.2784 -9.70458 1.18582
1971 6 3.48628 -15.3328 -8.28159
244 7 5.53265 -10.8864 -4.69414
2128 7 5.744 -12.1765 -8.24595
59 4 5.30633 -9.82075 -4.3016
2027 6 -0.0701235 -13.0862 -5.12653
1689 9 5.60826 -11.9909 5.10444
58 2 3.99808 -9.24752 -4.2566
1686 8 2.13317 -13.6483 2.31525
1835 6 0.136691 -10.2696 0.302335
1493 16 0.654451 -12.7422 3.62554
2971 4 6.51703 -12.836 -0.307827
1821 6 4.3959 -9.21994 2.15988
1966 6 3.58267 -12.9637 -7.69414
2035 7 3.37619 -10.9675 2.5651
54 15 7.72235 -9.44546 -3.83728
1825 6 3.31599 -10.0239 2.02152
2180 7 1.19366 -10.717 -2.48208
1673 7 5.09199 -15.112 3.59809
2028 6 -0.281727 -10.9393 -4.12629
2963 6 5.08444 -16.0036 0.166841
2962 6 2.74905 -16.11 -0.231041
2179 7 2.30722 -12.7272 -2.80912
2130 7 3.23103 -11.2104 -9.06846
2131 7 3.3707 -10.9036 -7.29605
1494 16 6.18401 -12.812 5.26883
2966 15 6.22785 -15.2111 0.311041
2038 7 1.13792 -11.529 1.59792
55 4 6.38487 -9.0827 -3.77335
2969 4 6.47293 -14.4077 -1.99746
1797 7 -0.276671 -15.8369 2.27758
2030 6 0.7409 -11.3528 -3.28999
2967 4 6.3652 -14.2149 -0.617461
3155 7 7.74965 -11.4353 -1.60322
3156 7 6.37165 -12.5407 0.812686
3154 7 6.01086 -11.3175 -1.74282
1517 2 -0.740347 -9.33819 4.17357
2182 7 -0.19884 -14.1542 -7.08837
3153 7 6.92268 -13.0931 -3.61845
1468 6 4.35723 -15.083 4.4006
2968 4 6.78205 -13.141 -2.48844
1688 9 1.44155 -12.7229 3.0917
2029 6 1.39544 -12.5547 -3.39982
1687 8 3.75685 -14.0105 2.1319
2961 6 3.97475 -15.4357 -0.400684
2970 2 6.81059 -12.0201 -1.50801
1492 11 2.93548 -14.1349 2.67125
1836 6 1.18671 -10.5607 1.11357
243 7 3.18057 -9.71437 -3.69502
3152 7 1.83544 -15.6497 -0.486395
2052 9 -0.74542 -11.807 1.05886
2471 7 7.75061 -11.9634 -7.17987
3158 7 7.07225 -15.6232 -3.77523
2032 2 -0.845319 -13.8905 -6.21265
1677 7 6.60365 -15.8116 5.37326
2178 7 -0.76563 -9.93402 -4.14192
1964 2 5.24329 -11.2094 -8.45194
1970 6 3.75703 -13.9982 -8.54444
1504 20 1.74515 -9.06282 5.4871
2470 9 7.37113 -15.3545 -8.05291
2026 6 -0.689005 -11.8265 -5.07451
2312 16 7.85619 -14.4976 -7.97846
1692 7 7.62973 -10.6904 5.06819
1495 3 6.90666 -10.0943 5.67716
1803 7 -0.822669 -13.7116 0.782048
2124 7 7.76217 -12.3049 17.1834
1464 6 3.6939 -15.7779 7.94283
1465 6 2.25301 -14.7197 6.34943
1466 6 3.5408 -15.2805 6.65253
1467 6 4.59492 -15.3515 5.7185
1475 2 5.99228 -15.5795 6.23129
1480 6 6.69071 -14.4734 8.4153
1483 6 6.33359 -9.63092 7.96833
1476 6 6.4699 -14.3341 7.05748
1712 9 4.57211 -11.0026 6.70506
1528 16 3.66876 -10.8541 6.83843
1478 6 6.49579 -12.9955 6.55133
1959 1 5.92859 -9.42092 19.3434
1477 6 6.72364 -11.9136 7.50814
1458 6 1.53657 -14.9331 8.67882
1460 6 1.36138 -14.5113 7.34554
1463 6 2.75752 -15.5881 8.9055
1488 6 5.30008 -9.22272 11.5419
1482 6 6.71208 -10.6065 7.07185
1747 7 -0.188492 -14.5583 19.623
1485 6 6.17721 -9.87614 9.33807
1479 6 6.66304 -12.1835 8.88223
1474 16 0.4235 -15.3555 10.8395
2116 7 5.53114 -9.34254 17.1417
1956 1 6.34748 -9.2012 17.8883
1481 6 6.97671 -13.497 9.31114
1757 7 5.10828 -12.4559 14.8701
1486 2 5.94016 -11.4915 11.2735
2121 7 4.7013 -11.0786 18.9446
2135 7 5.60278 -15.2181 19.4025
1755 7 -0.653351 -13.5756 14.5552
1957 1 7.51892 -10.1574 17.4858
1551 6 -0.701869 -12.07 13.0038
1553 6 0.0859816 -11.7451 11.9184
3565 7 1.16612 -11.4979 18.2072
1484 6 6.32322 -11.1806 9.8235
1462 6 0.144451 -13.8186 7.06186
3566 7 1.24765 -11.4742 19.962
1594 2 -0.10536 -12.628 14.3003
1527 13 3.01196 -9.36609 8.37221
1599 2 4.48335 -10.7836 13.2709
1596 1 4.16595 -12.9499 14.5038
1769 7 7.04699 -16.0686 13.1344
3408 4 -0.790268 -11.1562 19.1427
1764 7 3.39811 -14.8414 13.7569
3407 2 0.711745 -10.9759 19.1026
1679 7 6.65794 -15.519 8.80066
1595 1 3.63815 -12.0848 13.3011
1756 7 3.78214 -12.6287 12.3869
1526 5 3.5903 -9.68218 7.40535
1750 7 1.93176 -12.6849 11.3533
1816 7 -0.170825 -16.3766 12.8235
1751 7 1.9461 -10.9186 11.4287
1758 7 3.64004 -13.384 16.6035
1682 7 5.52516 -12.506 11.3044
1597 2 3.20389 -12.865 15.6796
1754 7 -0.220873 -11.8734 15.0707
1753 7 1.42769 -13.8656 13.3728
1760 7 1.95339 -14.5669 15.5146
1683 7 3.91559 -10.874 11.1989
1767 7 5.876 -14.9541 15.5227
1598 2 1.88235 -13.5213 15.3657
1600 2 4.38181 -14.4 14.0457
1763 7 5.37211 -10.885 13.951
1487 1 4.8088 -10.6349 11.7643
1765 7 4.94753 -14.4164 13.1392
1592 1 2.08194 -11.8262 13.3839
1761 7 1.12859 -13.3306 16.2405
1591 2 1.58075 -11.7844 11.9194
1766 7 4.3482 -15.4795 15.8649
1759 7 3.03515 -11.7539 15.9478
1593 1 1.32068 -12.99 14.0297
1726 7 0.181544 -11.3119 9.84921
3409 4 0.815226 -9.52024 19.1324
1601 2 5.02952 -15.373 15.0172
1681 7 6.81716 -11.3769 11.9827
1752 7 1.8782 -10.9053 13.8903
2125 7 6.06816 -11.6642 16.9393
1473 19 3.17677 -16.2029 10.4422
1552 6 -0.552459 -11.4335 10.7212
3410 4 -0.390641 -9.02669 19.7411
3725 21 7.86414 -13.3262 14.1724
1457 6 -0.774641 -14.4049 9.16374
1978 6 5.10062 -16.1489 19.6218
1672 7 4.62167 -16.1593 8.27548
3727 22 7.3809 -13.2381 13.1216
1459 6 0.414275 -14.8693 9.56322
1762 7 3.95625 -9.8765 13.6324
1960 1 5.59267 -10.8524 19.6099
2133 7 4.33445 -13.7296 20.0441
1680 7 7.07023 -13.6988 10.3718
2123 7 6.03142 -12.7592 18.9868
1961 2 6.59629 -11.8174 19.0617
2120 7 6.77848 -9.22552 20.0479
1745 7 1.4947 -16.3724 19.2938
2118 7 7.20397 -10.1414 15.2974
1472 6 0.0195317 -13.2858 5.74624
1588 4 -0.258788 -15.2131 18.8185
1962 2 6.9992 -11.5597 17.6023
1676 9 -0.476757 -15.5193 11.0308
1974 6 3.96604 -16.3372 20.3875
2122 7 7.49756 -11.9242 19.7569
1746 7 1.72365 -15.1919 18.0128
1587 2 1.07067 -15.8864 18.4777
2127 7 3.82632 -9.078 19.951
1690 7 7.40005 -9.08511 5.55568
1678 7 6.10778 -16.5006 6.88949
1590 4 -0.879985 -16.4221 17.0634
1845 6 1.70192 -6.60605 -5.59201
1850 2 3.48 -7.08512 -7.8651
1854 14 7.06406 -6.96072 -8.46863
2049 7 6.25816 -4.46585 -8.32745
1849 6 4.52856 -4.96451 -7.201
3685 21 5.1838 -2.07501 1.40229
1847 6 4.70338 -3.82783 -6.3415
1855 15 5.64558 -2.85334 -6.67589
1848 6 3.48055 -5.81459 -7.0341
1846 6 3.7797 -3.55139 -5.32611
1852 6 5.82749 -6.61049 -8.46678
1860 6 5.31928 -2.08181 -7.72512
3334 2 0.756691 -2.35702 5.12047
2057 7 3.15268 -2.34637 -7.89446
1841 6 2.822 -4.52517 -5.06229
1843 6 2.64088 -5.65099 -5.96642
1864 6 6.44224 -1.43334 -8.38092
1829 6 1.25805 -8.19629 -0.426498
2046 7 2.82095 -7.9452 -7.53941
1844 6 0.880601 -6.40107 -4.51667
56 4 4.39568 -8.03112 -3.52093
1859 3 4.05821 -2.28607 -4.60069
1851 1 4.82666 -7.70154 -8.31157
1502 16 4.95595 -5.29764 4.02603
2041 7 0.360238 -4.51929 -1.76812
1507 6 -0.311869 -7.14669 2.67137
3719 22 6.02227 -2.11376 -1.19947
247 7 6.28216 -6.84775 -1.45786
1823 6 4.56593 -8.10087 1.43567
3686 22 5.10369 -3.19809 1.68135
2044 7 1.55282 -7.4787 -6.251
3718 21 7.07012 -2.00083 -1.68426
1832 6 -0.893459 -7.52359 -1.9676
1501 6 3.20611 -8.01779 5.57756
1509 6 0.038767 -8.14509 3.7364
2043 7 0.149229 -7.19336 -4.29707
3518 7 0.60855 -3.44779 5.0926
2036 7 2.34454 -5.05159 -1.07235
245 7 5.81347 -5.7538 -2.8202
2040 9 6.27827 -7.81562 2.28083
1827 6 3.3969 -6.4679 0.00178374
1831 6 0.121841 -6.57185 -1.77945
1842 6 1.95626 -4.37726 -3.95822
2053 9 1.26702 -2.92485 -2.86374
1695 7 0.433466 -5.4678 1.45634
1838 16 5.72494 -7.32844 1.6434
2054 7 3.2178 -1.59732 -4.74164
1694 9 4.57373 -5.28457 3.18075
60 3 6.36908 -6.70839 -2.56437
3517 7 2.99062 -2.14119 4.9164
57 4 5.78659 -7.93338 -3.23502
1499 6 3.35204 -7.00608 4.73303
1839 2 0.0250057 -5.27352 -2.46605
3366 3 0.498907 -3.89081 -8.1388
3332 4 2.11798 -1.92107 5.46691
2047 7 5.19462 -8.34885 -7.44844
2039 10 4.40393 -4.21291 -0.457001
1828 6 2.34982 -6.0754 -0.726486
3542 7 1.18228 -3.81345 -7.25539
1858 16 2.12218 -3.29065 -3.04717
1837 19 4.67618 -5.40842 0.0987728
2055 7 4.9588 -1.69434 -4.8336
1505 6 0.597832 -6.05809 2.3652
1506 6 1.83939 -5.90889 2.92817
1824 6 2.28803 -8.5134 0.443993
1840 6 0.986433 -5.3835 -3.63425
3667 21 7.81869 -3.96844 -4.43508
1822 6 3.45635 -7.70079 0.638105
799 13 1.71396 -2.00872 0.0333964
3539 7 -0.569238 -3.92023 -5.94061
1503 6 2.23959 -6.88806 3.92873
1830 6 1.24398 -6.89979 -1.00284
98 15 7.75377 -1.74434 4.10855
1497 6 4.56884 -6.32279 4.82395
269 7 7.63013 -4.09183 3.02839
1696 7 2.63567 -5.16896 2.60673
241 7 3.70598 -7.24864 -3.19523
1862 6 4.05698 -1.96688 -8.36539
1508 6 1.26293 -7.80714 4.18055
3519 7 0.439138 -2.05156 4.10477
3541 7 1.23397 -4.5005 -8.78367
239 7 7.52013 -7.81372 -5.9704
3669 22 7.47507 -4.09077 -3.33388
2056 7 4.28803 -2.43438 -3.57114
246 7 7.38459 -6.54082 -2.87575
1853 2 5.41018 -5.13599 -8.37157
1890 5 7.80983 -1.63355 -7.87725
2045 7 2.94082 -6.76518 -8.82604
1702 7 -0.866091 -5.1217 4.21092
1834 6 -0.904313 -8.74756 -1.32915
3363 6 -0.837027 -4.47978 -7.90188
242 7 3.63727 -8.91795 -5.23367
3543 7 0.432136 -2.92689 -8.71905
1496 6 5.19853 -7.84726 6.70515
3536 7 0.129914 -4.33411 18.5952
3335 4 0.0194336 -1.73685 6.22348
128 16 6.81591 -3.95527 6.87862
1713 7 0.42778 -8.70712 10.5405
1489 2 5.68553 -8.82719 10.1853
287 7 4.95302 -2.4451 10.0748
104 6 6.8956 -2.60029 7.28774
129 2 5.54913 -3.0689 9.4238
288 7 4.80935 -3.7129 8.97198
1693 7 6.40441 -6.35153 5.83311
1491 15 6.14737 -8.26836 7.59233
1534 6 1.20275 -7.26793 12.9152
3535 7 -0.351389 -4.672 16.2899
130 4 6.41106 -3.87089 10.2694
1531 2 0.00896549 -7.70755 10.7413
1715 7 1.42751 -5.64862 9.90328
1717 8 1.72275 -6.84233 15.6059
1530 15 -0.244109 -7.12262 9.45222
1498 6 5.43353 -6.72444 5.88977
2114 7 7.24105 -7.45943 18.6955
1541 6 3.87119 -5.1209 16.4767
1538 11 2.43969 -6.62295 15.0073
134 4 6.14286 -4.99571 10.9851
1963 2 4.70969 -8.46208 19.8376
1545 16 5.35907 -3.66125 17.5905
1547 16 0.693881 -8.42149 13.4696
3530 7 0.649427 -3.3081 13.283
1709 7 0.68499 -6.48006 6.92114
1685 7 4.8454 -8.33728 9.70009
1684 7 6.43162 -7.96854 10.2366
100 6 7.80018 -1.75149 6.44718
3526 7 -0.192519 -2.95379 9.66264
1490 14 5.27542 -8.28329 12.539
1500 6 3.99737 -8.59418 6.51304
2090 7 7.20992 -5.49009 17.078
3529 7 -0.677975 -2.08577 13.7172
1722 7 5.04658 -2.84675 12.2809
2126 7 4.32841 -7.69954 19.1572
1716 7 2.86949 -4.1486 11.2103
1720 9 4.78068 -3.74384 18.3254
1542 6 4.68092 -3.98124 16.4243
1723 7 4.515 -1.55302 13.2005
1719 7 5.54859 -2.32543 15.2687
1537 6 2.48991 -5.05602 11.76
1721 7 3.31442 -2.53837 12.2913
1525 3 -0.406842 -6.65032 6.82532
1536 6 1.54671 -5.80338 11.0057
1710 7 -0.333932 -6.77369 5.74564
133 4 7.20507 -5.3385 11.7632
3357 6 -0.815587 -4.72799 18.3112
3569 7 -0.594595 -7.99491 20.0398
3568 7 1.72334 -8.89996 19.0112
1955 2 6.78356 -7.84535 17.755
1546 3 4.25415 -2.55554 12.8943
1724 9 1.1215 -8.47513 14.3314
3531 7 0.222604 -1.97893 12.2163
1543 6 4.14776 -3.483 14.1728
1540 6 3.32853 -4.62579 14.1415
1535 6 2.6709 -5.31362 13.0975
1544 6 4.83421 -3.13852 15.3014
132 4 7.77394 -3.5605 10.4589
1718 7 3.75328 -5.75366 17.3386
3345 3 -0.220374 -2.69943 12.9206
2048 7 4.85629 -4.88917 20.174
292 7 7.0709 -6.11337 12.5399
105 6 6.2901 -2.1894 8.49517
293 7 5.161 -5.44641 10.9281
1532 6 0.968156 -6.90616 11.5713
2115 7 5.81735 -7.26388 17.7873
1533 6 2.08065 -6.48655 13.6616
1539 6 3.21156 -5.4508 15.3146
1520 6 -0.829579 -8.13349 8.74066
1917 6 7.68068 -7.44449 16.6271
1916 6 7.84599 -6.13779 16.4536
286 9 7.02092 -3.98758 5.92142
1521 6 -0.922136 -7.9426 7.3555
796 6 2.34168 1.05869 -6.72261
795 6 2.63806 0.894276 -5.38684
980 7 1.81328 0.615708 -4.65501
794 12 3.27773 1.53759 -7.53176
3222 7 2.48609 5.67974 -0.0487869
797 3 6.28099 1.70355 -5.34995
793 6 4.90589 1.4873 -5.76682
792 6 4.52937 1.8199 -7.11726
802 15 5.4662 2.30055 -8.00585
983 7 6.3161 2.35043 -4.46425
791 6 3.85649 1.13931 -4.93614
981 7 6.80338 0.719893 -5.15825
798 5 1.52235 -0.965678 0.618093
2522 7 -0.298711 3.61432 4.27404
2519 7 -0.0904368 3.66435 1.88777
982 7 6.90445 2.2167 -6.19972
985 7 4.00073 3.47069 -8.7176
783 4 2.47288 5.75568 -4.44922
801 15 1.16967 0.949096 -7.38659
772 6 0.284167 -0.129388 0.400692
782 15 2.71427 4.42861 -4.65318
974 7 2.33408 5.23119 -7.20237
3124 2 7.01708 4.96852 1.78245
3061 6 4.04406 3.5396 4.08791
775 6 0.0556705 2.68053 -1.90197
3274 7 6.11277 5.57459 1.9788
3025 16 6.03908 5.35548 -5.86276
790 2 4.16711 1.1026 -3.45153
979 7 5.22909 0.836211 -3.31714
3058 6 2.96634 5.12819 2.03241
778 6 -0.383699 3.75726 -2.74592
997 7 0.0283843 3.40613 -7.26846
984 9 3.33235 -0.758207 1.31195
789 2 3.8174 2.45988 -2.83732
3072 18 5.60783 2.1933 2.31241
977 7 4.39374 3.23507 -3.39048
3272 7 7.54159 1.29178 -2.02025
822 6 -0.436456 2.56312 -6.72421
3064 6 4.37779 2.63777 5.10076
3059 6 4.45534 3.38326 2.768
3062 6 2.72585 5.37719 3.37638
3271 7 6.2094 0.700686 -0.0208744
280 7 6.33487 6.09234 5.27871
976 7 4.09279 2.55864 -1.81266
3073 3 5.25675 1.46287 5.04623
3060 6 3.83418 4.13114 1.78167
2513 7 -0.388252 6.14069 -0.647051
978 7 3.51029 0.343945 -3.03124
3188 9 5.65995 5.60886 -5.02476
3229 7 4.92043 0.603384 4.43391
2518 7 -0.803035 4.3348 0.374639
967 7 0.160628 5.10138 -4.26239
820 6 0.045733 1.29672 -6.69871
3224 7 4.11896 3.93329 0.701493
771 6 -0.548747 1.81831 -0.96951
773 6 0.281325 0.936858 -0.433533
3121 6 6.55584 1.75705 -0.161233
3117 6 6.29537 2.70849 0.817048
3700 21 1.55784 1.71411 4.0269
777 6 0.560429 4.28456 -3.60956
776 20 2.10104 0.971004 -1.09752
3230 7 6.23484 1.68223 4.62435
1014 9 -0.652285 5.5176 -6.58836
779 6 1.88886 3.81388 -3.74193
781 6 2.3568 2.79954 -2.88548
780 6 1.33957 2.35628 -2.07506
3063 6 3.2934 4.66448 4.47067
3057 2 2.53915 6.12711 1.00815
3118 6 7.77733 4.22082 -0.316356
824 6 -0.69142 0.302803 -6.08386
3122 6 7.35937 2.03815 -1.24564
3022 6 7.08204 6.13567 -6.18683
3687 22 5.26377 -0.951903 1.12318
998 7 -0.436119 -0.73644 -6.05626
3119 6 6.94654 3.91668 0.763914
972 7 2.36983 5.96108 -2.33475
800 16 2.48658 -0.38444 1.50362
3275 7 7.3152 4.45089 2.68252
788 3 2.63907 6.24047 -6.99234
3225 7 2.0938 6.21355 3.52176
987 7 7.48081 3.02084 -9.06589
3067 6 3.42444 4.19071 6.81021
3234 7 2.61062 2.29307 9.02485
3078 6 3.41253 2.71681 9.59067
101 6 7.35872 0.00309972 8.11286
3523 7 3.32003 -0.656336 8.44055
3521 7 3.69154 0.302317 6.95582
1861 6 3.79495 -1.28603 19.9221
3515 7 -0.468333 1.27324 6.28186
3226 7 4.33729 2.33282 7.15637
1878 2 7.40171 -0.857047 12.4527
808 6 7.11128 3.53912 19.5931
3065 6 4.00336 3.00913 6.35071
3074 6 4.00948 3.96564 9.27879
3095 3 -0.591879 3.84647 9.92495
3085 6 -0.522334 2.42024 11.9756
273 7 6.11454 -0.56264 9.82162
1865 6 6.07794 -0.860776 19.9747
2058 9 2.53967 -0.927847 18.4834
1873 6 7.18851 1.02299 17.0668
2059 7 4.32633 1.32292 15.0529
3327 6 -0.844807 0.0461662 8.13652
3246 7 0.379261 3.38913 9.67969
986 7 4.37195 1.94409 19.8682
3091 6 -0.534023 0.918319 13.946
819 16 3.84225 4.2461 18.1748
3655 22 1.1234 1.52766 16.6523
810 11 5.64265 5.08008 15.9819
3068 6 3.58542 4.68554 8.14031
3245 7 -0.436693 4.97933 10.105
3080 6 5.17775 3.85348 11.3788
108 6 7.8803 1.28502 8.19261
3491 7 -0.375731 4.8267 14.1446
3238 7 2.96145 0.0098683 10.3536
3235 7 5.89466 4.26909 12.1261
3244 7 -0.536709 -0.289628 15.7142
1868 20 7.78733 -0.0888425 19.3606
3236 7 4.64532 2.28802 12.6393
3069 6 3.42759 6.09327 8.31913
3081 6 4.44264 2.73257 11.6919
3083 2 1.28134 1.04661 11.1487
1870 6 4.28651 0.482162 17.0543
2060 7 3.18744 0.114263 16.8515
1863 6 4.97739 -0.618031 19.3299
3239 7 0.768203 1.1875 10.181
1871 6 6.2958 1.33084 15.9568
1875 4 7.05888 1.1709 13.7664
3336 3 3.38281 -0.707663 7.37644
1869 6 4.89054 1.06834 15.9488
3243 7 0.505665 0.982796 14.0661
2063 7 6.64667 -1.25948 11.7378
3084 2 0.931914 2.27669 11.848
806 6 5.21572 4.1141 18.2285
3728 21 2.43316 3.93891 14.555
3654 21 0.556195 1.13266 17.5839
2541 9 -0.532768 5.7353 7.25149
3082 2 2.78483 0.859914 11.0897
119 6 7.21513 5.38943 7.05782
3077 6 4.80494 6.03729 10.293
111 6 7.86432 2.45673 9.04984
1879 4 6.74814 -0.167043 13.5941
3656 22 -0.0110495 0.73747 18.5153
103 6 6.54258 -0.881509 8.85785
805 6 6.01556 4.54719 17.2534
2064 7 6.05276 -0.581928 14.3346
3237 7 2.94177 0.447685 12.0603
996 9 3.73801 5.01512 17.6304
3242 7 1.32945 3.26145 11.4619
3241 7 1.39695 2.2559 12.8051
3079 6 3.55712 2.11446 10.8062
3075 6 4.79791 4.61356 10.2522
1874 15 6.72465 2.0066 14.812
989 8 4.72367 5.52533 15.8864
3240 7 0.794815 0.243733 11.7346
1867 6 5.19896 0.151729 18.1782
804 6 5.72021 3.48456 19.3923
279 7 7.1421 4.40905 6.72145
1872 6 6.47174 0.426155 18.0105
102 6 7.85144 -0.537201 7.01478
807 6 7.40821 4.61028 17.4613
3333 4 2.13852 -1.19834 6.6654
2388 16 -0.539414 5.60858 6.31537
3330 15 0.468249 -0.40797 8.28152
275 7 7.21963 2.37642 9.93754
811 6 6.85705 5.59782 15.484
3231 7 5.65681 1.10615 6.02717
3522 7 4.2043 -1.34025 7.05738
1866 16 2.535 -1.19812 19.3974
3331 4 0.837732 -1.03334 7.1143
3665 21 0.593132 4.65723 19.472
3066 6 3.11863 5.08646 5.78409
3723 21 2.03676 6.0375 12.0273
115 6 7.66226 5.75253 8.31875
813 6 7.09936 6.2476 14.3008
3525 7 -0.390701 -0.941471 10.5745
803 2 4.78891 2.81009 20.3689
784 4 2.2766 7.87341 -5.10303
969 7 2.2232 8.67633 -5.89068
2409 7 1.40654 12.8673 -6.87145
124 6 5.35257 10.6739 3.95478
1016 7 -0.459992 9.93683 -8.05197
123 6 6.22436 8.42593 4.36298
2214 2 2.42826 12.9449 -7.27767
2212 6 2.60984 11.6949 -8.18354
975 7 3.71186 6.39271 -7.25967
2217 2 4.43832 10.87 -6.72893
2413 7 5.41205 11.2661 -6.8043
2412 7 4.59827 9.83373 -6.36265
3010 15 7.4173 11.8591 -4.80524
858 4 -0.75673 9.63812 -6.02738
2211 6 3.98789 9.88552 -8.9898
2408 7 0.542079 13.2259 -8.84914
2411 7 4.4592 13.4561 -6.57186
3018 17 7.59894 9.61856 -6.21343
2213 6 3.66415 10.8431 -8.05732
2216 6 3.75977 11.678 -5.76931
2219 15 5.1269 9.17034 -8.77902
3049 1 5.86687 9.61567 -1.50889
2215 1 3.52108 13.0562 -6.10685
3183 7 7.14764 12.265 -6.84227
787 4 2.26098 6.52258 -3.29073
3021 6 6.85442 7.58229 -6.15443
3005 6 6.90967 12.6288 -3.75588
2935 6 0.793745 12.9314 3.81766
2218 14 3.43959 11.2042 -4.58652
3139 7 2.32706 12.1457 0.536033
3186 7 5.92633 7.96974 -5.72458
3211 7 7.23475 9.9273 -3.15063
3138 7 1.93525 10.7013 2.57726
856 16 -0.604985 6.41265 -6.63928
3227 7 2.40777 7.19201 5.3523
3137 7 0.262931 10.5622 2.21119
785 4 2.43615 6.54984 -5.56119
3208 7 3.94935 10.5032 -2.14244
2943 1 1.56899 11.3426 0.499942
2937 6 1.2494 11.916 4.7516
2944 6 0.423743 11.9631 -0.288954
285 9 6.82631 8.60492 2.06621
2491 7 2.33437 13.2772 -4.39136
1018 7 0.535831 10.6716 -3.2548
973 7 2.02034 6.91684 -7.56724
2940 6 0.74721 12.5884 2.4696
786 2 2.24731 7.98084 -3.58609
2945 2 0.0651842 13.3177 0.162671
970 7 1.34061 8.53074 -3.16994
971 7 3.11101 8.56359 -3.10318
859 2 -0.291711 10.8679 -3.96533
282 7 5.19584 11.5552 3.21022
3054 2 5.73832 8.12857 -1.86605
2946 14 -0.571844 11.1699 -0.882205
3206 7 5.45432 11.5594 0.399651
281 7 6.96775 7.72485 4.08454
3009 6 5.81535 12.5289 -1.60167
3216 7 6.6807 7.56467 -2.00982
127 16 6.2995 9.4196 2.19349
2490 7 4.04773 13.6452 -4.11374
1019 7 0.823356 11.05 -5.95596
3055 2 2.11239 10.1434 -0.255558
3050 2 6.2891 10.3427 -2.84606
3215 7 4.90187 6.52947 -0.628529
3051 1 3.62161 9.6731 -0.104613
3214 7 5.67492 7.73368 0.290725
3209 7 6.67331 9.65021 -0.71581
3047 2 4.98966 11.6641 -0.615763
122 6 5.94026 9.44526 3.49098
2942 2 1.16516 11.1965 1.94052
3048 1 4.56528 10.3135 -1.19458
3213 7 2.90659 7.81282 -0.987068
3217 7 4.96531 7.89446 -2.62382
3219 7 1.50939 9.34058 -0.0556495
3221 7 2.72425 8.1328 1.76902
3220 7 4.26598 7.21683 1.63792
3136 7 1.46033 10.8693 4.44289
3052 1 3.65598 8.14743 -0.229376
1015 7 0.361715 8.63907 -7.35452
860 4 0.0427039 10.6598 -5.40967
3053 2 5.04228 7.57014 -0.57454
3210 7 5.53959 10.0755 -3.58509
1017 7 -0.587944 11.8751 -3.76375
3007 6 6.37924 11.9183 -2.67816
3207 7 4.06608 12.2654 -0.485811
3218 7 1.93505 10.3932 -1.36022
3056 2 3.33243 7.43752 1.11307
3212 7 3.95073 9.95129 0.890041
2327 2 3.21585 13.7637 -4.79507
857 2 -0.60036 9.07962 -7.4061
126 6 5.13624 10.8153 5.30432
2492 7 0.884403 13.7891 -3.34101
3223 7 1.47359 6.25118 1.23791
2941 6 0.281787 13.5251 1.58499
2410 7 2.5112 13.806 -7.93608
3011 2 7.91567 12.3854 -6.04124
284 7 4.63876 11.6795 5.72818
3228 7 2.60869 7.86139 7.49902
2936 6 1.43457 12.2794 6.02999
3076 6 4.16632 6.71182 9.33953
118 6 6.46917 7.63342 6.70841
116 6 6.97146 7.94874 8.0099
3684 22 7.27034 8.77803 16.752
2202 16 3.33403 13.601 13.0793
121 6 6.01324 8.6169 5.78361
125 6 5.35109 9.82414 6.19845
283 7 5.15896 9.98669 7.26818
278 7 7.95563 7.18033 9.79999
2228 6 6.83895 10.6072 19.5034
2201 19 3.0291 11.6337 14.9558
3071 6 2.77515 6.81803 7.35551
3233 7 5.49349 6.50964 11.0809
3232 7 4.18544 7.8294 9.333
2930 16 7.71497 11.4154 10.3879
687 7 6.41905 13.0026 13.9288
3135 7 1.88377 11.5649 6.82008
2256 16 5.08948 12.0331 18.7282
2226 6 7.16707 8.2137 19.954
2254 5 6.12618 11.891 19.5507
3127 7 5.14751 8.71323 13.098
2192 6 0.441963 11.5416 15.488
2205 6 1.86329 10.2263 19.4809
2918 6 4.02701 10.0548 11.9764
990 7 6.31779 6.32353 13.4601
2917 6 5.27588 9.52529 12.3635
2923 6 1.51151 12.9241 8.98927
2922 6 2.74588 12.406 9.42603
2418 7 2.84906 7.47026 19.1469
3142 8 -0.932006 10.725 12.0321
3490 7 -0.84822 6.37641 12.3529
2932 6 1.08715 13.5447 6.52255
2926 6 0.41551 11.6689 10.7301
3724 21 0.990585 7.52906 15.4039
2925 6 1.60453 10.994 10.9854
2186 6 1.12809 13.3982 14.0184
2223 3 3.35589 8.33353 18.6193
2417 9 -0.34712 8.41775 18.0009
2191 6 1.42317 12.1451 14.7512
120 6 6.68376 6.3319 6.26798
2403 10 2.83312 10.622 15.8592
532 6 7.49694 13.2231 13.9555
3683 22 5.76239 9.40128 15.1027
2921 6 2.80325 11.4018 10.3733
2915 6 6.5017 10.9549 10.8274
2924 6 0.394181 12.6641 9.74375
2420 7 2.81467 8.52785 17.6857
2222 16 0.531196 8.54675 18.3473
2204 6 -0.299982 10.7709 18.4055
2949 16 0.49146 9.40751 12.5552
2206 6 0.660919 9.84367 18.7843
2440 9 5.12889 11.4014 18.0503
2914 6 5.27023 11.487 10.4063
3130 7 2.92582 8.79274 13.3138
3144 9 0.755082 9.38512 13.4374
2928 6 2.81205 9.59087 12.5532
2209 6 0.67558 12.3464 19.9237
3070 6 2.82761 6.46584 6.07315
2400 7 0.781818 10.6609 16.0448
2929 19 6.50328 13.4674 8.98069
2948 11 -0.861595 11.495 11.333
277 7 6.83938 8.93551 8.4636
2927 6 1.5986 9.89708 11.9457
2916 6 4.0667 10.9288 10.8662
2208 6 -0.251934 12.013 18.9679
2210 6 3.01365 9.49201 19.5667
3682 21 6.51643 9.08968 15.9274
2919 6 5.1273 12.6162 9.57827
2920 6 3.91925 13.0921 9.08509
2419 7 4.38455 8.13194 18.4536
2913 6 6.4859 9.96685 11.8157
2188 6 -0.242048 13.822 14.0306
3129 7 -0.54753 13.0592 9.40842
2404 9 3.3477 12.656 13.007
2224 6 6.35883 9.34791 20.0267
3126 7 7.43093 9.49869 12.0146
2207 6 1.75176 11.4588 20.1934
117 6 7.52478 6.9985 8.8061
2194 6 -0.83695 12.135 15.6368
2421 7 6.71925 7.23101 20.3018
2255 13 6.42755 12.6499 20.3716
2892 7 13.1044 -19.8897 4.61028
355 7 12.3084 -21.7121 -6.52561
202 2 12.1736 -20.7732 -5.99162
670 7 15.3741 -19.9817 -9.00722
398 14 15.2107 -22.4376 -8.47096
354 7 12.6261 -19.9615 -6.62718
201 2 10.6989 -20.457 -5.75342
353 7 10.1682 -20.312 -6.68013
182 6 15.2248 -23.7588 0.728517
2294 6 11.1111 -17.3052 -1.33669
3162 7 8.43109 -17.6778 1.06191
2986 15 8.81453 -22.6841 1.44149
352 7 10.7273 -19.4581 -5.30469
1381 7 14.3121 -17.784 -6.45703
356 9 8.67907 -20.786 -3.29157
2900 7 12.4019 -19.1229 1.93835
351 7 9.83864 -22.4195 -5.18698
200 1 10.0327 -21.4589 -4.71786
332 7 16.4594 -22.0036 0.910804
2981 3 8.81225 -20.0303 2.24635
345 7 14.8839 -20.2367 -5.2473
2103 7 13.3759 -16.6196 5.1311
3166 7 9.07468 -20.951 2.89225
1384 7 14.8935 -17.8067 -3.78355
2747 2 12.4367 -22.0477 3.02318
341 7 16.0857 -21.9357 -1.16104
2899 7 13.5495 -21.8341 1.12923
2743 1 13.6441 -21.9486 3.90993
346 7 14.7922 -21.9843 -5.03775
2904 9 11.9789 -21.7413 0.0269792
592 7 16.7949 -23.8929 -6.93036
2901 7 13.61 -19.501 0.829008
1944 6 10.5704 -16.9784 3.35782
396 6 16.4766 -22.1712 -8.13421
2749 2 13.1816 -19.8247 1.78903
2293 6 10.5297 -17.7301 -2.66503
2903 7 15.1182 -20.3251 2.30625
1453 7 15.1476 -18.3738 -1.12614
2751 16 11.5493 -21.4065 0.818941
2893 7 15.3529 -19.2616 5.38649
659 7 16.6133 -19.2355 -7.10933
2745 2 15.0678 -20.3746 5.13127
2748 1 12.6763 -21.2822 1.64528
2902 7 14.8369 -18.7996 2.99413
2891 7 14.4584 -22.2848 3.22345
2283 2 8.43841 -17.3719 -6.90604
1945 6 12.3541 -16.9083 4.9551
2898 7 12.086 -23.1361 2.81089
198 2 14.8206 -20.8103 -3.23187
194 6 13.0781 -22.451 -2.66619
660 7 16.1398 -17.3817 -8.53218
2297 16 11.3225 -18.2605 -0.353584
347 7 14.4176 -19.8235 -2.88984
343 7 12.1201 -22.9898 -4.49262
196 1 12.8538 -20.9182 -4.66933
197 2 14.432 -21.0052 -4.64841
180 6 16.2168 -22.9885 1.36148
203 16 8.7143 -20.9865 -4.25258
1942 6 9.69204 -17.2015 4.46134
2744 1 13.9329 -20.4635 4.07615
1303 4 15.8939 -17.9473 -0.354491
192 6 14.2894 -21.8731 -2.36424
193 6 12.6181 -23.5236 -1.95153
188 6 14.6212 -23.3887 -0.493516
344 7 12.6159 -20.0115 -3.96932
195 1 12.2684 -22.0979 -3.88638
350 7 10.3441 -22.4577 -2.82989
199 2 10.8561 -21.7076 -3.46362
349 7 10.8069 -20.8655 -2.76802
2460 9 11.0574 -19.0818 -0.709272
2458 7 10.1776 -18.7135 -2.98804
2750 2 14.3132 -19.7305 2.79784
191 6 15.1343 -22.4118 -1.3471
2456 7 7.97071 -17.1437 -7.92791
2987 2 8.15717 -23.8619 1.00383
2894 7 15.9834 -20.8898 4.7474
1223 2 13.6623 -17.3233 -5.70824
1780 7 8.4459 -21.1058 5.13534
2897 7 11.6121 -21.5205 3.4688
1947 16 8.37049 -17.4073 4.21677
3167 7 9.80367 -19.6078 2.16542
1382 7 12.7561 -17.9419 -5.61903
2455 7 9.42717 -17.8593 -6.94945
2290 17 9.71478 -17.0361 -4.65624
2742 6 13.7 -22.7788 5.13366
348 7 15.9046 -20.6859 -3.14963
1305 4 15.9073 -16.5864 -0.146699
3169 7 8.3515 -24.1154 0.0129548
2291 6 10.3455 -16.6259 -3.33618
1946 6 11.9261 -16.9138 3.6447
2976 6 8.21855 -21.755 0.636001
1225 4 14.2597 -17.1052 -4.29961
2453 7 8.49041 -19.2742 -8.31892
2977 6 8.16649 -20.4129 0.963533
2102 7 10.0293 -17.0365 2.42447
3165 7 8.09846 -19.4226 2.8695
2105 9 8.00308 -17.8378 5.0022
3205 7 13.4057 -23.8855 -6.51333
2104 7 12.6595 -16.7729 2.86836
3204 7 15.1776 -24.0305 -4.60489
1455 7 16.7918 -19.6443 0.663944
189 6 13.4269 -24.0253 -0.888059
2895 7 13.8474 -20.185 6.92108
2437 7 13.4333 -21.6463 19.0374
1618 6 8.64148 -19.8954 8.98047
2880 7 15.5195 -23.722 9.49435
2442 7 9.81617 -17.6617 18.2806
676 7 16.5771 -18.666 13.6792
1779 7 10.6692 -20.7239 6.33746
1619 6 9.80543 -20.1749 8.20869
1417 7 16.6732 -17.8853 11.112
2438 7 13.1286 -21.6194 17.214
2740 6 14.0619 -22.2479 6.35292
1777 7 12.0122 -20.3324 8.2831
1621 6 11.0968 -20.0807 8.8345
2431 7 14.6395 -22.9355 14.9712
2889 7 14.3703 -22.5304 8.44277
2249 6 11.4539 -21.1965 18.5344
507 2 16.2977 -20.118 19.9817
2443 7 13.3811 -17.4758 18.5839
671 7 16.0312 -20.5539 18.9306
521 6 9.04745 -20.9442 15.22
675 7 15.0439 -17.1254 16.5853
2896 7 15.4628 -20.8785 7.24574
1614 6 9.00026 -17.7214 12.4245
1771 7 8.99288 -17.017 13.2259
674 7 16.4908 -17.1286 15.5353
2259 2 10.6421 -17.6536 18.9015
2746 2 14.602 -20.8594 6.49944
1624 6 9.72005 -20.4369 6.82755
2247 6 10.71 -22.3357 18.766
683 7 12.7297 -22.7924 10.7791
1943 6 10.1631 -17.2772 5.81818
1938 6 11.9595 -16.874 7.413
523 6 9.53109 -19.7169 15.5645
2244 3 14.8711 -24.0207 14.9216
682 7 14.2452 -22.9383 11.6705
2246 2 11.2149 -23.7183 18.4703
1612 6 8.77897 -19.5336 10.3308
510 6 14.9817 -18.6152 14.9834
515 6 12.9955 -19.803 14.2829
1772 7 11.0759 -17.5956 12.0933
2434 7 12.2892 -23.8846 18.3287
511 6 14.9745 -19.9797 12.9836
681 7 14.0014 -21.5831 10.602
680 7 8.89687 -18.9871 16.0415
1620 6 11.2167 -19.3403 9.97567
513 6 13.6585 -20.3907 13.1872
517 6 11.8455 -21.9398 13.0006
1941 6 11.5341 -17.1041 6.06628
677 7 13.0855 -18.4411 15.987
516 6 13.0493 -21.4947 12.5491
514 6 13.6552 -18.9528 15.1848
522 6 10.7554 -19.2748 15.1057
673 7 15.8816 -19.6122 17.0122
527 6 7.93782 -23.3695 14.2476
2251 6 9.37069 -22.2956 19.0776
520 6 9.93608 -21.8612 14.5462
679 7 11.1133 -18.2539 15.3413
509 2 15.7831 -17.8139 16.0302
2258 15 11.4375 -18.7974 18.6688
1776 7 12.1707 -19.008 10.4057
1613 6 10.0888 -19.0866 10.7557
508 2 16.4716 -18.7119 17.0837
2248 6 10.7743 -20.0071 18.8768
678 7 11.4252 -22.8229 12.5063
518 6 11.616 -20.1243 14.4462
526 6 9.38201 -23.1106 14.2278
524 18 15.7794 -20.5269 11.5722
2439 7 13.3937 -20.1035 18.2087
519 6 11.1592 -21.3367 14.0525
512 6 15.5503 -19.0375 13.8521
525 3 13.5268 -22.2186 11.3421
1615 6 10.1341 -18.1102 11.7859
2097 7 14.1459 -16.9685 6.9391
2436 7 8.79948 -23.2204 19.1235
1625 6 8.50306 -20.6935 6.18412
2253 3 12.9416 -21.1351 18.23
1936 6 13.362 -16.7535 7.68078
665 7 15.5688 -17.5568 18.737
2250 12 9.44585 -19.9507 19.1144
2252 6 8.74744 -21.0785 19.2151
2739 6 14.0464 -23.0125 7.5048
2432 7 9.66908 -23.9992 16.9055
2101 7 9.49897 -17.5403 6.62309
2433 7 11.2821 -23.9116 16.4099
2441 7 10.2346 -17.651 20.0514
723 7 16.49 -21.5223 14.1324
504 1 16.5762 -18.0056 18.5366
2430 7 15.8248 -24.0295 14.3324
686 7 11.3246 -24.0023 14.1111
1193 6 16.4148 -11.6769 -5.50389
1195 6 15.1843 -12.3462 -5.68397
1365 7 14.9378 -12.8532 -6.65873
1184 6 16.4089 -10.8058 2.57818
2317 4 11.6285 -10.4243 -7.90663
61 2 10.4542 -9.34792 -2.54583
2316 4 10.1507 -11.9339 -8.64067
2310 6 11.5604 -8.97022 3.98469
1190 15 16.3456 -12.123 -0.875053
2313 2 8.65049 -12.0875 -6.57839
2457 7 9.91047 -12.578 -4.21579
249 7 10.1293 -10.3929 -2.87417
1222 4 13.4448 -15.0156 -4.85291
1221 2 13.098 -13.5385 -4.89353
1380 7 12.7723 -13.1106 -5.93151
1383 7 13.3075 -15.3428 -7.02438
250 7 10.1961 -10.1908 -0.566068
1197 6 14.3614 -12.6903 -4.59365
1379 7 12.2082 -13.3384 -4.28384
2477 7 10.7259 -10.2748 -5.86108
2459 7 11.254 -13.821 -1.90096
2292 6 10.5299 -15.341 -3.20084
1149 4 12.9583 -13.2358 5.03761
2465 7 8.56742 -10.08 1.71786
1337 7 14.0726 -12.8781 3.2849
1194 6 16.5538 -11.214 -4.26177
2286 6 9.50089 -15.7086 -5.1081
2318 4 10.7529 -10.6784 -6.85203
251 7 8.75901 -9.4467 -1.15165
2467 7 12.7892 -10.324 2.83541
2295 6 11.1488 -14.9459 -2.01718
2303 6 10.0729 -13.871 0.829788
2302 6 10.8643 -11.6697 1.44434
248 7 11.5742 -9.3716 -2.50994
2085 7 14.0645 -8.9698 -6.13206
1378 9 14.043 -11.7206 -1.56478
255 7 12.6924 -9.39613 -0.584411
1160 6 15.8915 -9.68189 4.73591
2298 15 11.7039 -15.5878 0.235881
1333 7 11.6733 -13.5004 3.34921
1165 15 15.5375 -10.2273 3.48711
662 7 16.6282 -15.2118 -8.01511
1361 7 14.9744 -10.8031 0.927166
1192 6 15.8381 -11.403 -3.10999
2288 6 8.49406 -14.6413 -6.77681
1363 7 15.3407 -10.3498 -1.2656
2296 6 11.3446 -15.9386 -1.04466
2463 7 9.21221 -14.5651 0.932917
1150 2 10.5377 -13.3749 5.29126
1196 6 14.6292 -12.0836 -3.36941
2289 6 8.95362 -13.4764 -6.07521
2472 7 8.40366 -11.3633 -5.78778
2285 6 9.98567 -14.7554 -4.34348
2304 6 9.80384 -12.5805 1.22873
2300 6 12.1324 -12.0464 1.00681
1191 2 16.164 -10.9668 -1.69998
2305 6 10.7125 -10.411 2.13879
2461 7 12.9053 -11.3091 1.10724
1186 6 16.0012 -11.1088 1.22063
2299 6 11.4332 -14.3125 0.537332
1220 16 13.8279 -12.3389 -2.23565
1339 7 14.9855 -12.7374 4.66714
2462 7 13.4266 -13.6193 0.441336
2301 6 12.4249 -13.3586 0.629722
2284 6 8.81941 -15.9867 -6.24469
2476 7 12.4839 -9.70761 -7.70891
1335 7 9.99583 -12.3682 5.06764
1224 4 13.2901 -15.8528 -6.01736
2287 6 9.63422 -13.45 -4.86252
1450 7 16.5448 -14.3007 1.30419
2307 6 9.49166 -9.78165 2.23812
2314 4 9.75505 -11.4941 -7.29411
1152 3 14.2555 -13.3999 4.2503
1385 7 14.3634 -15.4189 -2.87423
1148 4 11.7044 -13.4579 4.4093
1226 4 13.9838 -15.8411 -3.83208
1338 7 14.5921 -14.3468 4.02987
2309 6 11.7756 -9.87964 2.94377
62 2 9.89422 -9.28762 -1.13333
2464 7 8.81243 -12.3092 1.75698
1456 7 15.0668 -15.9446 -0.52147
1334 7 9.802 -14.1718 5.24207
3726 22 8.34733 -13.4145 15.2233
2264 6 12.9045 -16.4828 18.4117
1331 7 14.7211 -14.8196 6.24077
1937 6 13.8259 -16.3845 8.86723
1141 6 15.4082 -14.1123 6.72987
1151 4 11.3317 -13.1674 6.53535
1336 7 10.761 -13.0854 7.45449
2095 7 12.7131 -13.5253 9.49202
1420 7 16.5755 -15.376 10.5337
2117 7 8.36496 -10.2355 18.1689
1923 6 10.9419 -10.4628 9.21011
1143 6 14.9085 -13.0327 7.49656
2093 7 11.4346 -10.7859 8.26009
1146 15 13.5174 -12.8551 7.56373
1153 2 15.2117 -11.0091 9.14126
1145 6 15.7883 -12.1537 8.23675
1341 7 14.3615 -11.386 9.68413
1159 6 15.1224 -9.90359 5.84404
1340 7 15.9616 -10.5407 9.87171
1920 6 9.55494 -9.63054 11.584
1147 4 12.7346 -13.1051 6.43933
2475 7 9.44926 -12.5875 20.2637
2445 8 10.2428 -12.5612 17.5339
1155 6 15.5637 -9.51047 7.07382
2449 7 15.8964 -13.9091 17.555
2448 9 14.468 -9.40921 14.4136
2267 6 12.2291 -12.3479 16.6458
2447 7 15.6176 -10.9541 15.4441
2263 6 13.0309 -14.226 17.64
1934 15 13.5543 -15.4184 11.1106
1344 7 14.1346 -10.3507 5.75227
1280 6 16.3956 -9.05878 12.3564
1958 2 8.06989 -9.89238 16.0404
1921 6 11.1441 -11.1635 10.4311
2262 6 10.8803 -15.261 18.1542
1927 6 11.3657 -12.3237 12.2185
2315 2 11.3318 -11.196 20.3783
2094 7 11.0921 -12.8233 14.2612
2265 6 13.683 -15.3824 18.123
1940 6 11.0669 -16.3736 8.46098
2275 16 9.49283 -15.1116 18.2157
1932 6 12.8185 -14.3302 11.5629
1933 16 12.8358 -15.1562 13.8297
2266 11 11.0592 -13.0027 17.1069
1271 6 16.2617 -12.759 12.5853
2119 7 8.88142 -10.5854 15.7598
1343 7 13.6301 -9.99875 7.81745
1929 6 11.5642 -13.0923 13.2921
2261 6 11.6191 -14.2325 17.6396
2091 7 8.27853 -10.0591 13.2702
1931 6 12.464 -13.4139 10.5839
2272 6 14.6637 -11.3707 15.7742
1939 6 11.5908 -15.9797 9.65499
2444 7 14.8126 -15.4733 18.0866
1424 7 14.7653 -11.47 12.1146
1928 6 11.7965 -12.229 10.9846
2269 6 12.211 -11.2626 15.8303
2271 6 14.6554 -12.5644 16.4598
2270 6 13.455 -10.7449 15.4353
2268 6 13.4218 -13.026 16.9687
1925 6 10.4122 -9.21601 9.23405
1421 7 16.1168 -15.5047 13.0334
1272 6 15.7987 -11.4859 12.4718
1930 6 12.4157 -14.1861 12.9167
1919 2 8.86823 -9.19047 12.8312
2274 3 15.9897 -13.2958 16.6635
1154 2 14.6451 -9.7756 8.23222
1926 17 10.4601 -11.3013 12.6574
2096 9 12.2219 -15.1421 14.6183
1423 7 15.5517 -13.5719 12.374
2446 7 11.2779 -10.7139 15.5296
1922 6 10.4381 -10.624 11.3876
2273 16 13.5686 -9.65196 14.5533
2451 7 16.2734 -14.0326 15.8486
2452 9 9.28205 -14.2888 17.7561
2107 7 10.4847 -9.15101 7.12162
1274 6 16.6913 -10.4218 12.5406
2473 7 11.0732 -10.59 19.5629
1433 7 14.4021 -9.5358 11.6623
2474 7 12.2012 -11.8678 20.1571
2098 7 14.8489 -16.0655 8.97227
2099 7 10.8579 -15.6946 10.467
1935 6 12.9949 -15.9624 9.94314
2260 6 11.5261 -16.4091 18.5724
2100 7 9.98188 -16.3036 8.35792
69 3 12.7583 -8.42391 -0.00692911
1902 11 15.7621 -5.39965 -8.87929
3039 16 14.0344 -2.08248 -8.94711
1899 6 13.9498 -6.53104 -7.99128
1904 6 15.1233 -6.70211 -7.13817
1901 6 12.6062 -6.85198 -7.91365
236 7 15.734 -2.6371 -7.29168
268 9 12.6771 -6.16194 4.0057
3197 9 13.379 -2.33876 -8.29514
51 6 8.67791 -8.48364 -4.25306
3720 22 8.11787 -1.88786 -2.16914
1907 6 15.3372 -7.30044 -5.91548
46 16 11.0616 -3.92928 -7.16486
2080 7 12.2608 -7.62593 -7.18788
73 15 8.32013 -4.98297 0.725133
41 6 11.6621 -4.20666 -5.97955
42 6 12.8204 -3.48347 -5.65773
27 6 14.8945 -1.82706 -4.67278
240 7 8.7956 -6.01058 -6.67207
47 6 10.3215 -6.30441 -5.01831
43 6 11.3409 -5.3239 -5.0791
97 6 9.71354 -1.62024 1.00982
79 6 16.3707 -3.93222 3.80713
99 2 8.54436 -2.13101 5.21591
67 6 9.16053 -7.09362 -0.183997
2306 6 9.2869 -8.76843 3.23456
1892 16 8.38801 -2.86987 -8.22748
252 7 8.17511 -7.4328 -0.618929
272 7 9.46171 -1.51452 5.12235
92 6 8.72096 -3.80047 1.20785
257 7 11.7166 -4.6422 2.46171
2466 7 10.171 -7.57255 4.80891
256 9 15.8023 -5.40909 -3.43794
40 6 13.6273 -3.75433 -4.61491
68 6 9.34129 -5.87406 0.478077
35 15 14.8122 -3.15095 -4.37034
49 6 8.36736 -7.6215 -5.31354
52 6 10.5369 -7.15575 -4.04515
1910 3 14.2804 -8.20203 -5.36096
2311 16 8.01742 -8.15878 3.39876
237 7 13.1654 -2.71516 -6.41043
3689 21 11.9871 -2.44483 4.10597
2468 7 12.3848 -8.67642 4.66583
91 16 13.3638 -5.90696 4.64752
229 7 13.4926 -2.45052 -2.46528
48 20 12.035 -6.90594 -2.88838
45 6 12.2302 -5.49482 -4.10044
44 6 13.346 -4.87044 -3.72932
71 13 13.6707 -4.89594 -1.4108
253 7 13.431 -7.76887 -0.577062
50 6 9.17902 -6.63714 -5.81137
2076 9 9.08447 -2.92508 -7.54571
65 6 11.4023 -7.65087 0.148146
66 12 10.4996 -5.61694 1.01958
2308 6 10.2854 -8.43896 4.12853
64 6 11.5109 -6.44855 0.826887
238 9 10.2524 -4.38682 -7.11445
2079 7 10.7292 -6.77823 -8.77621
78 6 14.3262 -5.18468 3.9139
96 6 9.53283 -2.93617 0.587715
80 6 14.7649 -3.62384 1.99098
259 7 14.4117 -3.16061 1.05961
75 2 12.6838 -4.86862 1.98534
70 5 14.1111 -5.14445 -2.45785
72 16 15.4618 -5.39041 -2.55085
1903 6 16.1796 -5.93188 -7.66061
258 7 12.6461 -4.23765 1.10684
2469 9 8.02735 -7.97731 4.33117
53 6 9.91284 -8.24593 -3.48632
81 6 15.9964 -3.41163 2.54463
77 6 15.4832 -4.75568 4.50159
63 6 10.1691 -7.994 -0.376825
74 15 12.7224 -6.20103 1.44747
270 7 10.0268 -3.25417 -0.314707
3668 22 8.16218 -3.84606 -5.53623
76 6 13.953 -4.54389 2.67599
2791 7 15.9234 -6.25545 0.32766
2086 7 13.2774 -7.65012 -5.14133
1908 6 16.4463 -7.02907 -5.17957
94 6 8.24258 -3.42574 2.42514
271 7 8.74017 -3.21754 5.14
39 3 16.4073 -2.42128 -6.46842
93 6 8.42666 -2.14632 2.96853
1900 6 11.7458 -6.4486 -8.84517
2083 7 16.5492 -7.56263 -4.22419
1897 6 14.3325 -5.5853 -8.98597
254 7 13.1434 -8.65042 0.991749
33 2 13.2508 -1.55038 -2.92217
234 7 16.6434 -3.36444 -5.95317
260 7 16.8041 -2.83582 1.99772
228 7 12.245 -1.77564 -3.20643
26 6 15.7835 -1.37016 -5.61858
2087 7 14.5823 -8.58528 -4.35791
1950 4 10.9327 -7.11814 7.84709
1953 4 12.3471 -5.35636 7.49351
2062 7 8.24012 -1.60627 12.6872
1954 4 12.2356 -6.77468 7.56815
2081 8 15.9938 -4.53149 20.3147
2112 7 13.3693 -4.86281 7.32837
1951 2 11.0482 -4.70897 7.65659
82 11 15.9502 -5.1859 5.8033
2113 7 13.1388 -7.37831 7.4027
1444 7 14.9617 -2.70453 8.61531
2110 7 10.8633 -4.00019 6.78837
1369 7 15.7216 -8.21435 19.5096
1443 7 16.3747 -2.10849 11.1093
2674 6 16.301 -2.1663 16.4341
1952 4 10.1928 -5.90397 7.85004
291 7 8.23849 -2.77993 9.85904
1436 7 14.4283 -5.16638 9.64663
1208 6 16.5499 -8.68129 19.1017
2109 7 11.0407 -4.20105 8.62163
2111 7 9.12612 -5.95743 8.16814
261 8 15.9906 -6.20247 5.89958
1894 15 10.6908 -3.6212 19.0172
1439 7 12.9959 -7.45754 10.1598
289 7 8.75025 -3.93072 12.399
2092 7 8.04108 -8.46449 12.7062
2089 7 9.70972 -5.97485 13.7125
1440 7 12.6304 -7.59142 11.9916
1913 6 9.06193 -7.84961 14.753
1373 7 14.2477 -8.4623 17.886
1885 6 9.97611 -1.69469 17.7508
1914 6 9.0863 -6.48408 14.4336
1293 2 14.9478 -2.48369 9.69976
1896 6 12.0793 -5.54872 19.6454
1446 7 13.0826 -3.23525 9.54564
1294 2 13.8156 -3.2757 10.3176
1924 6 9.66674 -8.81677 10.396
1288 1 14.192 -4.75414 10.6227
1912 6 8.4057 -5.60229 15.3298
3708 21 11.5563 -2.3266 14.5944
1915 6 8.29194 -8.38083 15.7771
131 2 8.42242 -4.45826 11.4606
1895 2 10.8858 -4.99849 18.868
1214 6 13.873 -6.96167 16.4013
1886 12 9.39119 -3.94418 17.0232
3709 22 10.9052 -2.10484 13.6604
1213 6 15.9999 -8.00936 16.7981
1888 6 8.76189 -3.44201 16.0117
1438 7 13.1229 -5.32681 12.4032
1884 6 10.0279 -3.12293 17.9161
1948 16 8.99204 -7.64446 10.3497
290 7 9.20248 -5.14254 11.1132
1216 6 14.4244 -6.20187 15.371
1887 6 8.67493 -2.05052 15.8975
1898 6 13.444 -5.1499 19.5745
1286 6 15.7009 -6.41422 11.7222
2832 7 15.9858 -3.04621 16.9951
1435 7 15.3548 -4.32605 12.2731
1374 7 13.8689 -5.31174 14.9533
1445 7 14.656 -1.39893 9.90089
1287 1 15.4647 -4.86771 11.4091
3710 22 12.2074 -2.54824 15.5286
2078 7 10.0291 -5.54473 19.3311
1437 7 12.1005 -5.20599 10.9322
2106 9 8.4251 -7.57633 9.58922
2072 7 8.26345 -1.71137 14.9319
1284 6 14.7448 -7.40625 11.6288
1290 2 13.317 -7.07895 11.2325
1218 6 15.8043 -6.15226 15.2002
1911 16 13.809 -4.24555 18.556
1219 16 12.553 -6.81573 16.7983
1447 7 13.344 -2.74498 11.143
1217 6 16.6163 -7.11046 15.8352
1215 6 14.6702 -7.87209 17.0877
1292 1 16.275 -2.80321 10.2572
1893 15 8.38861 -4.29605 14.9942
2108 7 9.17032 -8.38203 7.72862
1289 2 13.0792 -5.52798 11.3079
2077 7 10.832 -5.36396 17.815
1377 9 12.1882 -5.96759 16.5842
1376 7 16.1549 -5.41216 14.4532
1949 2 10.2129 -8.44854 7.88643
1441 7 16.5816 -4.76463 9.60258
2088 9 12.9794 -3.89367 18.1409
1291 2 16.5788 -4.27193 10.53
1283 6 15.1024 -8.74274 11.9463
2831 7 14.2091 -1.47007 16.1245
1918 15 9.73222 -8.67024 13.8536
1345 7 16.2173 -7.55782 8.88671
2824 9 11.2882 -1.99419 9.82761
1157 6 16.6947 -8.70496 7.2178
2075 7 11.7851 -1.3968 18.8689
1342 7 14.6163 -8.83513 8.76776
2653 6 14.6952 4.11693 5.5163
3029 6 9.79307 2.33949 -6.53513
3030 6 11.4914 2.03122 -8.25833
21 6 15.8837 0.0401953 -5.79886
3035 6 12.9099 -0.0296652 -8.51543
3193 7 12.2604 -0.598954 -7.86298
3033 6 12.6149 1.33568 -8.82682
3189 7 11.0111 0.660564 -6.63191
3028 6 10.7404 1.54445 -7.16193
3270 7 8.58104 3.46172 -2.21282
2646 15 15.0159 -0.26937 3.99555
313 7 15.0277 5.77472 2.0883
3032 6 11.0715 3.28966 -8.77562
2642 6 15.7672 -0.311 1.69599
24 6 16.4095 2.86646 -5.62284
3027 6 9.44463 3.54251 -7.04459
3190 7 9.35934 2.00229 -5.61998
2648 6 14.0841 1.84767 4.76771
297 7 11.1691 0.501736 2.71236
3692 21 9.29053 -0.157548 -3.81769
211 4 13.3783 5.6452 -5.16375
295 7 10.5653 -0.860154 -0.740633
305 7 9.4496 2.65643 1.8586
141 2 11.4991 3.02747 2.23089
2834 9 15.0546 2.7624 2.66189
361 7 13.7928 4.88642 -5.83852
227 7 14.0324 1.33137 -1.54273
2641 6 15.9884 0.0157028 3.04335
3026 15 8.46188 4.21091 -6.28696
223 7 16.6031 3.91842 -5.63029
2677 2 15.1365 5.50324 5.36832
310 7 12.7062 5.39815 1.9791
23 6 15.1843 0.902491 -4.89572
25 6 15.4963 2.27823 -4.799
8 6 16.3732 4.82747 -8.59531
224 7 15.1067 2.82486 -3.94573
299 7 9.12713 0.316982 3.8697
95 6 9.14053 -1.22109 2.20777
28 6 14.1811 0.381256 -4.1189
29 6 14.084 -0.977843 -3.95599
306 7 11.119 0.855761 -1.57138
139 1 11.8706 1.54396 0.275985
364 7 11.1089 5.16952 -5.23374
294 7 11.6722 -1.13673 0.774571
142 2 10.1743 2.33022 2.52816
296 7 9.75708 1.1448 0.157134
32 6 13.1632 -0.661636 -1.71443
308 7 13.8998 3.43524 0.868282
2835 7 14.9767 5.95715 4.39234
300 7 12.7161 1.09308 0.846925
302 7 12.3157 2.55178 2.71658
7 6 15.537 5.83098 -8.88491
311 7 11.7964 5.76742 0.512254
2647 2 13.9304 0.684587 3.77756
3031 6 10.0722 4.01128 -8.20462
30 2 13.0392 1.10578 -3.40948
298 7 8.21399 0.746558 2.41934
31 1 13.1396 0.821853 -1.91512
144 2 12.9749 3.9356 0.440448
138 2 9.16186 0.131137 2.73612
3123 4 8.0601 5.92941 1.1446
140 1 11.7836 3.03191 0.716912
226 7 13.0131 2.22106 -3.71498
304 7 9.83403 2.43228 3.59721
3176 9 11.4934 5.4134 4.46194
225 7 12.0065 0.685168 -3.78821
145 2 12.7571 5.39375 0.857764
307 7 11.7789 2.44867 -1.56096
143 2 11.9695 1.41312 -1.24673
135 2 10.7402 -0.765391 0.364171
301 7 10.9273 3.4937 0.22173
136 1 10.6192 0.709467 0.67042
309 7 13.1354 3.88459 -0.648395
2819 7 13.9955 1.0657 2.78247
303 7 11.3925 4.05777 2.56504
137 1 10.3387 0.876064 2.15551
216 7 16.0847 3.75859 -8.70223
3001 16 11.4358 6.02832 5.20737
2676 16 15.2428 3.4219 3.31287
2640 6 16.737 -0.107236 0.76855
2820 7 13.0502 0.0656351 3.90313
3024 6 8.36161 5.60111 -6.43691
2652 6 14.7015 3.09815 4.50287
3120 6 7.99882 3.27081 -1.34016
1891 13 8.41631 -0.834427 -7.3402
213 4 11.9442 5.81411 -4.86939
2817 7 14.7876 -0.739672 1.38628
2621 15 16.6221 -0.703901 -0.501887
3125 4 8.40508 5.49959 -0.125987
3276 7 9.17892 6.02477 -0.755759
34 14 13.4188 -1.29477 -0.562488
363 7 15.0537 6.1106 -3.91244
3191 7 9.5902 4.9147 -8.72214
3187 7 10.369 6.1973 -7.10786
1877 4 7.92884 1.52617 12.7735
2650 6 13.6752 1.81857 6.03327
2655 6 12.5953 0.758008 7.55739
2654 17 13.0779 0.570367 6.16775
1881 2 8.65432 1.33953 17.1029
2656 6 13.0388 1.87427 8.10641
2649 6 13.6701 2.54462 7.11514
2069 7 8.91453 2.28596 16.6841
2821 7 14.1644 4.63744 7.61147
1880 3 8.73783 2.81211 12.6867
2651 6 14.1929 3.8482 6.80318
113 16 10.2975 4.59957 7.32458
2659 6 12.6881 1.87129 9.46265
1889 3 10.817 -0.921353 18.7208
1876 4 8.17852 0.385896 11.9988
109 6 9.49909 2.3434 6.66818
276 9 10.0181 5.34941 7.81709
3036 6 14.5717 -0.190816 19.1966
2657 6 11.9553 -0.37463 7.8381
988 7 9.05878 4.08746 18.7814
110 6 9.44371 3.47928 7.58549
815 6 9.27514 5.68579 15.9351
2669 6 15.7113 -0.308909 14.9944
2658 6 11.505 -0.272578 9.16951
704 7 15.1703 5.42996 17.2879
551 6 13.7679 5.34658 15.1628
809 6 7.94949 4.06672 18.6233
548 3 11.623 5.39464 11.3973
2884 7 15.4913 6.07228 9.09122
114 15 8.23709 4.84331 9.22625
2068 7 9.07991 1.33927 18.1513
17 19 13.8716 5.33416 20.1364
3192 7 11.4953 3.71328 19.7879
3637 7 16.0168 3.02431 16.2021
2660 6 11.95 0.813908 9.95512
3037 6 13.3274 1.8489 19.5849
2071 7 9.02054 0.344219 15.1911
721 9 12.5683 3.57433 14.5601
274 7 10.2218 2.21862 5.87453
2665 6 14.0382 0.789546 11.8662
2067 7 8.49794 3.59615 13.3895
3034 6 13.8263 -0.755021 20.2589
550 6 13.0782 5.31692 13.9871
2826 7 14.3276 0.925444 10.8195
3196 7 14.6457 1.58712 17.9645
703 7 13.8494 4.36232 15.64
1882 2 9.40766 0.248187 16.2016
2823 7 13.0279 2.67883 10.1271
2066 7 9.77373 2.48518 12.7636
2828 7 13.054 0.359612 15.6249
2667 6 12.4088 0.816779 13.6612
568 16 12.5256 4.09163 13.7269
3688 21 16.0952 3.71121 11.8511
2827 7 11.3686 0.998458 14.0708
107 6 8.71898 1.40263 7.17887
701 7 11.7814 5.55887 10.3146
2070 7 10.5438 0.542977 16.0378
2663 6 12.7007 0.824153 12.2992
2074 7 10.2884 -0.882944 19.7086
2664 6 15.0119 0.643734 12.7993
2061 7 8.64286 0.537313 11.0592
2666 6 14.7104 0.367283 14.1813
3195 7 13.1016 2.8069 19.1083
994 7 10.5635 4.45801 17.0148
2073 7 10.9883 0.114091 18.4722
2662 15 11.6318 0.780848 11.3041
3038 6 14.3101 1.15106 18.9022
2668 6 13.3915 0.470754 14.5941
2678 4 16.5408 5.63537 5.93257
106 17 8.70431 0.283625 6.2486
702 7 10.5089 5.25559 11.6257
700 7 12.2506 4.46061 11.4518
112 6 8.50424 3.58754 8.64121
3194 7 15.3627 -0.726637 18.7279
818 3 10.4823 5.54282 16.7674
2673 6 15.3036 -1.29115 15.9613
2065 7 8.64823 3.25169 11.6926
812 6 7.9832 5.28055 16.3116
995 7 10.2622 6.11413 17.6825
2825 7 15.976 0.390264 12.4349
1883 6 9.30528 -1.17962 16.6899
2822 7 11.7011 -1.25989 7.14554
993 7 11.3556 5.87073 16.157
2886 7 15.4582 6.29323 10.8802
219 10 12.8691 6.17223 20.5093
2661 16 10.7395 -1.24858 9.71917
2836 7 14.4951 6.14017 6.08065
3013 6 9.85046 9.1655 -6.9631
3016 6 10.2068 11.9451 -7.16631
3041 2 12.6 11.6217 -7.7366
3199 7 13.1821 10.9355 -8.399
3042 4 13.3821 11.8043 -6.51961
3044 4 14.0598 10.9029 -5.68663
3017 6 11.2465 11.0218 -7.45697
3015 6 11.1321 9.6513 -7.38002
3185 7 11.9677 8.99061 -7.46464
3203 7 13.952 9.8105 -5.95415
181 6 14.813 13.0423 1.49725
2890 7 12.7529 13.3699 4.20687
2996 6 9.96503 9.69047 4.35251
2888 7 12.5856 11.1191 5.3432
3174 7 11.6363 7.07494 2.85887
3019 6 8.03222 8.23574 -6.32089
3045 4 14.7449 12.9862 -5.05304
3043 2 14.9549 11.5034 -4.59674
208 6 10.761 7.52653 -3.45873
360 7 10.1044 9.09345 -2.11235
146 6 13.9189 6.34573 0.422183
2998 6 10.9786 7.31813 4.88649
176 6 15.2173 11.356 3.1264
2994 11 10.193 9.44582 1.95016
2990 6 9.2629 11.7319 1.38656
3672 22 10.1596 11.2171 -3.15648
3201 7 15.9767 11.189 -4.65816
3046 4 13.7205 13.0646 -6.0462
340 7 12.1288 12.1787 -0.510041
357 9 14.1904 9.35212 4.04802
148 6 13.9836 7.16129 -0.660408
2997 6 11.0383 7.69249 3.52175
318 7 16.3603 10.5402 -1.1972
3670 21 10.2346 12.2317 -3.71376
3012 6 8.97795 11.4844 -6.64945
3003 16 9.55599 11.6098 0.072789
174 6 15.4735 12.601 2.65207
3014 6 8.97118 10.1271 -6.65101
212 2 14.3321 6.68583 -4.49885
3172 7 8.63717 12.157 5.151
204 16 13.7157 9.32624 3.21975
338 7 16.7161 9.21561 5.41888
2 6 15.902 7.1804 -8.63052
3198 9 11.0113 13.3362 -8.09687
206 6 11.8903 6.9622 -4.02701
3202 7 14.5829 11.2627 -3.5586
175 6 16.4574 13.4032 3.24386
3173 8 9.64968 8.79654 1.34182
178 6 16 10.8831 4.17842
3020 6 9.2354 7.91344 -6.65003
3180 9 9.93081 10.7564 -0.0628609
3040 16 10.3789 13.2838 -7.34919
151 6 16.2018 7.17268 0.963866
358 7 9.76212 7.0461 -3.58818
362 7 14.8292 7.30948 -5.31721
185 6 13.7459 12.221 0.984526
209 6 12.2756 9.19841 -2.46219
190 6 13.105 12.6911 -0.197278
336 7 15.9738 8.52286 3.99653
2991 6 9.39653 10.8204 3.63701
2989 6 9.61171 10.7354 2.28167
186 6 14.2127 10.5056 2.60994
207 6 13.2474 7.38782 -3.75268
2995 6 10.4025 8.87798 3.27815
147 6 15.1072 7.93919 -0.999436
205 6 13.4432 8.47946 -3.00938
2992 6 8.41922 13.0029 3.26685
2988 6 8.63294 12.9023 1.94068
184 3 15.9232 9.42081 4.66344
339 7 12.5983 10.343 1.21877
160 18 14.9697 8.95968 -2.46772
187 6 13.3908 11.047 1.65811
149 6 16.2261 8.03302 -0.117321
210 6 10.9629 8.62353 -2.64431
359 7 12.4419 9.96028 -1.75447
337 7 14.9916 9.37431 5.26451
3023 6 9.43603 6.46526 -6.7277
3200 7 12.5292 12.5581 -8.34783
312 7 13.0632 6.8996 -1.32988
2993 6 8.76509 12.009 4.10277
3671 22 10.3096 13.2464 -4.27101
3184 7 8.09632 13.4402 -5.93155
150 6 15.0681 6.37191 1.17626
3273 7 8.32934 6.91839 1.60702
2741 6 13.2293 13.7573 5.14679
342 7 11.7686 13.7307 -2.17411
2723 6 15.8939 10.8114 10.0044
2887 7 12.628 8.98838 6.34763
2735 6 13.2036 9.40384 7.2073
2730 6 14.45 12.6471 8.45509
2738 6 13.0897 11.5643 6.19406
2733 6 13.4536 10.7589 7.25212
991 7 10.3641 7.05108 14.6794
2737 6 13.3227 12.9268 6.27497
2729 6 14.2862 11.2902 8.27558
2734 6 13.7264 8.48159 8.09515
2905 9 13.3534 6.71221 8.79625
2426 7 15.583 13.5344 19.2599
3177 7 9.60432 9.5775 7.74099
3175 7 10.6609 7.61247 6.91095
2752 16 13.3314 7.19484 7.94588
547 3 10.8675 7.92231 10.3766
2728 6 15.3433 13.1084 9.41248
2245 2 10.6255 13.584 17.1835
695 7 13.7423 11.0279 13.0554
2234 6 11.2317 9.24641 17.7739
2727 6 16.0555 12.1964 10.1278
549 6 14.4138 6.45647 15.6086
214 7 15.3883 10.479 19.8649
2242 2 15.7535 12.7033 18.4956
2724 6 14.63 9.0078 9.06792
2722 6 14.8725 10.4071 9.08833
2732 3 15.0228 6.67373 9.90855
3704 21 10.7834 12.9818 9.31475
690 7 11.7883 11.7355 13.7125
2424 7 11.3189 8.2124 18.2449
2227 6 8.92194 9.49372 18.9263
688 7 8.06864 11.1865 13.8147
3132 9 8.44166 11.1632 10.9881
693 7 11.6697 10.1193 10.4042
697 7 10.2162 7.048 10.2523
2232 20 8.40205 12.1242 18.2917
2240 4 16.0578 13.3636 17.1684
2839 7 16.065 7.26679 7.22387
2427 7 16.5401 12.1022 18.8548
2233 6 12.1864 10.042 17.1662
2428 7 13.9202 11.3732 18.743
814 6 8.33219 6.78228 14.0052
992 9 9.49886 7.44928 12.608
2725 6 16.5028 8.56346 10.6323
3178 7 8.30054 10.15 6.63128
530 6 10.224 13.7101 13.9352
553 6 16.207 7.32843 16.9422
2236 6 9.95118 11.1975 17.9173
220 9 13.5988 9.17013 19.5025
3002 3 9.42059 10.0944 6.80631
3000 6 10.4689 8.05102 5.92331
696 7 15.3776 10.8731 14.7878
699 7 11.5997 7.99295 9.51356
535 2 10.5657 10.8354 12.1021
533 6 8.42078 12.2113 13.8661
540 6 12.9577 6.53036 13.2031
2229 6 8.03365 10.4948 18.9479
698 7 10.1823 8.77282 10.4588
2230 16 9.26774 7.13165 19.6031
2241 4 15.0171 13.2448 16.2415
546 6 15.1052 8.75996 15.2607
544 6 14.8538 9.95367 14.5797
2422 9 10.2147 7.31206 19.7585
2726 6 15.4407 8.15257 9.87685
692 7 10.2853 11.7341 11.5208
545 6 14.3839 7.63534 14.8574
538 6 13.567 7.70053 13.6982
542 6 12.0742 6.60399 12.1224
2243 4 14.5018 11.9802 18.0801
537 6 12.2305 8.95186 12.1293
2235 6 11.9429 11.3923 16.8701
689 7 10.6582 10.568 14.3765
18 16 13.9024 8.23551 19.7169
536 2 11.8653 10.2796 11.4604
694 7 12.6896 11.0106 11.5479
3 6 15.1119 8.32454 20.3723
541 6 11.76 7.7905 11.58
531 6 9.78521 12.3972 13.7744
2237 6 10.7194 12.0801 17.2798
2239 4 14.0699 12.3586 16.8155
2423 7 13.164 9.70982 16.7317
2231 6 10.0327 9.8909 18.1542
2238 15 12.9959 11.9697 16.1391
691 7 9.77929 10.0763 12.1616
539 6 13.1997 8.88909 13.1625
534 2 10.8004 11.3386 13.5227
552 6 16.0986 8.53214 16.2098
543 6 13.9403 10.0165 13.541
3179 7 9.71861 11.1318 6.8453
2736 6 13.801 13.515 7.48015
2225 6 8.46719 8.28845 19.5061
817 16 8.56117 7.47145 12.8309
816 6 9.3999 6.49582 14.8583
2435 7 11.0348 13.5695 19.3583
2882 7 16.78 7.2345 12.186
554 6 15.21 6.38114 16.7474
1 6 15.7841 9.56734 20.3511
2429 7 14.1201 13.4054 14.2202
2885 7 13.965 6.46979 10.0397
2999 6 10.0091 9.28679 5.68482
ITEM: TIMESTEP
150000
ITEM: NUMBER OF ATOMS
3700
ITEM: BOX BOUNDS pp pp pp
-1.8463752438461778e+01 1.6644732659536341e+01
-2.3989208927279179e+01 1.3761800685191773e+01
-9.2419594609807660e+00 2.0614618287378526e+01
ITEM: ATOMS id type x y z
1395 7 -13.7496 -18.8988 -2.61872
608 7 -13.1374 -23.7133 1.73785
458 6 -17.3469 -18.784 -6.98577
1117 6 -9.89283 -17.6881 2.21673
618 7 -11.952 -23.5115 -6.44284
1452 7 -17.743 -17.0827 1.17013
622 7 -15.3441 -22.0693 -8.96969
438 15 -13.5203 -21.6184 -8.21591
621 7 -15.0952 -20.3883 -8.67318
617 7 -11.2729 -22.2172 -5.30221
461 6 -17.9892 -20.3985 -9.16289
3403 16 -13.0789 -18.2275 -5.84063
1411 7 -17.9464 -21.505 3.15458
3558 7 -11.1491 -19.2839 -4.56083
1403 7 -12.9002 -20.2024 -1.58535
1741 9 -10.4325 -23.0164 -8.58808
1297 6 -17.8318 -20.3795 0.401099
1399 7 -13.8329 -16.7924 1.5761
1239 6 -15.4613 -21.5146 1.10922
1242 6 -12.9628 -20.6446 1.77156
1238 6 -13.457 -20.4537 0.48017
1232 1 -13.7884 -17.6795 -0.942993
3400 6 -10.9136 -19.02 -5.57508
1405 7 -11.9678 -20.242 1.90061
3398 6 -11.855 -18.4104 -6.39437
1244 6 -15.7979 -22.1338 3.47968
1133 6 -15.994 -17.238 4.7364
433 3 -11.9275 -22.467 -6.15223
3561 9 -13.252 -18.929 -5.12863
428 6 -14.0936 -21.7116 -6.99946
1241 6 -14.9584 -21.7199 2.47449
1237 2 -12.5802 -19.8599 -0.573212
456 6 -17.537 -20.1653 -6.85394
1302 6 -18.2097 -17.9675 0.773661
1243 6 -13.6653 -21.2453 2.78646
1245 6 -15.3576 -22.0528 4.77132
1394 7 -13.1997 -17.2744 -3.05506
1393 7 -14.6006 -18.1827 -0.392298
431 6 -15.2954 -21.7821 -4.49309
463 2 -15.6107 -17.2223 -8.8305
1240 6 -14.7032 -21.003 0.116325
1316 7 -9.96494 -17.3777 1.0894
432 6 -15.9872 -21.3223 -5.63716
427 6 -13.9656 -22.1672 -4.64334
430 12 -15.3315 -21.29 -6.80155
1451 7 -16.4756 -19.116 1.6059
439 2 -14.5841 -21.2258 -9.08936
1252 18 -17.0734 -21.9688 0.553674
634 7 -17.8329 -22.0781 -7.79516
3399 6 -11.5677 -18.0095 -7.65592
1253 3 -17.2949 -22.439 3.42604
616 7 -15.7806 -21.7766 -3.48323
1397 7 -16.0571 -18.1634 -2.40087
460 6 -17.8265 -20.9756 -7.95796
1250 6 -11.8331 -21.116 4.44654
1234 2 -15.3811 -17.479 -2.93002
615 7 -13.6384 -22.0235 -2.51434
462 15 -16.9209 -16.9216 -8.34822
633 7 -17.0022 -18.2219 -6.11056
1246 6 -13.2618 -21.1789 4.17195
1407 7 -11.0946 -21.0225 3.66369
3557 7 -12.5187 -17.563 -8.23575
429 6 -13.3643 -22.1448 -5.87339
1404 7 -15.0336 -20.9194 -0.904882
1402 7 -11.6042 -20.2609 -0.344617
1301 6 -17.4164 -19.1543 0.999364
437 15 -17.2604 -20.8527 -5.63366
457 6 -17.3725 -18.1877 -8.21751
1233 2 -13.9445 -17.7668 -2.46837
1113 6 -10.5342 -17.5094 4.43878
614 7 -12.2669 -21.8301 -3.53598
1247 6 -14.1538 -21.4385 5.19517
1138 16 -16.2072 -18.3545 3.96299
426 2 -13.1633 -22.4625 -3.39176
1236 2 -12.4702 -18.2974 -0.453925
1409 7 -17.5798 -23.1897 2.68449
3397 6 -10.302 -18.205 -8.15619
1401 7 -12.1918 -18.0733 0.530946
1330 9 -17.1769 -18.5522 4.04969
1396 7 -15.465 -17.6396 -4.04005
1118 6 -11.3555 -17.0032 5.45926
1400 7 -11.6946 -17.8211 -1.11371
3628 7 -9.78796 -20.9505 -0.573089
619 7 -11.4352 -21.9014 -7.00978
1115 6 -10.6126 -16.9644 3.1949
1329 7 -13.9622 -17.5629 4.57558
1134 6 -14.6866 -16.9132 5.04568
3620 7 -10.1843 -23.6646 -1.38858
635 7 -15.2486 -18.0231 -8.27755
1410 7 -17.6041 -22.722 4.46996
425 2 -12.9242 -23.931 -3.07635
1406 7 -15.9285 -22.5268 5.58849
1390 7 -17.5202 -16.6644 -3.25827
1388 7 -16.1986 -16.6242 -0.550713
650 9 -14.518 -16.471 -5.24844
1265 6 -18.093 -17.6677 11.4131
1248 6 -13.7822 -21.4046 6.51855
1249 6 -12.3634 -21.5164 6.84687
666 7 -17.3194 -20.1867 15.3107
1408 7 -10.2332 -21.3538 5.99881
1426 7 -16.8585 -19.8059 13.119
624 7 -14.3001 -23.2017 16.5053
1428 7 -15.5708 -17.7713 14.4033
1263 2 -18.0696 -18.7778 9.35946
449 6 -12.553 -18.6402 14.2387
1576 6 -10.1035 -21.7185 15.386
1412 7 -10.8268 -21.9708 8.20819
442 6 -13.6159 -20.0318 18.724
1258 6 -15.9351 -20.7412 7.47286
1254 6 -14.6332 -21.3629 7.53848
668 7 -17.2656 -18.0225 16.3855
3396 6 -10.1805 -16.7173 19.7151
1414 7 -16.2751 -20.2169 6.56567
623 7 -14.8032 -23.1448 19.0792
1131 3 -11.6543 -17.6426 6.82672
1275 3 -16.3107 -19.1131 12.4321
663 7 -17.3874 -17.4217 18.9967
1270 6 -16.5169 -16.6742 12.8707
443 6 -13.5382 -21.1127 16.5789
1262 2 -18.1093 -20.0044 8.49781
501 1 -17.6759 -19.3936 18.0975
630 7 -13.1806 -23.2607 12.94
453 16 -12.021 -18.792 11.8554
1269 6 -17.0366 -17.7929 12.2545
590 7 -16.6654 -23.9691 16.1382
627 7 -13.0569 -21.1822 11.982
1419 7 -17.0319 -18.4551 9.61499
625 8 -12.691 -18.0651 17.0761
445 6 -14.13 -22.285 17.1417
1256 6 -11.918 -21.8068 8.14297
446 11 -12.8095 -18.9565 16.7151
1427 7 -16.2044 -19.6402 11.4973
1259 6 -16.8121 -20.7818 8.57279
591 7 -17.3872 -23.4999 18.644
629 7 -13.208 -23.4239 14.637
631 7 -14.7523 -23.0067 13.858
450 6 -12.4919 -19.3643 12.9701
454 3 -13.6259 -22.8049 13.8651
626 7 -12.3252 -17.5466 14.3438
441 6 -13.3097 -20.0395 17.402
1425 7 -15.3026 -18.9493 12.8591
664 7 -17.5007 -21.6715 16.5537
444 6 -14.3543 -22.2849 18.5413
1579 6 -9.76453 -22.9428 18.2161
1415 7 -14.9299 -22.3408 10.9389
1413 7 -12.521 -22.4654 10.0511
3394 6 -10.1103 -18.0801 20.3156
1577 6 -10.205 -23.5948 17.0287
448 6 -13.0478 -20.726 15.3043
455 16 -13.4806 -18.8454 19.438
1328 7 -11.2088 -18.6526 6.92025
506 2 -17.9448 -18.7468 16.7486
632 9 -13.3509 -19.0247 20.3658
505 2 -18.2131 -19.6551 15.4933
1257 6 -12.8349 -21.9982 9.13115
1261 6 -16.4629 -21.3909 9.8033
447 6 -12.7276 -19.3507 15.4203
1736 7 -10.4879 -20.9972 16.1704
1735 7 -9.80944 -20.2049 13.8933
727 7 -17.6484 -23.2531 7.02066
1416 7 -17.1856 -21.5529 10.6346
658 7 -17.4104 -21.8433 19.4461
451 6 -13.2316 -21.3383 14.0878
452 6 -12.9671 -20.6756 12.9434
1260 6 -15.2258 -22.0042 9.90424
1326 7 -12.7411 -17.7263 6.99023
1255 6 -14.2566 -21.7652 8.89732
636 7 -15.521 -17.4695 19.9538
1430 7 -14.4338 -17.0253 13.3902
1276 3 -15.4559 -16.814 13.8455
667 7 -18.4438 -19.052 14.5598
628 9 -11.0672 -18.7719 11.8313
1578 6 -10.0969 -23.389 19.4555
661 7 -16.6268 -19.7706 18.2148
440 6 -14.1149 -21.1525 19.326
1574 6 -10.0207 -23.1094 15.709
1327 7 -11.1113 -16.9895 7.58156
395 1 -18.0838 -23.8651 17.8753
502 2 -18.0024 -18.3741 19.1635
3395 6 -9.94618 -16.5925 18.3897
1575 6 -9.8213 -21.2502 14.1396
499 2 -18.3352 -21.2724 19.5397
459 6 -17.8544 -18.9951 20.5762
3552 9 -10.1849 -17.7861 14.1668
1422 7 -18.4111 -19.8593 11.1804
1418 7 -18.2101 -19.6615 7.48518
1572 6 -9.74601 -23.9769 14.6678
1251 6 -11.3964 -21.3151 5.79838
1583 16 -9.88209 -22.664 20.5345
941 4 -11.0433 -11.5328 -0.481526
2604 4 -18.0043 -10.7296 -2.79296
1046 7 -13.8547 -9.76787 -6.69617
1156 6 -18.2888 -11.6174 3.29872
1199 6 -18.0381 -13.8188 -8.17474
1909 16 -16.8335 -9.23263 -8.64908
1168 6 -15.0759 -10.3805 2.19508
1173 6 -12.9913 -10.4133 3.4013
467 6 -12.7845 -14.0869 -7.89123
1359 7 -9.88612 -11.757 3.51697
934 6 -10.3025 -10.8673 -1.50922
464 6 -14.7172 -16.0402 -8.43228
1320 7 -13.3239 -13.5763 4.52477
2790 7 -18.2812 -9.44245 -1.12148
1398 7 -15.0246 -15.7006 1.32137
1126 14 -14.9918 -13.7363 2.70582
1188 6 -18.1259 -13.8262 0.00186827
1124 6 -13.6909 -14.2037 2.6625
651 7 -13.1628 -12.9965 -5.58239
2795 7 -16.4233 -11.0951 -5.65437
1366 7 -16.1212 -12.9617 -7.42176
637 7 -11.9846 -13.3661 -7.58888
1387 7 -15.6296 -14.0334 0.407275
1167 2 -16.5079 -10.8006 2.07716
654 7 -9.77988 -14.1058 -2.58225
1089 7 -13.1654 -12.0135 -0.328625
1351 7 -14.7253 -11.3112 4.15787
1321 7 -12.0566 -13.0471 3.41141
492 16 -15.0234 -16.2888 -6.05469
1352 7 -12.407 -10.7792 4.29027
1169 6 -13.1542 -9.30511 1.24596
1119 6 -12.1161 -15.9195 5.15795
1391 7 -16.8686 -15.2221 -4.05512
1348 9 -15.7891 -12.4715 5.51037
1170 6 -14.4212 -9.70423 1.10434
1357 7 -10.1069 -10.1813 4.53442
1229 1 -15.6131 -16.023 -2.51113
1353 8 -12.4908 -8.95952 -0.609439
655 7 -12.705 -13.8663 -2.70172
1120 6 -11.3955 -15.8355 2.8882
468 6 -14.403 -15.6872 -7.10658
498 4 -11.114 -15.4187 -5.11396
1187 6 -17.8737 -14.8363 -2.09417
1122 2 -11.5885 -15.2158 1.51018
940 2 -12.5783 -10.8079 -2.23916
469 6 -13.4237 -14.72 -6.87398
652 7 -14.2734 -14.1611 -4.89572
1092 7 -10.676 -11.8914 0.4869
1121 6 -12.0651 -15.2007 3.92576
1317 7 -11.2755 -15.9009 0.748036
1368 9 -15.0092 -11.892 -9.18435
1189 6 -17.3562 -14.317 -0.984145
2603 4 -17.1718 -8.95089 -3.9784
1123 1 -13.0945 -14.8584 1.39652
1318 7 -10.9637 -14.3101 1.37384
1362 7 -17.5135 -13.7138 0.87008
1349 7 -17.1061 -10.1455 1.47409
495 2 -10.5901 -14.9455 -2.74381
1198 17 -18.3439 -13.883 -6.77554
494 4 -12.1601 -14.6514 -4.64651
1389 7 -14.9123 -15.325 -2.94165
2794 7 -15.3657 -11.4053 -4.11071
939 4 -12.406 -11.575 -0.904234
1171 6 -12.3949 -9.67843 2.37268
496 4 -11.9258 -14.4147 -3.22366
1228 1 -15.4876 -15.9084 -0.998621
2793 7 -16.759 -12.3885 -4.47222
497 4 -10.2338 -15.6285 -4.08067
1386 7 -15.3562 -13.8281 -1.41988
1125 2 -12.7158 -13.8989 3.72778
1090 7 -13.2585 -9.93253 -2.15345
1235 2 -14.012 -15.9346 0.963086
1047 7 -13.1814 -10.3743 -8.22543
1230 2 -17.0535 -15.6624 -3.07071
2608 3 -16.3727 -11.3467 -4.60987
493 2 -13.2947 -14.1088 -5.48517
889 3 -12.9359 -9.8465 -7.35836
1319 7 -13.1921 -14.1512 0.495399
1045 7 -12.1247 -10.333 -6.80513
657 7 -10.9026 -15.523 -6.22905
1392 7 -13.3332 -15.4117 -1.06834
1201 6 -16.8577 -13.1464 -8.26706
1091 7 -12.9671 -11.4457 -3.01027
1350 7 -16.4235 -11.814 1.58194
1227 2 -15.8833 -14.4369 -0.636333
2605 4 -17.1926 -10.3356 -3.8809
1172 6 -14.326 -10.7487 3.29669
888 18 -11.817 -9.06325 -4.83245
1166 15 -17.0113 -11.0446 3.38375
935 6 -11.1516 -10.3626 -2.52938
933 6 -10.6533 -9.57104 -3.56935
1231 1 -14.0407 -16.1681 -0.575951
2789 7 -18.1598 -11.8233 -2.64455
653 7 -10.547 -15.6317 -1.83853
1179 6 -9.73697 -9.73866 2.55171
1906 6 -18.1977 -9.19515 -8.85551
1135 6 -17.1038 -16.4158 5.20304
1176 6 -11.0547 -9.32034 2.08978
1183 16 -15.1687 -9.45521 -0.0742798
1347 7 -17.8209 -10.2049 5.42368
902 6 -12.8331 -10.1567 10.6556
1273 6 -18.1044 -14.0501 10.9632
3765 21 -10.0922 -15.7226 10.0375
3581 7 -10.0523 -9.93876 13.354
1434 7 -17.9869 -9.55153 9.26395
643 7 -10.4107 -10.012 16.7124
916 6 -10.1346 -12.2452 9.12123
1127 15 -13.067 -15.481 6.10553
1137 6 -16.6821 -15.3716 5.94162
472 6 -12.5145 -14.2004 19.2528
1136 6 -15.4547 -14.9239 6.26262
1060 7 -10.7205 -13.2252 11.7129
1204 6 -17.4192 -13.4416 19.2069
913 6 -12.0961 -10.3918 8.32599
473 6 -13.3354 -15.353 17.1889
915 6 -13.0093 -9.43315 7.91042
918 6 -11.185 -10.8497 7.32209
1068 7 -11.2775 -10.4099 6.26529
1132 6 -14.393 -15.7787 5.79396
3556 7 -10.3821 -15.796 20.2751
908 6 -11.3198 -12.4261 11.2941
476 6 -11.5823 -13.5514 17.1603
1058 7 -15.4441 -11.0649 14.2382
1059 7 -12.1377 -12.2048 13.317
903 6 -12.9744 -10.7659 11.8587
900 2 -14.3461 -11.0704 14.0333
470 17 -14.2123 -15.9289 19.1834
1162 5 -15.2765 -13.6116 7.00459
474 6 -12.4144 -14.4829 16.5137
1164 16 -15.402 -12.3571 6.3672
483 6 -9.69358 -10.7033 17.1636
638 7 -14.0232 -16.0578 16.7095
640 9 -13.1234 -15.0155 14.7817
901 6 -13.9921 -10.3089 12.7254
475 6 -11.5862 -13.4386 18.5136
1268 6 -16.7218 -15.4608 12.2675
909 6 -11.9618 -10.7062 9.69922
1205 16 -15.3393 -12.4108 19.867
1206 15 -16.9204 -13.3057 17.9674
1432 7 -16.4686 -11.1979 10.2089
1140 20 -17.8506 -14.1302 6.54751
1278 6 -15.6236 -14.574 12.0669
1057 7 -14.0878 -12.0959 13.6359
1296 16 -14.3154 -14.7261 12.5234
1211 6 -17.3796 -12.3272 15.8182
1163 13 -14.7775 -13.6583 8.0692
1202 6 -16.5175 -13.0323 20.2379
1279 6 -15.8096 -13.426 11.3527
1266 6 -17.9176 -15.2496 11.6403
1431 7 -14.867 -12.742 11.1966
1067 7 -13.078 -9.17537 6.86535
466 6 -13.9307 -15.4087 20.4858
1056 7 -12.5262 -11.1096 15.0748
478 15 -10.6441 -12.8476 16.3558
477 16 -12.3007 -14.5874 15.1406
1054 7 -13.2688 -11.093 17.3534
1429 7 -15.2531 -16.0987 14.6759
1277 6 -17.0412 -13.1468 10.8403
917 6 -10.3063 -11.9161 7.74856
1053 7 -14.8113 -11.5883 16.8499
910 6 -11.1704 -11.7961 10.0564
898 2 -14.0261 -10.7524 16.6819
897 6 -15.9011 -9.05527 16.7038
907 6 -12.1558 -11.853 12.2538
895 6 -14.6618 -9.46188 17.083
1449 9 -13.837 -13.8641 12.5247
1371 7 -16.573 -12.9999 15.4421
639 7 -11.0351 -12.6372 19.0089
1207 6 -17.7398 -12.4709 17.1665
1282 6 -17.2816 -11.9015 10.1915
3555 7 -10.1701 -15.6234 17.948
1055 7 -13.3456 -9.57161 15.0656
471 6 -13.2735 -15.0563 18.552
899 2 -13.5055 -10.6649 15.2331
904 6 -13.5885 -9.07525 10.2766
1052 7 -16.4396 -9.73212 16.0203
905 6 -14.5934 -9.12104 12.4422
1375 7 -18.3235 -9.28984 13.348
479 6 -9.71211 -12.1479 17.0419
1061 7 -16.1506 -9.07621 13.9396
1212 6 -18.1208 -11.6086 14.9508
1070 7 -9.791 -12.4408 5.78874
1372 7 -17.9221 -11.615 13.885
3572 7 -9.85872 -9.12197 11.3847
2084 9 -16.4579 -8.97521 20.3862
3750 21 -13.0772 -16.4136 9.53831
465 6 -12.9615 -14.5236 20.5672
2645 6 -17.1811 -2.64821 0.240113
765 16 -12.3218 -6.82872 5.38561
2590 6 -10.8589 -3.0742 -2.15498
2593 6 -12.48 -3.7969 -4.06066
2818 7 -16.655 -2.88404 -1.75641
2792 7 -18.1837 -7.43967 -2.7869
2589 6 -11.6655 -4.15166 -1.91394
2616 6 -18.1435 -3.74496 -3.69216
2596 20 -13.4101 -4.11524 -5.56112
881 6 -13.0971 -8.16842 -9.06338
2785 7 -10.0579 -2.96231 -1.46012
2842 7 -14.9788 -2.7655 0.408506
882 6 -11.8238 -6.14448 -9.1484
88 6 -15.7792 -7.00732 3.06722
879 6 -11.2212 -6.52412 -7.92897
880 6 -12.4909 -8.50826 -7.87233
2588 6 -10.8039 -2.30524 -3.36388
2803 7 -16.0629 -3.07629 -7.94698
2615 6 -17.903 -4.6495 -4.63861
87 6 -16.5903 -6.81779 1.94684
2611 6 -17.0826 -4.35784 -5.71761
2800 7 -18.3997 -5.61445 -4.46435
874 6 -9.89963 -5.73776 -6.05601
2613 6 -16.6626 -3.05379 -5.85455
85 6 -17.7063 -7.60682 4.39415
262 7 -18.1459 -7.9501 5.36721
2856 7 -12.285 -2.19052 3.23368
764 11 -12.4188 -5.25241 3.27254
2797 7 -14.6503 -5.24888 -7.1044
741 6 -10.2918 -5.96419 4.3169
2644 6 -17.4793 -3.0194 -1.02196
2802 7 -14.7366 -2.56421 -6.87803
1360 9 -14.8157 -8.71124 -0.569803
2610 2 -16.7796 -5.40778 -6.73418
2594 16 -11.4673 -5.02335 -0.911638
2685 1 -16.4081 -2.41427 2.95034
2804 9 -13.6011 -1.34865 -5.14245
2788 7 -13.8935 -6.55124 -1.33767
2796 7 -15.2626 -6.87987 -7.14631
877 6 -11.6119 -7.63326 -7.22208
86 6 -16.3215 -7.5066 4.27348
2602 15 -16.4152 -8.17463 -4.84612
740 6 -10.3734 -4.21282 2.54584
2592 6 -11.6578 -2.68894 -4.42084
2609 2 -15.3533 -5.93254 -6.58609
875 6 -11.1873 -7.71734 -5.86557
2689 2 -14.6753 -2.07366 4.67061
2619 13 -10.9409 -1.74585 -6.42525
90 3 -15.8977 -6.34452 0.71431
2600 6 -14.0547 -5.49609 -4.42464
2690 2 -16.1465 -2.12714 4.39754
2787 7 -15.2597 -8.2815 -2.43003
1041 7 -9.93648 -4.75284 -7.90901
2618 5 -11.794 -1.8599 -5.67083
2851 7 -14.3298 -1.85719 5.70808
2846 7 -18.2972 -1.40956 2.8816
2847 7 -18.2538 -3.23273 3.34363
2598 6 -14.0948 -6.52087 -2.42643
2799 7 -16.9843 -5.14459 -7.77285
2595 6 -13.5325 -5.48399 -3.167
2859 7 -11.7954 -2.4226 5.50047
878 6 -10.293 -5.62831 -7.35382
2599 6 -15.5177 -7.28153 -4.36582
266 7 -14.8201 -6.53311 0.731864
2845 7 -15.9999 -3.38953 2.74641
84 6 -17.932 -7.16577 2.03341
958 8 -13.005 -5.49614 4.07085
267 7 -16.0205 -5.3281 0.398464
2798 7 -17.394 -6.26475 -6.46785
2850 7 -14.3853 -3.15288 4.47402
2601 6 -15.0042 -6.16139 -5.15167
1175 6 -11.0811 -8.64123 0.790568
945 7 -10.971 -3.63584 1.79732
959 8 -12.8324 -4.58444 2.67264
743 6 -10.9388 -6.74621 5.29435
263 7 -14.6815 -6.75564 2.95412
2597 6 -14.9948 -7.38692 -3.04253
2607 4 -18.0779 -8.48268 -3.02798
1043 7 -11.3373 -4.0013 -8.95737
2686 2 -17.9013 -2.42369 2.70207
1174 11 -12.4182 -8.51687 0.2818
265 7 -16.2135 -7.01917 -0.07791
260 7 -18.3466 -6.237 -0.789871
876 6 -10.2634 -6.82219 -5.28198
2591 6 -12.6072 -4.43912 -2.92248
2848 7 -13.8311 -2.1636 1.79344
2617 3 -15.8603 -2.52241 -7.05317
742 6 -11.038 -5.16406 3.38378
2786 9 -12.0418 -5.81282 -1.04097
89 16 -15.5551 -7.9675 5.28543
2684 1 -15.7941 -1.43155 1.9659
2852 7 -16.6049 -2.93078 5.00693
2693 2 -11.5686 -1.47054 5.01117
1177 6 -9.8773 -8.06453 0.307716
2614 12 -17.6004 -2.50356 -3.72102
2858 7 -10.5402 -1.56799 4.56879
2683 2 -15.8567 -2.03538 0.568235
1354 7 -10.0225 -7.41355 -0.645468
2612 6 -17.0017 -2.11037 -4.81829
1040 7 -10.0361 -6.8102 -4.18863
2643 6 -18.1031 -2.71658 1.2786
2801 7 -16.1216 -1.46855 -7.15627
2908 7 -14.1855 -4.37588 10.697
1062 7 -15.2753 -7.68849 13.9974
2833 9 -16.1326 -4.17938 12.4427
3309 2 -10.0112 -4.21285 7.92636
3584 7 -10.3845 -5.27439 14.0165
3715 21 -14.2743 -5.07754 6.86909
1044 7 -13.4602 -3.17745 19.8692
3415 1 -9.90938 -7.05779 12.1104
3577 7 -11.8157 -7.73932 12.9442
3419 2 -10.6386 -6.56026 10.839
1051 7 -17.4916 -7.68885 16.7553
3420 2 -11.2894 -5.85905 13.8789
3586 7 -11.2731 -6.1524 15.9866
2754 6 -16.0076 -2.27244 8.60796
884 6 -13.7035 -6.49407 19.1053
883 6 -12.7855 -6.95809 20.0297
893 6 -16.219 -5.61096 18.1795
3582 7 -10.8408 -7.38086 10.1031
2756 6 -15.6636 -3.4526 9.27564
2082 7 -18.0141 -7.79636 19.3827
3501 7 -11.1799 -3.86 11.0401
3587 7 -12.8637 -6.39393 15.3906
896 6 -16.5304 -7.90902 17.1401
2830 7 -17.6709 -6.13232 15.1647
2757 6 -13.6681 -2.41767 10.0776
3488 2 -18.0366 -1.50548 14.6023
887 6 -13.1914 -4.24266 19.9454
885 6 -14.1007 -5.12337 19.2887
3424 6 -13.4434 -3.69756 15.4336
3421 2 -11.9497 -5.78633 15.2459
3306 2 -10.0959 -4.07957 10.9131
3638 7 -17.9412 -2.64035 14.6305
1049 7 -17.1498 -5.16961 17.8658
3588 7 -14.252 -4.33878 15.0708
3425 6 -12.5927 -1.68318 16.5329
3585 7 -11.9209 -5.36402 13.1702
1064 7 -15.8287 -6.83449 10.8981
3307 1 -9.89292 -5.35545 10.1485
1066 7 -14.5492 -6.42021 12.0687
891 6 -15.7776 -6.87551 17.8539
894 6 -13.853 -8.51574 17.775
3423 6 -13.5825 -2.36502 15.8046
2758 6 -14.4753 -3.54048 10.0038
2912 7 -18.0785 -2.43215 7.6274
1048 7 -15.8345 -3.75034 19.0377
3593 7 -14.8421 -1.71873 18.4668
3417 2 -10.1519 -8.08641 14.3767
2829 7 -18.1062 -3.63677 11.5586
906 6 -14.2872 -8.40951 11.3117
946 7 -10.7321 -8.03899 6.93699
2672 6 -18.2259 -5.64746 14.3834
3589 7 -10.1563 -3.82666 15.8542
2675 16 -16.2946 -4.56151 13.3406
1063 7 -16.4668 -7.95932 12.609
3426 6 -11.1792 -3.35529 15.8179
3422 6 -12.2022 -4.24663 15.4814
912 3 -14.7454 -7.00096 11.1733
3427 6 -11.2764 -2.00046 16.2936
1065 7 -14.1974 -6.47732 10.3806
960 9 -12.6607 -7.16742 6.1789
3436 18 -15.17 -1.80094 15.9132
3310 14 -11.9309 -5.74929 8.78942
3416 1 -10.9048 -7.23795 13.3102
3583 7 -11.5531 -6.13225 11.2073
886 6 -11.9961 -4.73045 20.4593
932 16 -14.7588 -7.92066 8.38515
1085 9 -14.7328 -7.83624 7.42998
2906 7 -16.3859 -4.26492 9.34372
911 3 -15.6528 -8.44092 13.3068
3504 7 -10.732 -3.67664 7.16501
890 6 -14.4247 -7.27411 18.1839
3308 6 -10.6706 -5.14549 8.94761
892 6 -15.4185 -4.72859 18.8274
2670 6 -17.6163 -4.74909 13.4032
914 6 -13.7679 -8.76346 8.85545
2907 7 -12.7899 -2.40996 10.7566
744 6 -10.2194 -7.49343 6.15089
2860 7 -12.5221 -1.5027 7.38485
2761 4 -17.185 -1.82251 7.90187
3579 7 -10.819 -8.45968 15.2029
264 9 -16.0976 -8.29898 6.03479
1050 7 -13.0236 -8.8796 18.2972
1042 7 -13.9643 -8.68264 20.6631
234 7 -18.0677 -4.26817 20.5708
2632 6 -15.1076 5.10427 -3.8211
3714 22 -11.0588 3.79407 1.00409
3447 2 -10.3023 5.43993 -9.02704
231 8 -14.3236 2.414 -7.82223
2630 11 -16.6704 4.73003 -5.56267
3443 6 -10.5396 2.92082 -8.96743
2639 16 -17.8579 2.0103 -5.83783
2688 1 -13.9614 -1.03399 3.73312
2627 6 -15.7142 3.83812 -3.56593
320 7 -14.202 2.86675 2.08651
2849 7 -14.2232 0.0258907 3.9716
316 7 -16.5646 1.96901 1.44334
2808 7 -14.7638 3.0387 -1.75371
2705 6 -10.8418 5.96449 4.82691
3446 2 -11.2991 4.20376 -9.02758
2631 6 -15.6923 5.6311 -4.99725
2854 7 -14.6722 0.402685 0.865353
2629 6 -15.4012 2.86606 -2.62945
2816 9 -17.8702 1.06585 -5.83462
2774 7 -11.4225 1.02829 1.67718
2578 2 -11.6439 0.953075 0.561546
2861 7 -10.7575 1.04467 4.63721
2707 6 -10.1665 4.83001 4.31917
3603 7 -9.87154 5.62288 -7.97074
158 6 -17.8033 3.16413 0.343925
154 6 -18.18 4.4397 -0.153488
2706 6 -10.3391 3.58194 4.80467
2844 7 -16.3721 -0.466227 2.11821
2638 3 -13.2508 5.37795 -2.04087
165 6 -13.6568 4.96041 2.13346
156 6 -16.2347 5.35958 0.97244
321 7 -12.6602 4.91482 2.64312
36 11 -14.8311 3.23711 -8.17502
2809 8 -16.6982 4.55914 -6.53127
2773 7 -12.1465 1.84591 0.170425
2841 7 -18.2132 0.537019 3.6355
159 6 -16.7121 2.99458 1.15399
2840 7 -16.1882 1.33349 4.91402
3676 22 -10.1835 5.15734 -3.52662
3712 21 -10.9787 4.50543 0.0912601
2843 7 -15.7465 -1.29209 -0.222996
3713 22 -10.8985 5.21677 -0.82151
2577 6 -10.7112 -0.0582169 -1.4689
2806 7 -18.3752 -0.0681043 -3.92406
3743 21 -13.1017 2.46176 -4.83434
2576 6 -10.4329 0.444089 -0.245897
2814 7 -14.0001 5.07492 -1.30982
2624 6 -16.8151 1.41653 -3.83779
157 6 -15.8336 4.0898 1.38354
2857 7 -11.8931 -0.514985 3.15338
164 6 -14.5259 3.91933 1.96236
2580 6 -12.9462 -0.378221 -1.00297
2777 7 -12.3124 -0.0963326 -3.03382
155 6 -17.2736 5.52286 0.0567316
14 6 -15.914 3.12158 -9.08371
3745 22 -13.3902 2.84275 -5.89129
2682 4 -18.1148 1.5272 3.92917
217 7 -16.0321 1.05613 -8.62465
3744 22 -12.8132 2.0808 -3.7774
2622 15 -16.6898 -0.771609 -4.9548
2805 7 -16.9323 -0.565749 -3.02282
2807 7 -15.6133 0.9369 -2.0416
2855 7 -13.6907 0.836536 2.14163
2776 7 -12.328 1.3143 -1.94732
2579 1 -12.6704 -0.208931 0.46089
2581 2 -12.0813 0.220666 -2.01227
2813 7 -12.7162 4.41093 -2.31415
2620 16 -12.8961 -1.11412 -5.84836
2691 2 -13.8456 0.0154923 1.41997
2681 4 -17.0337 2.01509 4.62656
2626 6 -17.0246 2.34374 -4.84846
2679 2 -17.1832 3.46548 5.01534
2625 6 -16.5432 3.59422 -4.68853
37 16 -14.8523 5.95886 -8.77213
230 8 -14.2433 4.05818 -8.24211
2628 6 -15.9788 1.688 -2.77484
3601 7 -12.0264 4.32644 -8.13462
3600 7 -9.93017 3.40906 -7.00776
2623 2 -17.2653 -0.0149812 -3.89933
2853 7 -16.6941 -1.24747 4.82985
3445 6 -9.81904 2.67294 -7.80419
2838 7 -16.4686 3.94636 4.34446
2698 6 -11.2309 0.956122 5.59492
2635 6 -13.9434 5.77712 -3.29844
2583 15 -9.93832 -1.20887 -3.46087
2692 2 -12.4179 -1.28016 3.72447
2582 14 -13.8121 -1.32882 -1.39175
2687 1 -14.347 -1.2187 2.24367
2775 7 -12.1316 -1.09121 0.838455
2815 7 -12.4857 6.08292 -1.58835
2863 7 -9.71943 2.81434 4.12511
2704 6 -11.9296 5.68642 5.65996
2862 7 -13.0379 5.26303 7.97376
222 7 -18.0764 0.102115 18.3096
221 7 -17.0484 -0.549895 19.4425
3590 7 -12.0847 0.126808 19.3058
2703 6 -11.9594 4.4492 6.34419
3658 22 -15.4793 3.87884 11.8156
3437 3 -14.2925 -0.814499 18.3186
3594 7 -14.0791 -0.440572 19.3542
2709 3 -13.2323 3.21436 9.67304
717 7 -11.8418 4.22912 17.2494
707 7 -15.9309 4.67984 17.2867
2731 3 -17.3987 4.58038 9.35462
706 7 -17.427 2.99618 15.5345
3595 7 -14.9185 -0.00993503 17.94
2837 7 -17.0842 3.73839 6.03891
563 2 -14.9736 3.38274 15.8743
3442 6 -10.5708 2.08093 19.7862
2699 6 -11.5224 2.09762 6.36139
583 10 -10.6064 4.50705 13.6588
19 2 -17.8026 0.194858 19.378
3635 7 -13.4662 -0.387278 14.0505
715 7 -13.876 2.98475 17.6729
2697 6 -12.2119 1.97563 7.59103
714 7 -15.5067 2.49572 16.1731
2867 7 -12.6384 2.61147 10.3829
2696 6 -12.3002 -0.450282 7.1467
2911 7 -15.0816 0.597856 7.3013
719 7 -13.5834 5.88481 17.7437
2701 6 -12.5027 4.39667 7.6195
2866 7 -14.2041 2.78757 9.63179
3429 6 -11.9029 -0.358169 18.3316
3485 6 -14.4888 -0.301223 13.7319
3602 7 -11.9324 4.17451 19.907
9 6 -17.6792 4.11098 19.3678
708 7 -14.3205 5.67934 14.8248
3438 6 -9.70534 0.923082 19.7706
2882 7 -17.5942 4.12087 10.37
3636 7 -14.041 0.971755 12.0096
2870 7 -14.3804 5.63227 6.6513
2755 6 -15.1628 -1.13658 8.61391
11 6 -17.3607 1.63538 19.5725
559 1 -15.6592 4.66243 16.2105
566 2 -13.3794 5.664 16.652
3634 7 -16.3365 0.728312 11.0262
2708 18 -13.1125 0.258378 9.60134
15 6 -16.0316 5.60766 20.492
720 9 -12.1342 2.30503 15.5444
558 6 -16.9645 4.93324 15.2886
567 16 -12.8922 2.0648 16.0691
3430 6 -10.253 -1.2052 16.8274
564 1 -13.621 3.15844 16.5484
367 6 -10.0159 5.85836 9.95186
3483 6 -16.7823 -0.944384 13.9217
557 6 -17.838 3.90283 15.073
2753 6 -13.9837 -1.23884 9.37253
2910 7 -15.9752 0.795767 8.7695
2695 6 -12.4736 0.613269 8.03997
2883 7 -17.2436 3.84599 8.60367
716 7 -12.3297 4.45835 15.5112
3657 21 -15.216 4.98583 12.041
10 6 -18.1259 2.78893 19.1062
2865 7 -13.259 4.21374 10.0356
2760 2 -15.7035 0.0937781 8.03958
4 6 -18.4202 5.17033 18.9636
381 19 -11.3265 4.82154 12.5495
2702 6 -11.2572 3.38016 5.85061
565 2 -12.675 4.34412 16.4979
3482 6 -17.0739 -0.357245 12.6715
2700 6 -12.602 3.1849 8.25523
12 6 -16.4797 1.86387 20.6123
3431 6 -10.5787 -0.394488 17.9079
3486 6 -14.7713 0.351751 12.5369
3639 7 -18.1204 -1.17164 15.6059
3484 6 -16.0676 0.341672 11.9863
3428 6 -12.9608 -0.937738 17.6584
3481 6 -15.5488 -0.917642 14.4333
713 7 -14.8125 3.41411 14.8014
3659 22 -14.9527 6.09285 12.2664
2694 6 -11.6718 -0.255465 5.96287
3598 7 -11.2513 2.25011 18.8971
2881 7 -16.4314 5.13465 9.35933
13 6 -16.4599 4.28855 20.1636
3489 4 -18.4706 -0.601822 12.4245
2759 4 -16.971 -0.522415 7.52982
560 1 -14.6011 5.73315 15.8931
2909 7 -17.9038 -0.0361051 7.14818
584 9 -9.84131 4.71668 11.4498
620 9 -12.3327 11.843 -8.68208
612 7 -12.2131 13.353 -3.75061
436 16 -12.8775 11.4766 -7.94566
2869 7 -11.2798 9.36978 4.22173
606 7 -10.9824 12.3937 1.94371
409 6 -15.5057 11.718 -6.04334
418 15 -14.3517 13.4827 -0.457565
421 4 -13.0481 11.3444 -0.189935
163 6 -14.1068 6.25592 1.8707
3608 7 -10.8557 9.26803 -5.65354
3455 6 -10.3453 8.382 -7.6148
613 7 -12.3599 13.7937 -2.13231
609 7 -12.8186 10.6715 -2.27866
334 7 -18.0823 6.91981 3.70219
3647 22 -13.5879 12.1158 5.11217
317 7 -17.4753 8.03042 -3.5266
2711 6 -12.4654 8.16151 5.54505
2713 6 -11.3132 8.3663 4.77025
3675 22 -10.11 7.47591 -3.56499
414 6 -16.7599 11.7775 -2.65226
327 7 -16.7322 9.01259 3.85597
610 7 -14.4358 10.3887 -1.48543
417 6 -14.2235 13.1664 -2.97553
325 7 -16.5511 10.2747 1.46426
603 7 -16.717 12.4709 -0.657458
407 6 -16.4656 11.42 -5.2021
2636 6 -13.5025 6.94054 -3.84685
435 13 -14.2388 12.8152 -8.96235
413 6 -16.2079 12.4857 -1.66024
169 6 -13.9871 8.56193 2.63359
404 6 -16.4525 10.7116 -7.88529
412 20 -13.923 12.6327 -5.48295
2712 6 -10.53 7.2905 4.39976
166 6 -15.9533 7.71937 1.57525
599 7 -14.3474 9.36655 -9.0054
170 2 -15.9405 10.1231 2.33387
406 6 -17.5555 10.323 -7.04512
3606 7 -11.9498 7.05541 -9.26242
172 2 -18.1657 10.4953 3.43938
605 7 -11.5276 10.1477 0.601487
2871 7 -13.2062 10.1632 5.36878
424 3 -13.3252 10.3758 -1.25923
2634 6 -14.1172 7.49373 -4.99277
434 5 -14.0663 11.9579 -8.2342
330 7 -18.2733 11.5944 3.37972
168 6 -13.387 7.34746 2.40371
399 15 -16.5327 10.1515 -9.20085
326 7 -15.29 10.9591 2.45959
416 6 -14.9541 12.561 -3.93187
314 7 -16.4574 7.27207 -0.80053
604 7 -17.7385 11.2767 -2.47906
324 7 -13.3758 9.44298 2.99504
167 6 -15.2623 8.77216 2.16088
607 7 -12.1478 11.5356 2.92891
3607 7 -11.0833 7.55576 -7.41087
422 2 -11.9451 11.9247 1.92355
153 6 -17.2499 6.53422 -0.875424
408 6 -15.3 11.4746 -7.36252
423 4 -12.8598 12.9976 1.3639
328 7 -16.2276 10.5959 4.39966
2812 9 -13.0515 9.00478 -4.80214
2811 7 -12.6535 7.41555 -3.3459
3623 7 -10.4449 11.4556 -1.69225
319 7 -17.2365 8.60537 -1.87453
2637 16 -13.5595 8.6056 -5.5025
611 7 -12.9199 9.43218 -0.983206
2633 6 -15.1798 6.74791 -5.5418
405 6 -17.6004 10.6368 -5.70447
2868 7 -9.75022 7.46086 3.6399
3674 21 -10.1467 6.31658 -3.54577
2810 7 -15.7104 7.16058 -6.45244
323 7 -12.375 7.09077 2.72933
411 6 -16.1044 11.8721 -3.93758
419 4 -13.4619 12.63 0.144582
171 2 -16.7414 10.0489 3.63851
331 7 -17.9546 11.8733 1.14289
415 6 -14.9211 13.1412 -1.67192
420 4 -12.1574 11.0301 0.806776
322 7 -17.059 7.82118 1.47739
161 3 -17.9895 8.02261 -2.54404
162 6 -15.456 6.45916 1.40634
232 9 -14.9509 6.91191 -8.65216
601 7 -18.3954 9.7158 -7.34636
3646 21 -12.7204 12.8381 5.37947
152 6 -18.1779 6.65911 -1.89012
3456 6 -10.2799 9.33409 -6.58464
3648 22 -11.8529 13.56 5.64671
386 6 -13.3512 10.1254 16.9806
600 7 -12.9363 9.23896 19.861
366 6 -10.8851 6.75092 10.7034
596 9 -10.7867 11.8512 7.89488
2710 6 -12.7572 6.80705 5.93312
368 6 -11.0149 8.06412 10.3205
380 6 -10.6359 9.79604 8.59588
710 7 -15.2227 7.3574 17.1825
218 7 -16.5207 7.67142 20.3747
2714 6 -14.0249 6.64126 6.45811
3605 7 -11.4466 6.34406 19.1787
2717 6 -14.6204 8.9388 6.34302
2715 6 -14.8778 7.69805 6.78825
2873 7 -16.2943 6.33283 7.7042
2718 2 -16.1513 7.38485 7.57796
400 11 -11.6317 12.857 11.2896
2716 6 -13.3914 9.15115 5.77761
597 9 -11.8414 8.84687 17.063
2874 7 -16.9825 7.83424 6.91155
373 6 -11.5012 9.11213 11.1428
2721 6 -18.42 6.9323 9.10902
594 8 -11.2627 12.9167 10.3451
569 6 -18.2306 13.3538 9.65114
387 6 -15.2376 11.6419 17.0167
389 6 -15.037 11.7822 15.6455
390 6 -14.759 10.303 18.9712
711 7 -16.0681 7.76456 14.3672
1582 6 -10.9841 12.3188 18.3874
379 6 -11.1724 10.7899 9.30506
397 2 -18.0907 11.9264 19.4223
709 7 -14.5598 7.92129 15.7064
376 6 -11.779 11.1161 12.9351
383 2 -11.9157 9.6953 14.9387
726 7 -18.374 13.0695 6.94669
1740 7 -11.4069 11.2913 18.3541
393 6 -16.8056 11.6326 18.7541
3459 3 -9.94358 7.30291 17.556
1580 6 -10.7103 13.0615 19.5306
370 6 -10.5402 8.44358 9.10253
378 6 -11.6117 11.5325 11.6338
2720 2 -17.3175 7.54222 9.91802
561 2 -15.2168 7.13972 16.1031
2878 7 -17.7144 8.30232 10.5542
587 7 -14.0582 11.2436 13.8812
571 6 -17.294 13.1883 8.69705
372 6 -11.5864 7.4574 12.9346
388 6 -14.0495 11.0876 15.0118
375 6 -11.9121 9.8426 13.4026
3449 6 -10.0953 7.89705 19.889
392 6 -16.3537 12.2261 17.6133
215 7 -18.4071 8.5246 19.2647
588 7 -15.6216 12.4458 14.9749
580 7 -11.7529 7.21292 13.983
2719 2 -16.1662 8.01526 8.97778
384 6 -13.1451 10.2808 15.6541
581 7 -11.9081 11.8492 13.769
374 6 -11.6752 8.79203 12.4994
712 7 -17.0266 8.30399 15.6674
2879 7 -18.4183 9.5662 9.03276
586 7 -11.6665 8.68627 15.2558
573 6 -17.9639 12.9463 10.9919
598 7 -14.3039 8.21052 19.4573
394 2 -17.2613 13.1137 16.8232
2876 7 -16.1429 9.1435 8.93985
585 7 -11.001 10.2243 15.3255
718 7 -12.7755 6.51789 16.3069
385 6 -14.4407 10.7099 17.673
2872 7 -15.456 9.58413 6.35552
556 6 -17.3596 6.24754 15.0021
2877 7 -16.9373 6.87937 10.6665
377 6 -11.4719 10.4708 10.6858
403 3 -14.0076 9.2262 19.85
402 16 -12.4177 9.3435 17.6837
577 4 -15.3969 12.2835 7.9101
562 2 -16.4743 7.43203 15.3201
6 6 -17.9939 6.42987 19.3614
576 2 -17.4638 13.4707 7.26418
1581 6 -10.8471 12.9012 17.1136
724 7 -16.6132 11.9239 12.3659
2875 7 -15.2405 7.71904 9.48905
572 6 -15.8832 12.0099 10.4159
722 7 -15.0179 11.3568 10.6552
725 7 -15.7855 12.648 5.80878
574 6 -16.8915 12.1719 11.3311
401 16 -11.2256 11.9892 8.70088
371 6 -11.2007 6.49542 12.0449
728 7 -14.4345 11.696 7.87356
582 7 -10.2386 9.96005 7.60239
589 7 -17.9348 12.3573 16.323
391 6 -16.0417 10.7163 19.4638
595 8 -11.2043 13.4431 11.9828
570 6 -16.1071 12.5038 9.09005
3609 7 -10.9916 7.36005 17.17
1739 7 -11.0932 12.298 16.2647
3448 2 -10.9997 6.70515 20.109
575 4 -16.1468 12.8031 6.84475
593 7 -17.8417 12.4193 20.3303
16 6 -16.8087 6.61675 20.0942
1733 7 -9.83366 12.6857 14.793
369 6 -9.87285 7.481 8.29471
2425 7 -18.4605 10.2682 13.8702
3611 7 -9.67922 6.2701 17.6785
1738 7 -11.0727 12.5213 20.4672
2386 2 -5.09354 -23.7691 3.98757
2161 7 -3.16047 -19.1743 -7.37831
3479 16 -8.49803 -19.5559 -2.46894
1111 2 -7.34003 -19.6749 4.11231
1645 6 -3.2586 -19.4887 2.20617
2548 7 -4.08132 -20.0787 -1.67797
2958 16 -1.35704 -20.5356 -3.45255
1106 6 -8.46288 -23.1732 4.92038
1103 6 -7.53336 -20.9128 4.98054
2000 6 -2.97956 -21.1761 -9.2396
3618 7 -7.94919 -23.2408 -5.18596
1804 7 -1.66313 -17.6731 -1.89326
1314 7 -6.46311 -19.0496 4.46604
3148 7 -1.79061 -23.3037 0.445225
2152 7 -2.29594 -20.7054 -8.51212
3560 7 -8.72904 -19.6742 -5.45044
3150 9 -2.26026 -20.9946 -3.51281
2167 7 -4.1199 -17.5394 -5.39884
2538 7 -4.99208 -22.959 3.28962
1644 6 -1.9159 -19.3278 1.69932
1641 6 -2.37663 -20.5489 4.14955
3475 2 -8.49589 -21.9392 -3.09052
3471 1 -8.36643 -23.4218 -2.6118
2008 6 -4.39318 -19.2121 -9.18508
1806 7 -6.68401 -17.5316 1.52788
1116 6 -8.91719 -18.617 2.50204
1651 1 -5.44093 -17.3413 -0.278104
1798 7 -5.34765 -19.0695 1.83817
1112 6 -8.59521 -18.9373 3.83424
1799 7 -5.93999 -18.109 -0.919307
3763 22 -1.14392 -19.8033 -6.41717
2544 7 -4.99059 -21.6798 -6.46553
1315 7 -8.36005 -19.0147 1.66158
1649 6 -4.32104 -18.7788 1.52773
1313 7 -7.06456 -20.0498 3.13336
2542 7 -4.43005 -20.1105 -4.47227
3629 7 -8.17223 -20.6673 0.143037
2392 6 -4.72546 -21.1782 -4.34097
1648 6 -2.8926 -17.9623 -0.114434
2390 6 -4.62683 -21.7419 -3.02085
1472 6 -1.17069 -16.4728 3.24405
1637 6 -1.11513 -20.5212 3.61333
3559 7 -8.34934 -18.9724 -7.80684
1647 6 -1.84277 -18.5944 0.539909
3477 2 -8.68933 -21.2337 -0.614392
2011 6 -3.92477 -18.601 -8.00739
2012 6 -4.45668 -17.4205 -7.51095
3472 1 -9.04688 -23.7838 -1.34386
3627 7 -7.05331 -20.9773 -2.0831
1802 7 -4.21762 -17.4399 -2.76602
2394 6 -4.75047 -22.0163 -5.43583
2395 4 -4.31677 -22.155 -0.823062
2393 6 -4.97792 -23.3765 -5.23748
1646 6 -3.55453 -20.2852 3.35058
1643 6 -2.6536 -20.7143 5.54717
2168 7 -2.59001 -17.0269 -6.37304
1650 6 -4.21395 -18.052 0.373256
2397 4 -4.37529 -21.1269 -1.80469
3476 1 -8.17185 -20.8705 -2.06372
1796 7 -4.58648 -20.4012 3.67175
3626 7 -7.92976 -21.5389 -3.95549
1309 7 -8.36571 -21.7649 3.22068
2391 6 -4.77519 -23.1154 -2.81785
1104 6 -8.10142 -22.0001 4.26988
3149 7 -1.9205 -23 -2.84208
2545 7 -3.71367 -21.8624 0.111741
1114 6 -9.44672 -18.4019 4.77262
1083 7 -7.02637 -16.6631 5.43374
3630 7 -8.89372 -23.0079 0.751102
2954 6 -0.97102 -22.6781 -2.38186
1654 2 -2.51229 -17.1352 -1.30141
2018 2 -3.69959 -16.943 -6.26103
2539 7 -6.14934 -23.8591 4.18753
3478 2 -8.46922 -22.7837 -0.260188
2396 2 -4.61072 -23.5191 -1.38418
2014 6 -5.42485 -16.7194 -8.23499
1807 7 -8.28909 -16.7281 -0.315004
1653 2 -3.79893 -16.709 -2.09618
2951 3 -1.26953 -23.79 1.28679
3401 6 -9.319 -18.8791 -7.34342
2385 2 -4.22226 -23.7395 5.20402
2536 7 -3.1818 -23.7339 4.85758
3625 7 -9.54629 -21.6433 -3.36364
3632 9 -7.82126 -19.2202 -3.04032
3619 7 -7.33877 -23.7886 -2.40625
3147 7 -1.8708 -23.7748 2.13487
1655 2 -6.41908 -16.7459 0.747035
3631 7 -7.3857 -23.0278 -0.235197
1461 6 -1.94366 -17.0669 5.45339
1671 7 -2.93365 -16.7464 5.11635
3402 6 -9.6016 -19.3258 -6.07186
2389 6 -4.95812 -23.9129 -3.94809
2013 6 -5.77807 -17.2226 20.3733
3389 16 -9.59107 -17.2963 13.5645
1105 6 -8.14996 -23.3849 6.28399
1565 6 -7.22631 -18.8813 10.3658
2002 6 -4.13058 -20.5281 20.2326
1312 9 -4.48051 -21.5732 11.6665
1308 7 -5.91209 -19.3059 6.52239
2006 6 -6.16951 -22.1416 16.8078
2007 6 -6.43692 -20.8556 17.2945
1101 6 -7.36839 -22.3636 6.97186
1571 6 -9.48611 -22.1348 13.1468
2009 6 -5.32694 -18.4578 19.9214
2160 7 -6.61876 -18.5509 18.2493
1557 6 -5.54281 -18.5341 13.4088
1747 7 -1.20055 -17.3428 14.5718
2001 6 -4.88148 -21.1209 19.1968
2010 6 -5.92343 -19.0314 18.8238
1795 7 -3.6677 -20.6942 5.98373
3554 7 -9.30176 -19.7928 17.4445
3392 6 -9.62073 -19.1481 19.4985
2159 7 -7.19838 -20.308 16.7453
1588 4 -1.39271 -18.1072 15.3786
3388 6 -8.59608 -16.6324 15.6952
1996 6 -5.08418 -22.852 17.3704
1570 15 -9.07031 -21.7849 11.887
2177 9 -7.4396 -21.8043 15.3651
1457 6 -1.66844 -17.3052 6.757
1097 6 -7.00105 -23.9045 10.3134
1813 9 -1.12541 -21.3572 8.1854
1109 19 -4.5071 -19.2863 8.73142
2005 6 -5.7578 -20.334 18.4387
1566 6 -8.24683 -19.9015 10.5832
1590 4 -2.18891 -18.9879 17.3002
1730 7 -7.19512 -18.1751 9.53618
1559 6 -4.98481 -18.2845 14.7162
1564 6 -6.36132 -19.3754 12.6542
1586 4 -2.37895 -18.0096 16.3299
1585 2 -3.49931 -17.001 16.2927
1573 6 -9.47862 -23.4903 13.433
1994 6 -4.48211 -22.3282 18.555
2024 16 -6.98996 -22.5344 15.7428
1130 16 -8.97708 -18.5724 6.15548
1562 17 -5.65772 -17.6295 11.2304
1099 6 -5.48559 -20.6179 8.02898
1096 6 -6.90077 -22.6005 8.26648
1664 6 -1.38639 -19.3417 11.947
1732 9 -8.82025 -19.5944 8.82084
1670 7 -2.50829 -17.2074 7.51556
1660 16 -1.91828 -21.0664 7.66429
1110 16 -4.63762 -21.2381 10.7781
1731 7 -7.22512 -21.1799 13.6208
1306 7 -5.86687 -23.1327 11.9549
1093 6 -6.1067 -23.1018 10.8608
1744 7 -4.18892 -17.2815 17.03
1749 7 -2.94178 -19.2404 18.0342
1558 6 -5.11943 -17.6101 12.5717
1667 4 -1.67929 -22.6797 13.3123
1642 6 -1.52532 -20.8966 6.33711
1561 6 -4.11331 -17.2597 14.9321
3393 6 -9.39368 -18.9749 18.1366
1100 6 -6.20726 -20.2574 6.89397
1568 6 -8.16298 -20.7515 11.725
1995 6 -3.46764 -23.0833 19.091
1311 10 -4.5708 -18.07 8.08937
1820 7 -3.36689 -21.2436 13.0554
1814 7 -2.36 -18.8737 11.7209
1729 7 -5.16152 -18.9338 15.5372
1569 16 -9.03002 -20.1904 9.52296
1669 4 -2.32622 -21.4914 12.9577
1563 6 -6.48737 -18.7764 11.4587
1098 6 -7.33173 -23.7689 8.94842
1567 6 -7.25227 -20.5013 12.7491
1662 6 -1.31848 -20.6413 12.5076
1095 6 -5.51284 -22.0727 10.1164
3391 6 -9.50515 -17.6517 17.5934
1094 6 -5.91644 -21.7943 8.77021
1102 6 -7.04624 -21.1871 6.28854
1556 6 -4.31742 -16.5569 12.5376
1589 4 -0.987897 -19.6445 17.031
1999 6 -2.73978 -22.4501 20.1483
3390 15 -9.4768 -17.5978 16.2614
1737 7 -9.35604 -21.9779 17.8526
3386 6 -8.68609 -16.5022 14.2924
1082 7 -5.39041 -16.764 6.0693
2156 7 -4.89567 -23.7001 14.8267
3553 7 -9.3652 -20.0949 20.0683
1325 9 -9.68762 -18.5476 6.79668
2162 7 -6.55023 -16.7191 19.7682
2537 7 -4.48782 -22.845 5.8588
2183 7 -1.49653 -16.8066 20.2099
1817 7 -2.19504 -23.5322 13.8539
1073 7 -6.24611 -16.4838 8.35552
2151 7 -1.77801 -22.8355 20.4734
948 9 -4.48249 -9.27464 5.39427
1080 7 -4.73928 -14.6302 4.84411
1521 6 -1.16965 -10.2593 4.97649
2184 7 -2.72697 -12.983 -8.67575
2037 7 -3.02856 -10.7219 -4.7073
2169 7 -7.87845 -16.2402 -7.00729
1519 6 -1.86281 -11.1976 4.25276
1358 7 -8.48252 -10.7585 3.8321
1518 2 -2.22597 -11.0553 2.80542
1708 7 -2.98712 -12.9838 4.22337
2170 7 -8.13973 -15.6241 -8.58142
1699 7 -5.95601 -10.9267 1.65705
2019 2 -7.56676 -15.4458 -7.6499
928 1 -6.60241 -14.1398 3.85817
2015 1 -6.05864 -15.4267 -7.72015
2033 4 -2.06935 -13.8735 -8.86287
1706 7 -3.22142 -11.6244 2.6443
1812 9 -7.86793 -14.3582 1.20563
1659 16 -8.32044 -15.1852 1.08655
1834 6 -1.92823 -11.9458 -3.36749
1078 7 -8.34093 -13.0711 4.51099
1808 7 -6.61069 -14.192 -0.377547
2020 1 -8.00326 -14.0357 -7.19611
2042 7 -2.24425 -9.23322 -6.18378
2173 7 -7.72386 -12.3873 -5.83682
931 16 -5.95122 -13.3578 2.86551
1805 7 -5.78252 -16.014 1.25596
1857 16 -1.39299 -13.9299 -1.44971
938 6 -8.40255 -9.90635 -2.64034
1517 2 -1.36406 -11.7444 1.70956
1086 7 -8.30278 -11.1237 -0.937863
2172 7 -7.84799 -14.0544 -5.15447
1079 7 -7.31347 -14.8065 3.33519
1674 7 -2.19024 -16.2071 2.87368
1707 7 -2.38089 -9.98707 2.57417
2165 7 -3.592 -15.0188 -5.19577
2163 7 -5.61977 -14.6037 -8.37711
1657 2 -7.09242 -15.0183 -0.899844
2051 8 -3.96693 -12.0599 -3.16039
1081 7 -5.24219 -15.8275 3.67028
646 7 -5.685 -9.76698 -6.48004
2166 7 -3.55602 -14.9594 -6.90465
648 7 -4.63928 -11.5028 -8.11952
927 2 -7.38077 -13.3351 4.9264
2175 7 -5.23751 -12.9763 -6.0823
1856 11 -3.13572 -12.5133 -3.04017
2052 9 -1.06789 -14.1453 -0.561222
1510 15 -2.14881 -9.99772 -0.701808
1523 6 -2.46911 -12.2733 4.8852
2176 9 -9.58309 -12.8334 -7.80512
1088 7 -7.3534 -9.82819 -2.66788
1810 7 -5.71143 -14.8051 -2.53655
2016 1 -5.54506 -15.184 -6.27476
1514 2 -5.56164 -10.2427 0.868227
2171 7 -7.44846 -13.5998 -8.12876
1658 2 -6.09157 -15.6272 -1.86679
937 6 -9.22832 -9.35288 -3.57543
1809 7 -7.97369 -14.6472 -1.56204
1511 4 -3.3303 -9.7555 -0.00879007
936 6 -8.94022 -10.6074 -1.58065
1705 7 -2.07572 -12.1523 0.897907
1831 6 -1.03949 -10.0803 -4.75393
1084 9 -5.95848 -12.4285 3.0961
1800 7 -4.45518 -15.3835 -0.651664
1688 9 -1.41643 -15.6789 0.970471
1656 1 -7.62436 -15.9994 0.152693
2022 2 -5.91962 -13.7538 -5.71575
2164 7 -6.07468 -15.9638 -5.6795
2021 2 -7.37271 -13.4766 -5.91134
929 2 -5.65785 -15.1622 4.45976
1700 7 -4.39944 -11.6243 -0.493136
1652 1 -4.89289 -16.2309 -1.18596
2174 7 -5.76325 -13.6935 -4.63874
2017 2 -4.04311 -15.4688 -6.0837
1515 4 -4.38906 -10.6914 0.117005
656 7 -9.34707 -16.314 -4.19541
486 6 -7.1738 -9.22413 -7.86183
2050 8 -3.08571 -13.2673 -2.3519
1832 6 -2.03785 -10.933 -4.31698
490 6 -5.51307 -10.843 -8.34799
488 6 -6.01344 -9.8937 -7.5096
1698 7 -6.33742 -9.95376 0.057565
1355 7 -7.78799 -9.17226 2.80342
2023 16 -9.35516 -13.5568 -7.17741
1507 6 -0.98748 -9.82188 0.00635318
1077 7 -6.82137 -12.3919 5.17445
1839 2 -1.3041 -8.95261 -5.71847
1801 7 -3.44625 -15.9234 -2.81169
1182 3 -9.55627 -10.6993 3.64785
1803 7 -2.04121 -16.1991 -0.885545
1180 6 -8.66718 -8.9735 2.16354
2178 7 -0.949794 -12.8286 -6.37405
2043 7 -0.9333 -10.8526 -7.51035
2026 6 -1.05108 -14.2875 -7.97176
1811 7 -6.5644 -16.4165 -2.4556
930 2 -6.14129 -16.049 5.67381
487 6 -7.70641 -9.47882 -9.12575
1512 4 -4.90053 -8.95787 1.33343
1548 6 -2.21665 -13.8256 8.05663
485 6 -7.14633 -10.3248 19.832
484 6 -8.74802 -10.1134 17.9709
3545 7 -3.90402 -11.3155 9.87748
3369 6 -5.79542 -11.0494 10.9738
924 1 -6.60342 -15.0281 6.69731
3567 7 -1.48599 -14.3041 16.5503
921 6 -9.5302 -12.6604 6.81519
3574 7 -8.50965 -11.102 12.1084
1529 15 -2.96199 -13.4245 6.95441
3387 6 -7.60905 -15.8944 16.3489
3368 6 -5.04582 -9.54985 9.15799
2181 7 -2.73257 -14.5313 19.0632
3406 4 -1.66906 -12.1441 16.834
1072 7 -5.67034 -14.5036 6.87177
923 1 -7.75158 -14.2123 6.13029
3379 6 -4.93422 -13.3761 16.6386
3549 7 -5.21625 -13.5667 17.6971
3404 16 -2.8389 -11.2426 14.6217
1071 7 -8.4751 -14.9667 5.73127
642 7 -8.76196 -14.013 17.8953
2031 4 -2.0568 -14.6926 19.9193
1551 6 -0.923983 -14.6521 10.4392
3370 6 -4.81776 -10.7459 9.98321
1555 2 -4.12116 -15.6845 11.2888
1522 12 -1.45449 -11.5832 6.96665
1560 6 -3.75977 -16.3803 13.9308
920 6 -8.28716 -13.6579 8.57841
1549 6 -2.29771 -14.513 10.3744
942 7 -6.42257 -9.83446 6.49693
1076 7 -7.21243 -14.9278 10.0116
922 6 -8.49192 -13.4132 7.23045
2032 2 -1.07985 -15.829 20.0769
3548 7 -4.56817 -10.9948 12.637
3405 2 -3.04569 -11.8759 17.3208
3580 7 -8.81547 -9.75316 14.7535
1554 15 -3.11333 -14.7074 11.4979
3367 16 -4.84131 -8.95017 14.0279
1725 7 -3.95887 -14.1695 9.11296
3384 6 -6.78951 -14.9813 15.6074
3375 2 -4.66241 -12.0917 12.5526
3563 7 -3.34476 -10.8166 17.24
3385 6 -7.98301 -15.5568 13.5476
3550 7 -8.02004 -15.489 12.4067
481 6 -8.8135 -12.9072 17.7726
3377 6 -5.77408 -13.9828 15.6937
3562 9 -2.33462 -10.9793 15.4476
3349 15 -4.10225 -9.35684 8.16425
3374 15 -5.7471 -12.253 11.6881
3564 7 -3.19536 -12.23 18.3152
925 2 -6.98061 -15.7072 8.02143
1550 6 -2.89936 -14.1986 9.2004
644 7 -8.69406 -9.0862 18.2993
3383 6 -7.14095 -14.8858 14.3711
3380 6 -3.77412 -12.1653 14.9439
3378 6 -5.57059 -13.5214 14.4549
1714 7 -1.15847 -10.1896 8.87827
3371 6 -6.85986 -10.2079 11.1729
482 6 -7.80119 -10.8503 18.6707
3414 2 -7.73714 -10.3488 12.3667
641 7 -7.2258 -12.8664 19.1956
1743 7 -3.24344 -15.9998 16.6443
3575 7 -7.07259 -10.7451 13.1296
480 6 -7.84855 -12.2488 18.487
1069 7 -8.89737 -13.3683 10.5731
3381 6 -3.94452 -12.5532 16.2493
3408 4 -1.01059 -13.3565 16.4868
943 7 -8.56016 -9.20071 7.43769
3382 17 -6.42757 -14.0445 13.5019
919 6 -9.1047 -13.1028 9.50497
926 2 -7.11319 -14.5031 9.03846
489 6 -5.9926 -10.9867 20.2277
1584 16 -2.81081 -15.3808 14.1552
1524 6 -2.27812 -12.4655 6.26238
3547 7 -3.75306 -12.3056 11.9729
1742 9 -2.59562 -15.3366 15.0793
3418 2 -9.26548 -9.26272 13.8462
3373 6 -7.10552 -9.12122 10.3646
1075 7 -6.17594 -13.915 9.00385
3376 6 -4.70031 -12.7261 13.8722
1727 7 -4.97914 -15.0634 10.953
647 7 -5.5717 -11.8562 19.6199
3413 1 -8.30036 -8.97108 12.7599
3551 7 -7.44976 -15.8143 17.4666
3533 7 -2.6408 -9.31002 12.0508
1074 7 -7.97109 -16.1881 7.82308
645 7 -8.63442 -8.92887 20.4584
1728 7 -3.87841 -16.3639 10.4298
3520 7 -1.25832 -5.10024 4.04993
1024 7 -3.95769 -2.73836 -5.45737
1030 7 -6.9915 -2.62757 -7.83891
1710 7 -1.37552 -8.49229 3.79553
1025 7 -5.08986 -2.05133 -8.26886
754 6 -4.08319 -4.06904 -0.26317
1356 9 -7.47104 -7.23623 -0.250693
3319 6 -4.66753 -2.15855 5.19097
770 6 -2.58508 -2.68916 -2.68297
3539 7 -1.85335 -6.70856 -8.71957
1023 7 -2.25478 -4.03302 -6.56184
3325 6 -0.992276 -2.12162 4.24929
3365 16 -4.40701 -7.33195 -8.1901
763 15 -2.03338 -4.67463 -1.29978
1038 7 -9.17283 -3.7672 -5.97929
868 1 -6.48385 -3.82761 -6.10992
1035 7 -4.57109 -4.34405 -4.56342
769 6 -2.25592 -1.76609 -3.62258
1178 6 -8.69877 -8.22063 0.990342
749 6 -5.45016 -3.90729 -0.374479
732 6 -8.17549 -6.78304 4.97551
731 6 -6.09568 -8.04443 5.30096
750 6 -6.26351 -3.03076 0.463732
737 6 -8.89624 -5.82953 4.30369
867 1 -5.08865 -4.25785 -6.45976
873 2 -8.87782 -4.74689 -5.5957
1701 7 -2.38691 -7.36418 2.05579
735 6 -6.14084 -5.92362 4.0794
1703 7 -2.17006 -7.05543 0.284491
944 7 -6.2122 -4.1404 2.89915
869 2 -6.94626 -2.53049 -6.74588
1039 7 -8.76433 -4.75309 -4.52771
3318 6 -6.92957 -1.46503 5.20143
1022 7 -3.11269 -4.36709 -8.0154
748 6 -7.62131 -3.35892 0.629209
745 19 -4.47142 -6.01203 3.80904
649 9 -8.51507 -7.882 -7.3354
965 7 -3.70542 -2.70693 -2.44351
1028 7 -5.12085 -4.71946 -7.46191
766 16 -5.68028 -2.04488 1.24481
755 6 -3.43362 -4.79577 -1.28059
746 16 -4.82598 -8.37968 5.08441
768 6 -1.65543 -3.6628 -2.18877
1036 7 -7.77575 -4.9239 -7.55186
2041 7 -1.4378 -7.99897 -5.28595
1181 16 -7.50382 -7.59019 0.677545
961 9 -6.23744 -2.11355 2.02613
767 3 -3.24923 -3.26885 0.646205
761 2 -3.18818 -6.4731 -3.17261
951 7 -9.23546 -4.64073 -0.0594147
757 6 -4.08712 -5.55999 -2.18911
3323 6 -3.26551 -2.23087 5.02492
954 7 -6.90254 -6.95266 -3.20374
1697 7 -5.28262 -8.22821 2.01377
762 14 -4.0111 -8.5475 -4.22149
1037 7 -7.0663 -5.89982 -6.30021
747 2 -8.44896 -2.91798 1.738
1029 7 -6.57952 -3.65471 -5.06763
824 6 -1.23086 -2.7649 -9.00228
950 7 -9.30139 -2.19624 1.39222
760 6 -4.10318 -7.25771 -4.02088
956 7 -2.57306 -5.84893 -3.88686
752 6 -8.19578 -4.27682 -0.191106
864 1 -4.15007 -3.05033 -6.52479
952 7 -8.15817 -5.69951 -1.81081
953 7 -6.8966 -5.2622 -3.70134
1702 7 -3.6861 -6.57784 1.14648
1516 3 -2.92549 -7.35714 1.09184
739 6 -8.995 -4.04928 2.59591
872 2 -7.53445 -4.95465 -6.45512
964 7 -3.7171 -3.33208 1.61937
955 7 -5.73817 -7.14456 -5.41251
751 6 -6.1241 -4.72466 -1.2723
1034 7 -3.63636 -5.50946 -5.54187
738 6 -8.26915 -4.9155 3.45914
756 6 -5.45283 -5.45737 -2.26978
753 6 -7.53001 -4.94519 -1.19127
736 6 -6.8388 -4.89709 3.40344
758 2 -6.24478 -6.05856 -3.45713
947 10 -3.90986 -4.87449 3.42607
759 1 -5.27386 -6.47732 -4.60753
871 2 -4.62379 -5.15935 -5.28353
957 7 -2.60252 -7.08237 -2.50006
962 7 -3.14774 -2.19392 0.319343
949 7 -7.82351 -2.34922 2.50278
863 2 -2.93491 -3.49738 -7.28791
1031 7 -7.97659 -2.35456 -6.47942
963 7 -2.17735 -3.55897 0.653142
491 16 -7.69631 -8.34737 -6.95094
3540 9 -3.91859 -6.83909 -7.53177
825 6 -2.27412 -2.3937 -8.13298
730 6 -6.80148 -6.96781 4.68323
865 1 -4.76668 -1.80987 -7.16991
3326 6 -2.29069 -1.61454 4.12203
870 2 -5.98859 -1.46046 -6.37493
1513 4 -3.68012 -8.65067 0.726488
2783 7 -7.6658 -2.19257 -2.83355
1033 7 -5.73321 -1.46209 -5.31718
1087 7 -8.78862 -8.89616 -4.4734
3106 6 -4.71716 -3.82821 15.8787
3115 16 -8.4472 -6.53351 17.8844
3100 6 -3.08338 -2.96493 13.7923
3321 6 -5.06452 -3.01399 6.12262
3252 7 -6.22996 -2.69121 12.3153
3258 7 -4.36662 -2.14196 17.8245
3528 7 -3.01227 -7.48016 6.67794
3372 6 -6.17948 -8.8117 9.37447
3265 7 -8.13534 -4.70944 19.9803
3262 7 -6.99417 -5.60948 15.91
3257 7 -3.72789 -2.68816 19.3785
3348 16 -6.52533 -3.57724 9.18999
3532 9 -6.41369 -4.35501 9.69653
734 6 -8.81737 -7.58647 5.93764
3363 6 -1.96658 -6.94005 18.947
3111 2 -6.61499 -5.3975 16.9119
3361 6 -4.65449 -7.65964 19.3304
3340 6 -2.00479 -7.44105 10.3697
3093 6 -2.93395 -1.98479 11.5522
3360 6 -2.66378 -7.52841 17.9496
3346 5 -6.43401 -4.10333 7.87148
3256 7 -4.75002 -5.04608 18.6828
3113 2 -7.25955 -4.97646 19.3352
3591 7 -8.66928 -2.33856 15.7929
3341 6 -1.41892 -6.48667 9.51159
3264 7 -6.71093 -5.84015 19.7895
3324 20 -3.92157 -4.03671 7.0902
3359 6 -4.01307 -7.85624 18.1626
3094 6 -2.29121 -2.4126 12.7456
3544 9 -4.97309 -8.37798 13.2794
3110 2 -2.81223 -3.46046 17.5216
3254 7 -6.32403 -3.77894 14.4718
3342 12 -2.85452 -8.34864 9.89983
3303 6 -8.80899 -2.08004 7.94861
3355 6 -2.41797 -7.87365 16.5927
3576 7 -9.18833 -6.31951 12.4287
3103 6 -2.59216 -3.03647 15.0887
3343 6 -2.72201 -7.45631 7.71575
3328 6 -2.77734 -3.11045 5.91734
733 6 -8.10963 -8.65084 6.63921
3344 6 -3.18942 -8.37109 8.60597
3412 1 -9.17165 -8.39448 11.7218
3105 6 -5.24791 -3.64682 14.6141
729 6 -6.7935 -8.88808 6.21548
3102 6 -5.0782 -2.71216 12.429
3578 7 -9.40742 -7.47685 14.8708
3097 6 -4.29735 -2.09735 11.4864
3320 6 -6.28836 -3.25336 6.68812
3571 7 -8.88438 -8.09108 9.60394
3500 7 -9.46188 -2.36173 12.8372
3411 2 -8.23766 -8.13391 10.5086
3570 7 -7.86901 -7.1453 10.6753
3503 7 -8.88494 -5.52289 9.96263
3534 7 -3.71164 -7.78152 12.0712
3114 2 -6.25422 -3.87545 19.359
3546 7 -6.38164 -7.88627 8.84221
3259 7 -2.33288 -4.44645 17.6628
3354 6 -3.65997 -8.53041 14.6346
3357 6 -1.32616 -7.6041 15.753
3109 2 -3.96439 -3.05989 18.338
3537 8 -5.50881 -8.17468 16.6938
3353 6 -3.58608 -8.37211 16.0134
3107 1 -5.72702 -4.16877 17.0008
3338 2 -1.02812 -5.66032 7.14158
3329 6 -1.51253 -3.53491 6.21733
3347 13 -6.34969 -5.26627 7.76554
3573 7 -7.55892 -8.20542 13.0076
3351 2 -2.74027 -8.24728 12.3654
3352 6 -2.60088 -8.27809 13.8162
3104 6 -3.4218 -3.40578 16.1362
3311 15 -8.67128 -2.42063 6.61328
3527 7 -1.22801 -6.02029 6.1225
3263 7 -8.41385 -4.52617 17.5308
3356 6 -1.40831 -7.8577 14.4039
3364 6 -2.43958 -7.0011 20.2184
3358 11 -4.57815 -8.43329 16.9846
3260 7 -2.10646 -2.55397 17.6799
3261 7 -5.96569 -6.20338 17.307
3112 1 -7.75885 -5.2807 17.8624
3108 1 -5.12568 -4.07055 18.3805
3255 7 -6.42871 -3.29192 16.8343
3101 6 -4.43255 -3.25689 13.5943
3253 7 -1.58728 -2.64473 15.2876
3524 7 -1.79901 -4.05276 8.29096
3337 2 -1.09404 -4.19218 7.42938
3350 15 -1.72585 -7.49281 11.6748
3339 6 -1.79831 -6.53848 8.16201
3267 7 -6.74043 -2.9881 18.9089
3316 6 -7.29206 -2.37346 6.1813
3538 7 -5.76841 -7.82002 19.4139
3266 7 -5.92433 -3.70988 20.3933
3268 9 -8.23794 -6.96305 18.7366
3362 6 -3.79429 -7.36961 20.4033
3505 7 -9.22448 -4.69278 7.335
3299 6 -9.17747 -1.76507 10.7146
3434 6 -8.93723 -1.49593 16.5308
3305 6 -9.4231 -3.0885 8.68577
3301 6 -9.18458 -1.55188 12.1439
3304 6 -9.52884 -2.97994 10.0892
3502 7 -9.68621 -3.99143 11.8886
3086 6 -2.20184 -1.39083 10.5137
3099 6 -4.97563 -1.34513 10.4543
3592 7 -6.90505 -1.47025 17.0966
2359 6 -2.03679 4.82365 -0.952515
3599 7 -8.4668 1.23173 -6.87321
2360 6 -1.57203 3.57146 1.05603
2587 3 -7.27672 -1.16104 -2.67026
2354 2 -4.24378 3.60971 -3.62795
3513 7 -7.81488 -0.835185 4.8329
1021 7 -3.35645 5.49715 -7.17414
2560 6 -5.12357 3.23457 3.23336
2351 6 -4.88317 3.85134 -4.97381
2556 6 -6.42381 4.54581 0.10084
2509 7 -4.84552 2.7819 -3.24711
823 6 -2.67526 -1.05948 -8.13527
3514 9 -4.5271 -0.467409 3.39021
2562 6 -5.38621 4.23638 4.14825
2347 6 -6.37732 4.09323 -7.3555
2764 7 -6.1693 3.77714 -0.588828
968 7 -1.61871 0.812963 -5.6621
2565 19 -7.42549 5.65832 -2.14126
1027 7 -4.42463 0.164249 -7.88569
3597 7 -6.82558 0.38129 -8.36846
2864 7 -9.50387 5.01349 3.4764
2573 6 -8.75241 0.953433 1.48162
2769 7 -4.66504 1.36999 1.71566
856 16 -0.939741 3.54939 -8.98403
2371 6 -1.5994 4.75196 3.1671
2568 6 -6.51699 1.48503 0.747623
866 2 -3.83387 -0.610448 -7.3068
2356 2 -1.52732 3.57892 -3.25503
2559 6 -5.48505 3.36122 1.93491
2781 9 -5.08149 1.42011 -0.974732
2574 6 -8.35404 -0.457823 -1.81846
2520 7 -1.87099 0.976114 1.80369
2571 6 -9.10078 0.528799 0.193288
2512 7 -2.50332 3.01464 -4.961
2355 2 -2.85033 2.98888 -3.90736
2575 6 -9.69416 -0.575382 -2.22048
3516 7 -2.63646 -1.1652 3.15818
3439 6 -8.81257 0.837927 -8.96632
2361 6 -1.32235 2.47808 -1.05758
3645 21 -8.65751 2.95704 -3.36677
2572 6 -7.5008 1.4542 1.70582
1032 7 -6.41106 -0.475679 -6.59302
2770 7 -4.70823 2.43016 0.257965
2586 16 -5.77699 0.96253 -1.46232
2567 2 -5.23133 2.10369 1.16107
2557 6 -6.2466 5.56585 2.24924
2765 7 -4.62598 2.29552 3.56003
2510 7 -4.3073 4.42398 -2.96148
2569 6 -8.03591 0.312159 -0.693856
2353 6 -5.11779 2.74499 -5.78263
2346 6 -6.08359 5.25754 -6.56491
2570 6 -6.76899 0.95742 -0.498399
2511 7 -2.88813 1.927 -3.46096
774 16 -3.24634 -0.826193 -3.91161
826 15 -2.35129 1.2796 -8.72522
2357 6 -1.63799 3.62379 -1.73498
2523 7 -1.50651 4.73008 4.2534
2350 6 -5.28678 5.05255 -5.42513
2771 7 -7.23435 1.69556 2.73696
2369 6 -2.29258 5.88248 2.60924
2352 6 -5.73656 2.90022 -6.96696
2358 6 -2.02127 4.75006 0.45145
3444 6 -8.99806 1.56201 -7.79031
2555 6 -6.98783 5.71321 -0.459169
2772 7 -9.45136 1.06516 2.39369
966 9 -4.07383 -1.23785 -3.576
2507 7 -5.84309 2.03551 -7.62707
2514 7 -1.32552 4.66401 -3.46138
2517 7 -1.79897 0.327055 -1.52293
2362 6 -1.3221 2.43048 0.316266
2363 6 -2.49797 5.97223 -1.60758
2558 6 -5.99455 4.54516 1.4117
1026 7 -3.37548 -0.267736 -6.35828
2349 6 -6.88287 4.1662 -8.64743
2365 6 -2.41523 5.87415 1.22196
3322 16 -5.43918 -0.536045 3.57193
2508 7 -4.59148 1.79293 -5.54287
821 6 -1.91544 -0.0456162 -8.77123
2561 6 -5.98897 5.47735 3.67592
2368 3 -1.14676 1.0798 0.97663
2370 6 -1.41591 3.59087 2.49129
2584 11 -5.04614 4.00268 5.57013
3317 6 -5.69737 -1.32615 4.60019
2522 7 -1.33421 0.184304 0.449368
2782 7 -7.06107 -0.617791 -3.6657
2506 7 -5.19188 5.91082 -4.69578
2541 9 -1.01018 1.80247 2.68754
2767 10 -6.89621 4.63486 -2.81841
2367 3 -1.01146 1.16964 -1.71858
3441 6 -7.54665 0.278281 -9.18467
2784 7 -6.2601 -1.25546 -2.1691
2515 7 -2.50331 6.05867 -2.70705
2505 7 -7.13822 3.25486 -9.18965
831 6 -3.0397 5.72664 18.8563
3283 6 -4.70258 3.90896 10.3567
828 6 -2.89345 3.02726 19.5933
3277 6 -1.03952 3.37495 9.88067
833 6 -2.16056 5.32091 19.8537
382 16 -9.62729 4.6585 10.4993
1004 9 -8.65286 2.07498 16.0894
827 2 -2.78524 1.54903 19.7807
3506 8 -5.78971 -0.353005 15.6978
3499 7 -8.95566 -0.130176 13.7626
847 6 -6.28606 5.87724 13.7273
3290 6 -5.01683 0.79701 14.2115
3090 6 -2.08798 0.00713365 8.53976
830 6 -3.86117 3.5867 18.7787
837 6 -6.51197 2.74989 17.0842
3435 6 -7.89913 -1.12063 17.3275
3508 9 -1.53667 -0.27099 14.6088
1002 7 -6.40846 1.67489 17.1783
3509 9 -8.38458 2.52128 10.1312
3294 16 -2.55496 4.75218 8.69237
832 6 -1.97304 4.00061 20.1321
3289 6 -3.92474 1.3471 13.423
3250 7 -3.55978 1.57608 8.27944
3249 7 -2.08071 1.75581 7.22993
3507 8 -4.20596 -0.651378 15.6172
3297 6 -8.67574 -0.670196 9.90774
3284 6 -5.70039 3.60309 11.1795
839 6 -6.05753 5.68157 16.6899
3251 7 -6.07252 -1.26711 10.4131
838 6 -7.42345 3.6069 16.3678
3296 6 -8.46627 0.674677 11.8919
3492 7 -6.72958 3.79229 10.8517
3695 22 -1.20927 3.31895 15.2192
841 16 -8.57339 2.99574 15.8186
3300 6 -8.92685 -0.321807 12.6792
840 6 -7.18035 4.97324 16.1955
3314 16 -8.01203 1.68583 9.76258
3088 6 -2.843 -0.774277 9.45015
3278 6 -3.38247 3.43269 10.52
2779 8 -4.79239 4.80153 6.11415
3512 7 -8.39971 -0.00430831 6.50761
3498 7 -8.52866 2.18329 13.467
836 6 -5.15798 4.84994 17.5576
3596 7 -6.22341 -0.677123 19.1562
835 6 -5.6017 3.60466 17.4782
1007 7 -5.67135 5.19896 14.2893
3497 7 -8.35826 2.85461 11.8638
3510 7 -7.24432 0.662612 7.56296
3279 6 -2.29137 3.87073 9.67638
3312 11 -4.95098 -0.0205715 15.3291
3302 6 -8.58147 -0.83104 8.4792
842 15 -8.07022 5.7223 15.4382
3285 6 -4.16289 2.16967 12.367
3291 6 -2.56439 1.03676 13.7082
3511 7 -9.06211 1.01018 7.73379
999 7 -2.0519 1.11696 19.0189
3096 3 -2.75156 1.04699 7.73222
3295 2 -8.04196 2.01221 12.5216
3496 9 -1.75605 5.24892 8.50706
3248 7 -3.2009 0.430071 6.92245
1000 7 -3.70634 0.979664 19.7209
3694 22 -3.34391 3.77849 16.0028
3288 6 -6.31279 1.15229 13.8825
3315 3 -8.27768 0.265441 7.56155
3098 6 -4.24326 -0.774107 9.45532
829 6 -4.04095 4.86994 18.3832
3433 6 -8.14489 -0.377718 18.4368
3286 6 -5.49987 2.55869 12.1339
3298 6 -8.41213 0.545322 10.5268
3432 6 -9.47907 0.0656528 18.6853
3269 9 -5.84842 -0.314259 8.58072
3116 16 -4.92872 -0.19546 8.41898
834 17 -4.75094 2.5401 18.3278
3313 16 -2.37932 0.119638 14.7446
3280 6 -3.14547 2.57102 11.5711
2780 9 -5.36327 5.90344 6.01319
3293 19 -5.20628 4.67133 8.86835
3493 7 -7.09868 0.726055 14.4823
3287 6 -6.57311 1.96284 12.795
3282 6 -1.76712 2.20308 11.788
2348 6 -6.84308 5.38658 20.5796
3292 6 -1.52053 1.35678 12.8716
3495 10 -6.51226 4.94642 8.84366
3440 6 -7.15635 -0.12831 19.422
3693 21 -2.27668 3.54872 15.6111
2504 7 -7.17783 5.28537 19.5647
578 7 -8.81511 5.53933 8.14573
1008 7 -4.83218 6.06844 12.2671
3604 7 -9.42405 5.19179 20.1975
2778 8 -4.52031 3.14419 5.75996
2547 7 -3.67632 13.6524 -1.21505
2383 2 -4.02912 11.5352 5.238
2947 15 -1.03583 12.9451 -1.40041
2553 6 -7.77904 8.89091 2.12332
2341 6 -6.36126 6.53634 -8.62219
2342 6 -4.75971 8.45831 -8.75406
862 4 -2.57185 6.21781 -7.10719
2528 7 -3.70602 12.8438 2.86902
3466 6 -7.95602 12.8036 -7.27952
2378 6 -4.46032 10.2574 3.09354
3469 6 -8.47044 13.5686 -4.96979
2554 6 -7.013 7.82078 2.61262
2377 6 -3.93887 9.0788 3.54873
2376 6 -4.46327 10.3002 1.68878
3617 7 -9.57711 10.0776 -4.28564
3468 6 -9.27229 12.0604 -3.42366
2527 7 -5.9023 11.4327 4.21644
2533 7 -2.90971 11.6327 4.96381
2524 7 -2.89881 6.62009 4.43229
2501 7 -6.70747 9.99711 -3.16522
3461 6 -7.97038 11.7763 -8.21789
2330 6 -2.29037 11.1719 -6.41772
2763 7 -8.17434 9.67885 2.81675
2531 7 -4.47474 12.1146 0.283044
2496 7 -2.63286 12.7393 -4.9612
2338 6 -4.75124 8.45181 -7.30652
2344 18 -5.01127 12.1418 -3.57617
2551 6 -7.75481 8.00259 -0.125112
861 4 -2.25128 6.82097 -5.89756
2372 6 -3.41895 8.0478 1.40601
3450 6 -8.76742 9.68751 -9.00506
1323 8 -9.3606 12.7957 4.70036
2549 6 -8.08076 8.95767 0.792602
2333 6 -4.71542 10.105 -5.48142
2497 7 -2.22464 9.70662 -7.88205
2766 7 -7.20042 8.5895 4.61887
3621 7 -9.30824 12.268 0.0360033
2529 7 -5.68902 13.4969 1.32113
2503 7 -5.02014 9.94855 -2.67817
2552 6 -6.7303 6.75409 1.73785
2550 6 -7.14043 6.85522 0.376781
2345 3 -5.77592 9.36803 -3.25339
2379 1 -4.86521 11.3804 3.98139
2364 6 -2.99534 6.95581 -0.795848
2498 7 -6.76037 7.52486 -4.89618
858 4 -1.47514 6.5649 -8.04306
2340 6 -6.10109 6.4925 -7.22802
2374 6 -2.81614 6.86397 3.38123
2566 16 -8.19141 8.11371 -1.39631
2502 7 -5.87933 8.40324 -2.72172
2495 7 -1.30098 12.8095 -7.28093
2366 6 -3.02168 6.96519 0.621534
2526 7 -3.80353 8.95101 4.62943
1322 8 -8.80208 13.2226 3.27417
2516 7 -3.44662 7.8313 -1.28159
2530 7 -6.53965 12.3583 2.35103
2335 6 -4.10221 9.57376 -6.63213
2339 6 -5.58168 7.59398 -6.59816
3464 6 -9.21292 11.455 -5.76758
3457 6 -8.75625 10.6207 -8.00721
2337 6 -6.03242 8.10417 -5.36288
2336 6 -5.48547 9.21162 -4.68702
2331 6 -4.18556 11.2842 -4.93661
3465 6 -8.61574 12.6617 -6.03574
2525 7 -4.06326 9.48624 -0.136297
2332 6 -3.02792 11.8184 -5.42183
2564 6 -6.82589 7.70395 3.97765
2380 1 -4.72124 12.7063 3.18304
2329 2 -1.05964 11.7538 -7.01085
2762 7 -8.81617 9.73409 0.490667
2543 7 -5.19577 13.6985 -6.06835
2532 7 -6.00515 11.1528 0.374173
3473 2 -8.82586 12.5645 -0.908326
2381 2 -5.55344 12.587 1.94611
2768 9 -8.92587 8.7894 -1.38723
3622 7 -7.70335 12.3872 -0.738289
2334 6 -2.87158 10.127 -7.04006
2375 6 -3.88666 9.28047 0.92426
2373 6 -3.42652 7.97519 2.80815
2382 2 -5.14063 11.4683 0.935206
2563 6 -6.33194 6.5837 4.51375
3470 6 -8.83695 13.3297 -3.70508
3140 7 -1.37456 10.7965 -2.58127
1020 7 -2.92263 6.4755 -5.07518
3458 6 -9.38219 10.4318 -6.74591
1128 11 -9.20637 13.6115 4.15802
3624 7 -9.09135 10.5418 -1.91681
3474 2 -9.42058 11.6038 -1.97512
1017 7 -1.04151 8.71352 -5.71354
3467 6 -9.35722 11.1288 -4.42223
859 2 -0.94184 7.63813 -5.91027
3451 6 -9.66494 8.66365 -8.86404
2546 7 -5.46132 13.7193 -0.970233
3616 7 -7.31262 13.6968 -7.57332
1324 9 -9.54334 12.3431 5.54868
2405 7 -1.0965 6.48395 14.5748
3610 7 -9.32076 7.49361 16.6542
2406 7 -2.24093 6.68292 15.7988
2149 7 -1.95383 11.6219 19.2294
365 6 -9.48809 6.24908 8.76135
2416 9 -5.5661 11.8359 11.1865
579 7 -9.16319 7.82149 7.46907
2414 8 -5.79874 10.1007 13.2204
3615 7 -6.70646 12.8891 20.3851
848 6 -5.77811 6.37481 12.571
3454 6 -8.87234 9.36205 18.4034
3480 16 -6.88795 11.582 18.2721
1734 7 -9.2346 13.5409 12.6287
3613 7 -9.25871 9.32622 16.277
2194 6 -1.34346 9.07153 13.4393
1997 6 -3.69305 12.966 17.5
2585 16 -6.08698 6.60202 5.89024
2154 7 -2.84754 10.9299 17.4359
1310 7 -8.36395 12.1258 8.87883
2500 7 -5.82955 7.59323 19.3934
1006 7 -9.09542 7.65885 14.0899
1129 16 -9.28977 12.1862 6.49481
2199 6 -4.05674 11.2168 12.0582
2384 1 -4.42414 12.7463 6.09941
1013 9 -7.6437 10.4697 8.40606
2401 7 -4.09898 7.74929 15.1184
2387 16 -3.55093 12.7413 7.25765
2402 7 -3.86803 12.7528 10.761
1107 6 -8.46152 13.1904 6.9837
2197 6 -3.36507 10.2385 12.8716
2221 16 -5.43281 11.2532 11.9404
2003 3 -3.39968 11.6249 16.7957
1307 7 -7.40238 13.0649 10.989
845 6 -8.18182 7.28759 13.6601
2195 6 -2.11253 8.31068 14.3764
1005 7 -8.44761 8.44737 11.8966
855 16 -6.82652 10.2598 7.94966
2220 11 -5.48277 9.4994 13.9293
846 6 -6.51881 7.33856 11.836
2155 7 -4.26694 11.0295 16.4786
1010 7 -4.18282 10.2385 8.05121
1012 7 -2.81577 8.67306 9.29287
1009 7 -7.77837 8.63878 9.81514
2193 6 -1.96478 10.094 12.7447
854 6 -3.95005 8.70429 9.51465
2157 7 -6.13836 12.9737 15.5901
2198 6 -4.11059 9.41367 13.7387
1993 6 -3.02362 13.406 18.5958
850 6 -6.10947 9.54732 8.78501
2535 7 -5.47887 12.7785 6.40567
844 6 -7.77288 7.70224 12.3702
2004 3 -5.1069 13.2151 15.4851
1108 6 -8.0463 12.9836 8.28091
2158 7 -4.63403 12.3866 14.9864
1992 2 -1.86511 12.6649 19.2473
3612 7 -8.64663 10.821 16.839
1011 7 -3.80146 7.29528 11.0474
2153 7 -2.70639 11.7777 15.9848
3452 6 -8.3128 9.9951 19.5858
2196 6 -3.48002 8.38634 14.4152
851 6 -6.7168 8.68345 9.6791
2203 2 -1.50416 7.24816 15.2038
852 6 -4.70909 9.51417 8.73465
853 6 -4.51032 7.91171 10.4395
3614 7 -7.49988 9.3743 16.7129
2188 6 -1.21724 10.9547 11.9492
849 6 -5.91554 7.87358 10.6456
2200 6 -3.29549 12.0671 11.3214
2189 6 -1.0591 12.7682 10.4862
2415 8 -6.07552 8.65528 14.031
3460 3 -8.59965 9.75594 17.0245
3462 6 -7.4705 11.1382 19.4155
2190 6 -1.90258 11.984 11.3233
2407 7 -1.18903 9.67939 16.2924
1003 7 -6.05292 6.80144 16.6028
2150 7 -1.77822 12.9188 20.3636
2540 9 -4.1499 12.7282 7.97849
1016 7 -1.19077 7.21721 19.7476
843 6 -7.49065 6.29364 14.3198
3633 9 -6.17151 12.1403 18.6159
1001 7 -3.06562 6.7803 18.5889
2399 7 -1.49244 13.5988 9.90902
857 2 -1.24797 6.32804 20.384
3463 6 -7.27837 11.9538 20.4852
2343 6 -5.75181 7.61833 20.5196
2499 7 -4.32978 9.25105 20.5349
2534 7 -4.05652 10.5901 5.87192
3453 6 -9.57211 8.21985 18.6388
2146 7 -1.02145 13.6886 16.52
1998 6 -4.65936 13.6735 16.8878
1626 2 5.70531 -21.7701 3.93216
1638 6 -0.860033 -19.9646 2.39893
2969 4 4.78813 -16.5859 -4.4224
1786 7 3.59332 -23.465 4.30232
2481 7 2.02536 -22.697 -7.57892
1470 6 2.05194 -16.7485 1.56129
2962 6 1.55961 -18.5169 -2.67869
3151 7 2.64852 -16.7888 -2.94296
2279 6 4.75081 -22.5442 -8.66341
2977 6 6.10568 -23.0088 -0.743921
1464 6 3.03135 -18.0466 5.38404
3152 7 0.646436 -18.2862 -3.25662
1782 7 6.25125 -20.9055 3.48128
2322 2 4.18588 -22.3329 -7.32915
1625 6 7.7838 -23.0743 4.17664
3162 7 7.12889 -20.5031 -1.21703
1630 6 -0.0900923 -20.9282 4.47802
3166 7 6.09007 -23.3881 1.33389
3761 21 -0.23295 -19.1722 -6.07421
3163 7 6.07771 -19.9652 -2.44261
1628 2 3.32272 -22.4237 4.05773
1629 6 2.07218 -21.8713 4.63352
2483 7 4.11726 -21.2926 -7.02571
2321 1 2.85407 -23.1193 -7.03126
1678 7 5.46406 -18.5601 3.71362
3160 7 4.95685 -20.792 0.265777
3164 7 5.65011 -21.8631 -3.80186
2277 6 5.96759 -21.9322 -9.00985
2967 4 5.103 -16.4764 -2.99695
1465 6 1.4138 -17.2914 3.85499
1784 7 4.11933 -20.3934 4.19451
1781 7 5.5218 -22.4169 3.0743
2966 15 5.05276 -17.3864 -2.00451
1635 6 1.4433 -20.547 2.63568
1460 6 0.43031 -17.3585 4.81884
1469 6 1.13829 -16.7212 2.62569
3146 7 -0.397723 -23.2276 1.57573
2482 7 4.9599 -22.6644 -6.61889
3161 7 5.60949 -19.0919 -0.0577961
1788 7 0.689138 -19.3688 1.04821
2973 2 5.13503 -20.0025 -0.579553
2288 6 7.33368 -17.4754 -8.64752
2959 6 1.61817 -19.8861 -2.2056
2981 3 6.68324 -22.7974 0.630749
2952 6 -0.293186 -23.6502 -1.6251
2953 6 -0.576435 -21.3518 -2.66044
1636 6 0.449012 -19.9389 1.90316
2489 7 2.99081 -23.6326 -4.79752
1475 2 5.1643 -17.5681 3.23616
2284 6 7.62157 -18.8053 -8.0652
1631 6 1.13066 -21.1108 3.90709
2486 7 0.439755 -23.3192 -6.3868
2975 6 5.84894 -22.1036 -1.76005
2137 7 1.60442 -20.2341 -8.38928
1785 7 3.18426 -22.4598 2.92809
1787 7 2.50407 -20.4469 2.23406
2961 6 2.76716 -17.7663 -2.54845
3157 7 5.12471 -17.9107 -5.96386
1623 6 6.7158 -22.4078 4.82325
2979 6 5.72436 -22.5686 -2.97805
1797 7 -0.88673 -18.7394 -0.0943567
2980 6 5.6536 -23.9695 -3.30239
2965 6 3.8973 -19.5266 -1.37324
2488 7 2.24804 -22.1163 -5.24194
2960 20 3.01643 -21.8533 -0.797337
2972 3 4.39062 -17.7299 -5.21161
1466 6 2.73549 -17.6328 4.07018
3167 7 7.66579 -23.2643 0.61219
3159 7 4.19684 -18.7046 -4.71805
2957 6 1.32812 -22.0632 -1.55419
2282 15 6.58428 -21.1504 -8.08863
2964 6 2.72358 -20.1333 -1.53099
1627 2 4.38087 -21.396 4.53645
3158 7 3.36307 -17.588 -5.59524
1677 7 5.79665 -17.674 2.32444
1980 18 1.22857 -17.4976 -8.3385
2956 6 1.04366 -23.2997 -1.16614
1783 7 4.32752 -21.4006 5.64593
2974 2 6.09771 -20.6234 -1.52061
2955 6 0.78403 -21.0268 -2.23343
2963 6 3.91088 -18.2101 -2.01347
3165 7 6.78311 -21.807 0.931934
1673 7 4.17157 -16.9843 1.02673
2326 2 2.35969 -23.142 -5.53996
1467 6 3.71019 -17.4059 3.11214
2325 2 0.994852 -23.7924 -5.61626
2283 2 7.3594 -20.1039 -8.72097
1468 6 3.34375 -17.0348 1.84137
3762 22 0.677957 -18.5412 -5.73121
1462 6 -0.887089 -17.058 4.50698
1480 6 6.03898 -16.6532 5.45317
2463 7 7.64607 -16.9772 -0.207554
2487 7 0.424592 -23.6873 -4.679
1476 6 5.61101 -16.4771 4.12293
1687 8 2.22141 -16.9635 -0.496722
1672 7 4.06016 -18.3673 5.60618
2142 7 0.884015 -22.4047 17.0832
1768 7 3.41151 -18.9893 12.9481
2280 6 4.80744 -23.6982 19.1066
1790 7 1.94868 -23.4971 7.38351
1639 3 2.70895 -22.8344 7.00875
1601 2 5.26281 -17.011 12.3698
1778 7 6.13999 -21.6579 6.7665
2276 6 5.99312 -23.0548 18.7396
1974 6 3.54641 -19.123 17.1055
1474 16 -0.13391 -17.6078 8.46716
2135 7 5.12008 -17.8669 16.2617
1967 6 2.05334 -17.2707 19.9246
1986 6 1.5719 -23.094 16.5905
2134 7 1.74078 -21.6758 18.5174
1463 6 2.06924 -18.0049 6.38131
1973 6 2.18452 -20.6445 18.3648
1676 9 0.778555 -17.4732 8.61344
2136 7 5.809 -19.5247 14.643
1815 7 1.86919 -18.8541 10.9542
1632 6 -0.232924 -21.0629 5.85304
1970 6 3.48553 -16.7429 17.6857
1665 6 1.02146 -19.3299 11.5247
1789 7 3.29984 -22.2069 7.70671
1975 6 2.9561 -20.4007 17.214
1976 6 3.42197 -21.4291 16.3554
1633 6 1.92101 -22.0122 6.02408
1819 7 0.396625 -22.9553 13.9218
1984 6 5.14245 -22.1297 14.7119
2148 7 -0.250726 -23.6825 18.8713
1972 6 1.89334 -19.7184 19.3141
1793 7 1.88791 -21.1616 8.63072
2278 6 6.60382 -22.2609 19.6594
1622 6 6.78504 -22.371 6.20681
1608 6 4.85112 -22.3492 10.0143
1668 2 -0.169553 -22.7086 12.9921
1640 3 0.875295 -21.2883 8.22513
1634 6 0.839777 -21.4069 6.68523
1979 6 4.98845 -19.7775 15.3306
1602 6 5.15731 -18.4651 11.8176
1794 7 0.513911 -22.2726 8.80419
1610 6 7.26622 -20.8939 9.96137
1661 6 1.14587 -20.6327 12.0659
1969 6 2.32189 -18.4023 19.1209
2140 7 5.94902 -21.7502 14.1439
1982 6 2.86177 -22.6849 16.2468
1617 3 3.72504 -23.2834 10.1793
1679 7 6.23904 -17.7249 5.75301
1473 19 2.56395 -18.5434 7.96601
1611 6 7.04809 -21.9353 9.02715
1675 10 3.72978 -18.9834 8.0989
1792 7 0.288213 -20.3825 8.49953
1604 6 4.053 -19.3074 12.1092
1978 6 4.64587 -18.8462 16.2421
1746 7 -0.375834 -19.986 14.9184
2312 16 6.93697 -17.4406 19.9176
2257 15 6.48437 -23.3536 17.4907
1607 6 6.11571 -20.3167 10.5934
1663 6 0.000130623 -21.3253 12.5722
1587 2 -0.411297 -19.2443 15.6873
2281 6 4.24166 -23.5098 20.3254
1609 6 5.79243 -22.5424 9.0242
1769 7 7.05432 -18.3886 10.8808
3767 22 7.2473 -17.9543 14.7747
2478 7 2.16966 -23.8468 20.4342
2138 7 0.246526 -19.569 20.4201
1983 6 3.64018 -23.7294 15.6068
1774 7 2.69854 -22.944 10.0183
1605 6 5.0212 -21.1411 10.7908
1977 6 4.46736 -21.1072 15.425
2456 7 6.89342 -19.8339 20.1724
1603 6 4.02313 -20.6143 11.6738
1606 6 6.15996 -19.0116 11.0612
1616 18 2.60454 -21.4909 12.0844
1748 7 -0.816792 -20.4829 17.7282
1816 7 -0.166615 -17.737 11.0947
1745 7 0.663507 -18.8764 15.745
1971 6 3.10478 -18.0703 17.9838
1985 6 4.77335 -23.4158 14.8692
1666 6 -0.225274 -18.7416 11.5507
1791 7 3.38732 -23.5446 6.50094
1767 7 6.3558 -16.6469 12.1738
1770 7 5.66692 -23.3598 8.31487
1459 6 -0.331003 -17.5732 7.11516
1766 7 4.97885 -16.9637 13.476
2453 7 7.65526 -21.9771 19.5423
1764 7 3.42852 -16.557 11.2469
1458 6 0.734797 -17.636 6.12554
2470 9 6.89657 -16.5086 19.7123
2139 7 0.775724 -21.264 20.4357
1818 7 0.0425199 -23.5267 12.3408
1773 7 3.86657 -23.7406 11.1244
1981 3 1.07553 -20.2484 20.5071
684 7 6.14897 -23.7859 12.2651
1760 7 2.02284 -16.4525 13.2672
1618 6 7.81908 -22.966 6.96213
2252 6 7.80414 -23.5339 17.3185
1498 6 4.91301 -9.01367 2.79771
1689 9 5.59196 -13.9251 2.12657
1509 6 -0.561368 -10.6093 1.10653
1704 7 -0.857012 -12.6634 2.01923
2465 7 7.76099 -12.6048 -0.645181
2457 7 7.7506 -15.3787 -5.96156
1491 15 5.65165 -10.3937 4.61499
1829 6 0.465678 -11.3423 -3.32774
1528 16 2.79463 -13.2413 4.08429
1691 7 5.55889 -12.1641 2.10987
55 4 5.70671 -11.1515 -6.92401
1828 6 1.14395 -9.11107 -4.16361
1525 3 -0.608235 -8.91535 4.43728
1503 6 1.6059 -9.27503 1.09115
1482 6 6.03735 -12.6753 4.17448
1712 9 2.14125 -13.5993 4.63065
1830 6 0.174011 -10.1943 -4.07504
1504 20 1.11193 -11.3049 2.858
1826 6 1.97477 -12.5437 -1.88365
1823 6 4.04519 -10.7216 -2.33118
244 7 4.92746 -13.1355 -7.36795
1471 6 -0.164597 -16.2102 2.35707
59 4 4.66313 -12.088 -7.23701
1686 8 0.85874 -16.3069 -0.0519628
57 4 5.09313 -9.92481 -6.57679
2025 6 0.541882 -16.0203 -7.81651
56 4 3.74322 -10.1166 -6.93413
1835 6 -0.401174 -13.1513 -1.93989
1477 6 5.96805 -13.9931 4.58434
2971 4 5.43478 -15.125 -2.81009
1499 6 2.77173 -9.36737 1.84225
1508 6 0.708582 -10.1786 1.48946
2035 7 3.41442 -13.441 -0.472118
1495 3 6.40965 -12.3131 2.79079
1825 6 3.21395 -12.5818 -1.18835
2180 7 0.546612 -14.1589 -5.05522
239 7 6.84801 -10.0422 -8.80581
2464 7 7.47923 -14.5728 0.263587
1844 6 -0.259384 -10.0698 -7.77274
1500 6 3.43121 -10.8344 3.66876
2472 7 7.22926 -14.2012 -7.83285
1833 6 -0.630074 -12.1604 -2.89998
58 2 3.28974 -11.4492 -7.30073
1494 16 5.40341 -14.8281 2.32524
2311 16 7.281 -10.0546 0.493219
2038 7 1.01955 -13.9199 -0.526559
3153 7 4.58879 -15.0309 -6.05373
1845 6 0.570846 -10.097 -8.88789
252 7 7.45527 -9.21096 -3.51678
2030 6 0.341692 -14.4065 -6.05978
2968 4 4.97361 -15.2712 -5.0135
242 7 2.83077 -11.6594 -8.31171
3156 7 5.66555 -14.823 -1.79697
3154 7 4.95926 -13.3944 -3.91104
1824 6 1.73539 -11.467 -2.75715
1690 7 7.06075 -11.4046 2.89744
1838 16 5.18052 -10.0296 -2.66173
3155 7 6.70691 -14.085 -4.17031
49 6 7.64128 -9.80248 -8.13977
1478 6 5.70376 -15.1261 3.67283
2029 6 0.971265 -15.5157 -6.5814
1827 6 2.30802 -9.2565 -3.48429
1501 6 2.61174 -10.3211 2.76564
2970 2 5.58033 -14.2865 -4.00898
1692 7 7.15949 -13.0161 2.41072
1836 6 0.858159 -13.2838 -1.39339
243 7 2.46631 -11.8119 -6.61738
1822 6 2.74728 -10.4893 -2.89289
1492 11 1.80995 -16.4276 0.194943
1526 5 2.98376 -11.975 4.59813
1496 6 4.64151 -10.0756 3.68762
1821 6 4.28963 -11.8505 -1.54857
241 7 3.23347 -9.13087 -6.65109
2313 2 7.26912 -15.0177 -8.58488
54 15 6.99609 -11.5577 -6.7695
2034 7 5.29869 -12.0047 -1.17535
1843 6 1.45699 -8.98302 -9.13066
2469 9 7.25292 -9.44127 1.22969
1493 16 -0.506559 -15.4672 1.24653
1840 6 -0.357041 -8.98292 -6.92392
2289 6 7.55018 -16.3071 -7.94223
2179 7 1.80477 -15.8545 -6.06899
2028 6 -0.564817 -13.7534 -6.78058
2027 6 -0.463074 -15.4289 -8.508
1483 6 5.7721 -11.7039 5.06385
2040 9 4.91311 -9.38161 -3.30297
1709 7 0.349669 -8.95233 3.90251
2287 6 7.7725 -16.3159 -6.57061
2471 7 6.28179 -15.0787 -9.09419
1681 7 6.5275 -13.1861 9.09027
2128 7 5.39741 -15.0091 18.281
2131 7 2.89014 -13.7247 18.8738
1850 2 2.51482 -10.1379 18.676
1964 2 4.88212 -14.0494 18.195
2044 7 0.584661 -10.9202 20.2356
1851 1 4.04334 -10.6198 18.54
1717 8 1.96876 -10.0434 13.0665
1489 2 5.35893 -10.7854 7.29869
1962 2 6.97413 -13.8467 14.9592
1961 2 6.57731 -14.3226 16.3206
1758 7 3.81865 -15.0427 13.9313
1959 1 5.66771 -11.925 16.8127
1547 16 0.0354156 -10.5672 11.3443
1685 7 4.54971 -10.2459 6.8144
1532 6 0.780277 -9.38258 9.31583
1753 7 1.33986 -16.2854 11.1721
2129 7 5.11043 -13.5515 19.1243
1957 1 7.26027 -12.3957 14.8918
1481 6 6.28363 -15.627 6.35458
1485 6 5.65206 -11.9839 6.42159
1479 6 6.01812 -14.2856 6.02495
2123 7 6.17622 -15.3255 16.2579
1594 2 -0.273966 -14.9922 11.725
2045 7 2.19968 -9.7024 17.6543
2120 7 6.50418 -11.8809 17.548
1757 7 5.14298 -14.3262 11.8776
1486 2 5.67373 -13.3997 8.44827
2121 7 4.59671 -13.6737 16.0879
1534 6 0.816693 -9.65677 10.6931
1488 6 4.90541 -11.2081 8.69222
1965 2 3.33687 -14.2968 18.0839
1956 1 6.15611 -11.5425 15.4547
1553 6 -0.245417 -14.3216 9.261
3565 7 0.0924808 -13.0158 14.6177
1484 6 5.8726 -13.2422 6.9227
3568 7 1.41348 -11.025 16.0136
3566 7 1.20501 -13.5896 15.9347
2091 7 7.63475 -11.4718 10.6655
1713 7 0.198305 -11.3209 8.5294
1599 2 4.05463 -12.7161 10.3753
1596 1 4.11674 -14.7493 11.7973
2130 7 2.78074 -14.0408 17.1565
2116 7 5.26276 -11.5538 14.874
1848 6 2.38914 -9.03358 19.6742
3407 2 0.254943 -12.9895 15.7393
2126 7 4.27418 -10.2282 16.5896
1595 1 3.41762 -14.0235 10.6739
1756 7 3.73895 -14.5803 9.82681
1600 2 4.40468 -16.1202 11.4107
1750 7 1.77131 -15.2668 8.89067
1754 7 -0.324321 -14.142 12.4049
1751 7 1.57361 -13.4023 8.75748
2124 7 7.84082 -14.3154 14.4261
1682 7 5.54069 -14.4803 8.67275
1597 2 3.25228 -14.6924 13.0798
1680 7 6.51465 -15.9626 7.42785
1538 11 1.93263 -9.06573 12.8278
1968 6 2.36814 -15.9714 19.5706
1683 7 3.49799 -12.7881 8.40433
2125 7 6.12343 -13.8944 14.2214
1598 2 1.92231 -15.4402 12.9541
1552 6 -0.837106 -14.002 8.06412
1763 7 4.926 -12.5581 10.9505
1487 1 4.43037 -12.549 8.91725
1917 6 7.46485 -9.76234 14.2193
1592 1 1.86545 -14.1085 10.7313
1761 7 1.20838 -15.0302 13.7206
1591 2 1.27841 -14.331 9.32923
2047 7 4.18043 -11.2577 19.382
1759 7 3.02803 -13.6564 13.2145
1593 1 1.26285 -15.2545 11.5796
1726 7 -0.19726 -13.5461 7.27752
2122 7 7.34855 -14.458 17.069
2118 7 6.86517 -12.4795 12.7221
1958 2 7.69218 -12.1083 13.3932
1752 7 1.67881 -13.1149 11.1035
1530 15 -0.106088 -9.83304 7.12263
2046 7 1.92364 -11.0064 18.8504
2115 7 5.90988 -9.47469 15.6398
1966 6 3.03969 -15.6871 18.4369
1490 14 5.42867 -10.5944 9.70991
1852 6 4.90608 -9.38358 18.5188
1531 2 -0.135964 -10.2808 8.46238
2127 7 3.53018 -11.7182 16.7173
2114 7 7.42628 -10.1305 16.4304
3409 4 0.467396 -11.5684 16.1235
1762 7 3.47824 -11.8577 10.5775
1960 1 5.40345 -13.4817 16.8726
1854 14 6.1852 -9.54376 18.7946
1963 2 4.38985 -11.2081 17.1737
1684 7 6.11376 -9.97931 7.38381
1955 2 6.76998 -10.1148 15.5497
1755 7 -0.751598 -15.8247 12.2296
2132 7 2.20851 -15.1078 20.2879
2182 7 -0.311267 -15.8349 19.3021
3410 4 -0.686544 -11.1315 16.7499
2133 7 4.11966 -16.3269 16.8475
2475 7 7.70833 -12.5362 20.6258
1520 6 -0.876155 -10.6004 6.3109
1765 7 4.89897 -16.1551 10.4213
3569 7 -0.837775 -10.1024 17.0454
1724 9 -0.798106 -10.5427 10.8596
1533 6 1.64126 -8.91083 11.4702
1527 13 2.69398 -11.7824 5.69993
246 7 4.65986 -8.20736 -5.64111
1693 7 5.88449 -8.44284 2.89437
980 7 1.45783 -2.66903 -7.87492
798 5 0.894182 -4.57356 -2.16659
3231 7 5.0145 -2.07311 1.44051
1506 6 1.14471 -8.52113 -0.080211
94 6 7.48684 -5.53163 -0.229027
791 6 3.40816 -1.78638 -8.05811
3332 4 1.58486 -5.43325 2.42605
1846 6 2.27636 -6.76795 -8.41758
795 6 2.16286 -2.13077 -8.5439
104 6 6.81711 -5.22507 4.46132
3334 2 0.215742 -5.90182 2.52059
2056 7 2.461 -5.88871 -6.52309
1841 6 1.353 -7.84477 -8.33429
60 3 5.6197 -8.63096 -6.06244
3517 7 2.2105 -5.72321 1.57986
3327 6 -0.59225 -2.96713 5.26504
1696 7 1.70766 -7.70528 -0.569588
3523 7 4.04428 -4.34753 2.71773
3687 22 4.39477 -4.11224 -2.16771
1859 3 2.42271 -5.57674 -7.5325
790 2 3.7394 -2.20269 -6.65191
1502 16 4.27083 -7.73519 0.872461
3515 7 -0.311608 -1.83168 3.38146
776 20 1.72941 -2.53182 -3.84838
3335 4 -0.266709 -5.05028 3.64104
799 13 1.10448 -5.50142 -2.77482
3686 22 5.6791 -5.67883 -3.29849
984 9 0.618957 -3.98024 -0.342955
286 9 6.87169 -6.43514 2.91306
772 6 -0.228687 -3.59206 -2.56813
3720 22 7.74157 -4.48681 -6.89077
3519 7 -0.292107 -5.78272 1.56553
3518 7 0.192731 -6.96538 2.76081
3331 4 0.843732 -4.28777 4.18771
979 7 4.69635 -2.58031 -6.5301
2036 7 0.934219 -8.17881 -4.67213
98 15 7.50019 -3.98917 1.58144
773 6 -0.0722045 -2.61142 -3.53773
102 6 7.78334 -3.20407 4.5345
128 16 6.62566 -6.48496 3.86651
1842 6 0.395816 -7.84988 -7.26368
2053 9 -0.214957 -7.15045 -5.70755
2055 7 3.30925 -5.00161 -7.76091
978 7 3.13797 -3.08121 -6.3565
2054 7 1.56098 -4.85683 -7.55822
1694 9 5.16854 -7.55804 0.875874
3333 4 1.99054 -4.54665 3.40932
3522 7 3.41588 -2.8688 3.27811
3685 21 5.03696 -4.89552 -2.73308
73 15 7.71986 -7.20142 -1.92335
3336 3 3.36315 -3.9897 3.46137
1695 7 -0.503053 -8.28244 -1.47809
269 7 6.7627 -6.2231 0.335371
3330 15 0.769413 -3.38453 5.18296
2039 10 4.17626 -7.86336 -2.30237
105 6 6.20245 -4.99399 5.60581
800 16 1.18943 -4.57281 -0.825893
1858 16 0.239322 -6.79116 -6.47752
1837 19 3.30211 -7.84697 -3.35941
3521 7 3.87521 -4.04854 4.50286
998 7 -0.933422 -3.84089 -9.19072
3271 7 5.80997 -1.95667 -3.20195
100 6 7.79946 -4.35773 3.84559
771 6 -0.89606 -1.70228 -4.07941
247 7 5.98388 -8.00653 -6.88878
101 6 7.27439 -2.73856 5.60897
3230 7 5.61743 -1.78225 3.1559
3700 21 1.34621 -1.74453 0.831688
1505 6 -0.142238 -8.79279 -0.525824
1711 7 -0.575657 -8.17813 5.26775
3764 21 2.40235 -7.15921 4.8319
1497 6 3.9872 -8.66431 1.77873
93 6 7.81847 -4.29198 0.239253
976 7 3.83691 -1.4913 -4.53593
245 7 6.25551 -8.84142 -5.22523
1849 6 3.21264 -7.93088 19.4728
3536 7 -0.434547 -7.11119 16.1148
1860 6 3.96579 -5.00715 18.9534
2064 7 6.3036 -3.07677 12.109
1916 6 7.57091 -8.41343 14.0386
3083 2 1.77148 -2.03635 8.7706
287 7 4.43536 -5.51352 6.75775
3531 7 0.31432 -6.07078 10.678
129 2 5.36243 -5.97529 6.35371
3345 3 -0.485349 -5.49794 10.1775
3751 21 0.940832 -5.28598 13.2677
1862 6 2.80161 -4.87234 18.2314
3238 7 3.44614 -3.02528 7.77635
1872 6 5.50878 -2.33207 15.4962
130 4 6.00403 -6.53846 7.60942
1723 7 4.69538 -4.35846 11.5328
1715 7 1.66028 -8.26835 7.7647
820 6 -0.464276 -1.82266 20.2229
1867 6 4.22988 -2.57842 15.4505
1865 6 4.92152 -3.66094 17.3462
2049 7 4.96546 -7.2662 18.6404
1541 6 3.52612 -7.82966 14.3762
801 15 0.614435 -2.24194 19.4953
134 4 5.53542 -7.51675 8.5086
2060 7 2.47764 -2.08179 14.1307
1545 16 5.25427 -6.47504 15.4387
1722 7 4.74667 -5.45621 10.0159
1847 6 3.11528 -6.80324 20.3436
3239 7 1.36109 -1.94549 7.75731
133 4 6.49232 -7.68529 9.54644
3243 7 0.952505 -1.85781 11.8198
3542 7 -0.395017 -5.72887 17.9195
2090 7 7.2034 -7.75194 14.8001
3366 3 -0.594621 -6.37626 18.8728
3541 7 -0.485043 -5.68743 19.7373
1878 2 7.63678 -2.77198 10.1243
1868 20 6.65081 -2.94367 16.8122
3091 6 -0.153361 -1.97511 11.6566
1853 2 4.24443 -8.03189 18.491
1716 7 2.71042 -6.54512 9.16454
1720 9 4.95071 -6.81932 16.3062
1542 6 4.52141 -6.83999 14.3751
1855 15 3.98917 -5.75006 20.1472
1719 7 5.36143 -5.17167 13.3394
1537 6 2.23282 -7.44261 9.56036
2058 9 1.19134 -3.08747 16.2493
1864 6 5.19492 -4.31348 18.4777
1536 6 1.60554 -8.3962 8.80006
3543 7 0.109244 -7.18943 18.7949
1890 5 6.47025 -4.42904 19.0893
3535 7 -0.431293 -7.63818 13.8024
3240 7 1.3574 -2.96338 9.17786
1861 6 2.64095 -4.0816 17.0511
1879 4 6.85008 -2.38419 11.3864
1546 3 4.21249 -5.20985 10.9554
3237 7 3.81914 -2.4104 9.35547
2057 7 1.908 -5.14778 18.8346
1543 6 4.02725 -6.25075 12.0277
1540 6 3.15522 -7.29944 11.993
1535 6 2.29209 -7.7727 10.9273
1544 6 4.69847 -6.07089 13.2025
1539 6 2.93395 -8.0606 13.1521
1718 7 3.37065 -8.42716 15.2657
2063 7 7.00521 -3.20587 9.27798
2048 7 3.81214 -7.80852 17.5081
1863 6 3.88282 -3.42555 16.5886
796 6 1.81045 -1.90867 20.0114
293 7 4.67716 -8.16788 8.40416
132 4 7.23679 -6.02364 8.08992
1870 6 3.52456 -1.96518 14.303
1721 7 3.19632 -4.88544 10.6535
1866 16 1.4177 -3.98014 16.5102
103 6 6.34079 -3.73489 6.22605
1873 6 6.35164 -1.61176 14.7014
1892 16 7.02737 -5.69646 19.4051
3529 7 0.107044 -4.7533 9.57907
273 7 5.82638 -3.5975 7.24714
131 2 7.68767 -6.792 9.36828
108 6 7.73392 -1.43821 5.80023
3525 7 -0.164185 -3.84834 7.86368
3244 7 -0.350223 -2.70777 13.6009
1891 13 6.94706 -3.45712 19.5558
3526 7 0.0573596 -6.01869 7.31338
3082 2 3.30442 -2.17945 8.45977
292 7 6.42811 -8.47053 10.336
288 7 5.18713 -6.86004 5.76901
3092 6 -0.907856 -2.39854 12.7412
3087 6 -0.831686 -1.37596 10.5185
2076 9 7.6735 -5.89848 18.7433
291 7 7.78125 -5.25788 7.51339
240 7 7.87044 -8.07904 20.5671
3530 7 -0.834507 -4.92289 11.0925
794 12 2.67201 -1.38608 19.1684
3220 7 3.82819 4.54872 -0.747982
3226 7 4.76373 -0.335158 4.40822
3070 6 1.96095 3.21676 3.36011
787 4 1.83844 3.36697 -6.11459
279 7 6.78142 1.62432 4.57122
982 7 5.83581 -0.276864 -7.52715
3054 2 5.19092 5.68885 -4.23356
970 7 0.734641 5.19674 -6.10945
3057 2 2.35863 3.21559 -1.70059
797 3 5.64996 -0.556196 -8.58361
3053 2 4.57986 4.97207 -3.06511
3225 7 1.65868 3.27876 0.839854
3188 9 5.61859 3.28093 -6.95341
981 7 5.83266 0.392209 -9.02514
119 6 6.8295 2.64577 5.05448
3052 1 3.2382 5.44589 -2.57937
2518 7 -0.809986 1.17929 -2.80847
783 4 2.45462 2.56229 -7.12038
3021 6 6.776 5.26735 -8.04748
3025 16 6.25754 2.81458 -7.47567
782 15 2.68695 1.23517 -7.02296
3119 6 6.53542 1.21254 -2.19015
3118 6 6.96702 1.65316 -3.48861
3061 6 3.85902 0.5922 1.25671
775 6 -0.22512 -0.781959 -4.88087
3213 7 2.46676 5.31806 -3.34503
3186 7 5.94874 5.83004 -7.51714
2519 7 0.00797915 0.834053 -1.32653
281 7 5.88945 5.16771 2.19591
3058 6 2.79125 2.30282 -0.646726
778 6 -0.587596 0.407413 -5.66847
3065 6 4.19047 0.308341 3.63145
784 4 2.17336 4.7132 -7.75966
789 2 3.52676 -1.10445 -5.55766
3072 18 5.43546 -0.672031 -0.700032
977 7 4.13254 -0.190725 -5.6803
3056 2 2.91844 4.61312 -1.39519
3274 7 5.69584 2.68124 -1.01076
3064 6 4.44551 -0.10672 2.332
3059 6 4.19014 0.457198 -0.0925083
3216 7 6.20673 5.53306 -4.38688
971 7 2.57849 5.45678 -5.8872
3215 7 4.52113 3.82646 -3.34429
3019 6 7.69497 5.84141 -8.74572
2521 7 -0.238633 0.988023 1.54697
3060 6 3.68362 1.31801 -0.996054
3228 7 1.46809 4.70902 4.86121
3122 6 6.61375 -0.470303 -4.49065
3223 7 1.24617 3.43784 -1.80079
3229 7 6.36469 -0.984957 1.8183
785 4 2.66807 3.44916 -8.19832
967 7 0.262251 1.82412 -6.96633
3022 6 7.04025 3.84774 -8.12371
3224 7 3.89534 1.25066 -2.03807
3217 7 4.587 5.58776 -5.10769
120 6 6.12661 3.59669 4.31162
3214 7 5.30461 5.07254 -2.22454
3117 6 6.05166 -0.104571 -2.17236
3067 6 3.24215 1.23901 4.03271
777 6 0.492153 0.935154 -6.32097
3221 7 2.2067 5.02195 -0.624627
786 2 1.77102 4.81697 -6.34569
2513 7 -0.607605 3.09263 -3.69381
779 6 1.79312 0.534478 -6.2798
781 6 2.14749 -0.641911 -5.52412
780 6 1.07043 -1.13262 -4.94775
3063 6 2.90399 1.62379 1.67574
280 7 5.70729 3.34904 3.32038
118 6 5.98518 4.90038 4.84366
3227 7 1.6185 3.92129 2.56872
3124 2 6.74339 2.32476 -1.21643
3123 4 7.44013 3.35125 -2.00808
3066 6 2.56701 1.92582 3.01457
3121 6 6.14605 -0.874671 -3.27687
3062 6 2.49099 2.53138 0.666742
3222 7 2.68083 2.70023 -2.69479
972 7 1.58964 2.96237 -5.111
123 6 5.24954 5.93145 2.69208
3071 6 1.86448 3.65062 4.68596
969 7 2.29171 5.51007 -8.54346
793 6 4.28574 -1.16451 -8.93047
3120 6 6.92403 0.853294 -4.62869
121 6 5.19791 5.85438 4.09737
1014 9 -0.486702 4.35012 -8.67674
3073 3 5.41241 -1.30506 2.23417
3125 4 7.65431 2.93598 -3.32739
3272 7 6.68751 -1.27825 -5.31911
3068 6 3.06929 1.62419 5.41328
3275 7 7.29697 2.04369 -0.291765
983 7 6.42495 -1.22841 -9.0722
3270 7 7.09108 1.25859 -5.62983
2388 16 -0.85046 2.57044 3.24292
989 8 3.36948 2.66819 13.1551
3234 7 3.11995 -0.881886 5.91163
3078 6 3.55348 -0.27528 6.70377
997 7 -0.130469 0.25099 19.8843
3245 7 1.09994 0.111567 7.09469
973 7 4.27934 2.67922 20.4013
3281 6 -0.71555 2.58411 10.9014
803 2 3.76511 0.280649 17.7772
809 6 6.65208 1.982 15.9332
2421 7 6.57549 4.19542 18.0115
808 6 5.94726 1.18586 16.8048
985 7 2.98155 0.893318 18.2786
3074 6 3.81171 1.04373 6.42911
278 7 7.85664 4.52779 7.77859
3655 22 1.10414 -0.965615 15.4425
813 6 5.32033 4.08689 11.5824
987 7 6.53281 0.526575 17.5209
811 6 5.25691 3.52144 12.8271
807 6 5.96384 2.58556 14.8656
788 3 3.27169 3.24858 20.3523
1875 4 6.96295 -1.06024 11.7076
2222 16 0.615442 5.58734 15.9098
986 7 3.27202 -0.548436 17.2045
275 7 7.12064 -0.332136 7.55997
819 16 2.46643 1.92657 15.584
3095 3 0.101754 0.600715 7.47171
975 7 2.60786 2.72419 19.6874
3491 7 0.296403 2.29104 11.1414
3077 6 3.92938 3.27277 7.47791
3080 6 4.79449 1.27572 8.6573
3241 7 1.92128 -0.756017 10.6007
3490 7 -0.181237 3.72179 9.19868
1871 6 5.68852 -1.02691 13.5976
3235 7 5.14537 1.97718 9.40212
990 7 4.43632 4.30716 10.9254
2219 15 4.78192 6.04853 18.4297
3236 7 4.78559 -0.369125 9.93887
3076 6 2.74226 3.61236 6.86106
3081 6 4.48145 -0.0265947 8.91778
2066 7 7.31921 1.65616 10.9066
2226 6 6.862 5.23588 17.6491
2420 7 3.07744 4.62248 16.5492
3085 6 -0.0752145 -0.744896 9.61316
2223 3 3.43097 5.59579 16.2419
277 7 6.36282 6.12348 6.57961
1874 15 6.28279 -0.30019 12.6269
804 6 4.55622 1.09132 16.76
117 6 7.29585 4.23901 6.78888
792 6 3.7859 -0.897412 19.6265
988 7 7.76471 2.01406 15.9206
3084 2 1.45736 -0.751324 9.63463
806 6 3.85582 1.84547 15.7432
2417 9 1.51552 5.28561 15.9049
974 7 3.63199 4.22791 19.8921
802 15 4.64147 -0.232418 18.7601
816 6 7.70235 4.2284 11.9394
2419 7 3.03438 5.81202 15.2383
812 6 6.43648 3.24638 13.6015
2418 7 4.5478 5.55622 16.2333
111 6 7.61038 -0.286979 6.56779
3656 22 -0.694586 -0.418934 16.802
810 11 4.10553 3.1074 13.6144
805 6 4.55044 2.50264 14.8509
3654 21 0.204865 -0.692275 16.1223
3728 21 0.242992 5.66019 11.8349
996 9 2.32337 2.05686 14.6428
3242 7 1.8698 0.151216 9.11781
3246 7 -0.470907 0.80583 6.5964
3079 6 3.86128 -0.849951 7.9566
3075 6 4.37271 1.89124 7.43379
3757 21 0.0325923 2.30464 17.2008
814 6 6.60227 4.5431 11.2107
3233 7 4.39816 3.87428 8.23875
1869 6 4.28022 -1.16158 13.4287
3232 7 2.37718 4.63161 6.91772
822 6 -0.74472 -0.437674 20.397
817 16 6.75581 5.28237 10.032
815 6 7.66995 3.47627 13.1034
992 9 7.69418 5.40441 9.75832
3247 7 0.457552 1.55184 7.91308
3494 7 -0.520777 1.10935 13.2202
1881 2 7.79453 -1.20296 15.0689
115 6 7.37941 2.91718 6.36016
1015 7 -0.217594 5.92391 20.2637
3089 6 -0.722324 -0.074102 8.51384
2059 7 3.71434 -0.537583 12.7403
3684 22 5.87888 6.06886 14.5688
116 6 6.52341 5.12282 6.1423
3144 9 3.71738 6.05556 9.7793
3069 6 2.38772 2.86001 5.72369
2929 19 5.102 12.2178 3.96159
3132 9 6.69389 12.0485 4.9876
2976 6 6.0078 13.3742 -1.08876
124 6 4.086 7.99755 2.6452
2327 2 2.5144 10.655 -7.30619
2946 14 -0.816075 8.2555 -2.99227
2480 7 4.02387 12.8847 -7.25032
2987 2 6.43859 11.2466 -0.925348
2490 7 3.43389 10.6618 -6.69742
2919 6 4.44678 11.2902 5.36582
2485 7 1.94618 12.0001 -5.09722
2412 7 4.19154 6.74768 -9.02761
2990 6 7.62938 8.96561 -0.859786
2988 6 6.9704 10.0524 -0.149821
3183 7 6.31454 9.657 -8.40708
3006 6 6.29491 11.4977 -5.87042
2492 7 0.134859 10.5744 -5.70773
2950 16 -0.348382 13.2763 3.75463
3181 7 7.00311 12.1225 -6.37555
2216 6 3.37424 8.5644 -8.30208
3182 7 3.78154 11.6305 -3.52963
3049 1 5.10813 7.18051 -3.94046
2215 1 2.93449 9.93959 -8.65248
3004 6 5.37911 12.031 -4.92063
2491 7 1.83384 9.90396 -6.86891
3141 7 0.320316 11.1468 -2.69166
2992 6 7.03978 10.1131 1.23575
2933 6 -0.347797 11.6455 1.97761
2218 14 2.96112 7.98888 -7.20567
3139 7 1.7909 9.53299 -1.56114
3131 10 4.25052 12.4795 3.07997
2493 7 -0.538948 11.9968 -5.00266
3138 7 1.53463 8.35224 0.52821
3212 7 3.83496 7.43754 -1.67798
2936 6 0.222608 9.74476 3.86879
3137 7 -0.14413 7.82924 -0.00597532
2935 6 -0.0734509 10.3106 1.58143
3208 7 3.12483 7.17838 -4.54742
2943 1 1.15161 8.61927 -1.61632
2937 6 0.169369 9.3234 2.57276
2944 6 0.0309476 9.11541 -2.43904
2319 2 3.07006 13.3644 -9.14002
3135 7 0.193277 8.94458 4.60898
1018 7 -0.272403 7.09909 -5.26256
3018 17 7.37291 7.30421 -8.49896
2940 6 0.0476209 9.95031 0.279303
2930 16 7.34955 11.4759 5.37972
3218 7 1.30722 7.17079 -3.27976
2328 2 -0.0340203 11.6095 -5.85821
2986 15 6.14217 12.3747 -0.147781
3145 9 -0.658243 13.4761 4.6743
282 7 3.70459 8.87796 1.99855
3168 9 1.94194 12.3196 -1.85238
3171 7 6.72661 10.9795 1.88273
3206 7 3.6959 9.36475 -2.51923
2324 1 1.26335 12.4271 -5.90214
3009 6 4.59237 9.87696 -4.392
2920 6 3.10474 11.3308 5.56642
127 16 5.14942 7.20676 0.637089
2934 6 -0.198527 11.9926 3.3531
1019 7 0.420272 7.7331 -7.75383
3055 2 1.63432 7.3168 -2.23726
3050 2 5.69133 7.85157 -5.17787
3003 16 7.66754 8.93787 -2.24891
3051 1 3.12686 6.97815 -2.44681
2939 6 -0.660637 12.161 -0.316489
3209 7 5.68933 7.56121 -3.07624
3047 2 3.4999 9.11605 -3.61484
122 6 4.84247 7.04088 1.9887
2942 2 0.625459 8.58406 -0.160296
3048 1 3.6495 7.61131 -3.72753
3128 7 2.44375 12.0341 4.96694
2494 7 -0.80705 11.2291 -7.96437
2993 6 7.62298 9.08965 1.93293
2982 5 2.01571 13.4585 -0.493921
125 6 4.42384 6.87523 4.73025
3136 7 0.204317 8.25062 2.38122
2323 1 1.93446 12.1512 -7.21877
3170 7 5.56605 10.8937 -1.39013
860 4 -0.540123 7.33966 -7.35504
2984 16 2.63352 12.4744 -1.21586
3210 7 5.1322 7.36849 -6.02006
3169 7 7.17377 11.4377 -1.69266
3007 6 5.55741 9.32825 -5.15891
3207 7 2.52046 9.45138 -3.88491
3008 6 4.52157 11.2281 -4.28741
3005 6 6.33438 10.0675 -5.98977
2932 6 0.0687632 11.0292 4.33969
2941 6 -0.382189 10.8307 -0.676822
126 6 3.8534 7.93635 4.02817
284 7 3.25284 8.70607 4.52909
2978 12 5.74173 12.978 -2.26421
2320 1 3.01761 13.2203 -7.60822
3211 7 6.68598 7.5058 -5.32521
2985 15 5.5567 13.3721 -4.63075
3219 7 1.15371 6.54433 -1.70514
2484 7 1.17823 12.2565 -8.03066
3184 7 7.2646 11.0141 -8.06295
2983 13 2.23537 13.7213 0.614608
3011 2 7.29166 9.93368 -8.10807
3010 15 7.32105 9.44646 -6.74718
2945 2 -0.412845 10.4817 -2.15506
2938 6 -0.733166 12.5929 1.00024
2411 7 3.77226 10.588 -9.05073
3172 7 7.67879 9.12705 3.06558
285 9 4.88562 6.44901 0.123825
2479 7 3.03023 12.4746 20.0691
2413 7 5.16991 8.23582 20.3766
2214 2 1.93728 9.83879 20.0159
2410 7 2.02646 10.7933 19.4999
2914 6 5.27702 10.5236 6.25868
2404 9 2.5177 11.5351 9.63259
687 7 5.7999 9.3723 11.5128
2923 6 1.16046 10.403 6.51263
2143 7 3.55984 11.978 14.8733
2913 6 7.40521 9.82521 7.10817
2398 7 0.858072 13.1054 9.49865
3143 8 -0.199646 7.72718 9.15297
2201 19 2.38498 9.13669 12.1826
2408 7 0.270348 10.3709 18.1439
3130 7 5.38645 7.26329 9.38619
2213 6 3.32252 7.81588 19.2759
2948 11 0.446739 7.33701 8.49783
2187 6 0.88896 11.4052 10.7485
1775 7 3.71024 13.6519 9.41167
2256 16 4.73696 9.33192 16.4001
2207 6 1.56757 8.55081 17.9133
2254 5 5.49711 8.91396 17.4512
2147 7 0.27993 12.324 18.966
2192 6 0.0132829 8.80902 13.2286
2205 6 1.74323 7.38728 17.0917
2918 6 5.44717 8.7364 7.92175
1988 6 3.10888 12.7629 15.5307
1990 2 -0.305644 12.9558 16.9985
2232 20 7.81661 9.36021 16.1382
2922 6 2.52107 10.3364 6.34621
2915 6 6.64347 10.6659 6.23299
3129 7 -0.542929 9.48633 7.42897
2212 6 2.29351 8.70746 19.0829
2224 6 5.9793 6.31356 17.7957
2926 6 1.23235 8.4217 7.92485
3683 22 4.74614 7.54544 13.1835
2925 6 2.64415 8.56282 7.96702
2202 16 2.18015 11.0893 10.4588
2255 13 5.86431 9.69481 18.1871
2144 7 1.45299 11.381 15.8004
2191 6 0.697445 9.59091 12.3684
2186 6 0.123452 10.7055 11.6835
2403 10 2.69065 7.84199 12.5721
2211 6 3.68138 6.87652 18.2628
3133 7 0.577041 12.4675 5.98463
2921 6 3.29807 9.46926 7.1477
533 6 7.69839 8.5022 11.3602
2924 6 0.574756 9.41308 7.25631
3127 7 7.47923 8.21573 8.55505
2185 6 0.278191 12.5083 10.1944
2204 6 -0.415299 7.72047 16.1229
2949 16 2.93297 6.59771 9.56738
2206 6 0.658817 6.86566 16.3584
2440 9 4.23514 10.114 16.6986
2217 2 4.14046 7.8456 20.4784
2931 2 0.223677 11.3936 5.77148
528 6 6.80231 13.178 11.7696
2928 6 4.78177 7.74519 8.69095
2141 7 5.31668 13.6398 14.2555
2209 6 0.514422 9.41518 17.5489
2400 7 0.475761 7.92406 13.7175
3682 21 5.31257 6.80714 13.8762
688 7 7.23542 7.45713 11.3289
1989 6 1.85999 12.3852 15.9333
2927 6 3.41246 7.62151 8.79951
2916 6 4.66454 9.61987 7.14746
2208 6 -0.357298 9.03696 16.5463
2210 6 2.91564 6.65047 17.1476
3142 8 1.07854 6.8821 9.17443
2228 6 6.30204 7.64162 17.2753
532 6 6.81377 9.5555 11.4067
2917 6 6.83218 8.88004 7.92764
685 7 5.33335 11.5932 11.7037
529 6 6.39764 11.9133 11.5828
2145 7 -0.540877 11.9029 16.6088
527 6 7.31178 10.8403 11.3771
1987 6 1.1341 13.304 16.6073
283 7 4.34157 6.92536 5.83762
2454 7 4.486 13.2207 18.4172
2229 6 7.518 7.58944 16.6446
1991 2 -0.476891 13.0499 18.5858
3134 7 -0.843177 11.3279 6.24638
2409 7 0.915458 9.68073 20.3581
2436 7 7.76169 12.0573 16.9292
1304 2 15.4203 -21.5614 -0.780355
2893 7 14.3969 -22.9826 2.60151
1454 7 15.8783 -22.164 -1.59305
1944 6 12.3841 -20.0599 1.81954
2290 17 8.29755 -19.9611 -6.25184
203 16 9.26519 -23.6231 -7.84569
201 2 11.4315 -22.7443 -8.27648
1385 7 11.8657 -17.8121 -5.11661
2286 6 8.01261 -18.5683 -6.83952
2294 6 9.41247 -20.0055 -2.81756
1941 6 12.2586 -20.3909 4.6488
2285 6 8.20417 -17.58 -6.0434
352 7 11.1626 -21.9043 -7.57673
2104 7 14.493 -19.8468 2.05076
202 2 12.9268 -22.9324 -8.16059
1148 4 10.3286 -16.7294 2.79708
1456 7 13.3116 -18.8761 -1.73923
1384 7 11.7871 -20.2647 -6.18772
1450 7 15.1162 -17.1103 -0.232627
1779 7 9.72065 -24.0691 4.34325
1303 4 14.2537 -20.8873 -1.48509
2291 6 8.59216 -19.4076 -4.94212
1142 6 15.6721 -17.2632 4.50685
2105 9 10.2132 -20.0898 0.716976
1225 4 11.783 -19.3479 -6.74306
2101 7 10.0661 -20.5838 4.31512
1298 6 15.2917 -19.1823 -0.490949
1141 6 14.3571 -16.9905 4.65741
1332 7 15.8406 -18.1787 4.01332
1331 7 13.5894 -17.6291 4.14245
1945 6 13.5296 -20.2377 3.9843
1381 7 12.3082 -19.8687 -8.96803
1300 6 15.7172 -18.0014 0.0703269
2892 7 11.8403 -23.5033 2.7865
2749 2 10.8788 -23.5908 0.326314
2293 6 8.97084 -20.3994 -4.12824
1299 6 16.0484 -20.3321 -0.299537
355 7 13.1668 -23.7985 -8.74152
1305 4 14.1977 -19.4854 -1.34029
1334 7 8.87897 -17.7111 4.24991
1946 6 13.5231 -20.0328 2.60091
3741 21 14.9804 -18.3459 -5.71463
1624 6 8.81713 -23.7488 4.822
2902 7 12.7716 -22.516 0.576452
1224 4 11.5868 -17.8934 -8.47925
2901 7 10.5268 -23.2304 -0.624277
3739 22 9.63697 -23.3816 -3.43026
2103 7 14.5064 -20.1652 4.47346
1382 7 10.6317 -19.7655 -8.53988
1222 4 11.661 -17.1602 -7.32271
1947 16 10.0182 -20.2816 1.63457
2297 16 9.56903 -20.9444 -1.83865
1453 7 13.4379 -21.3634 -2.1009
354 7 13.5716 -22.1137 -8.56279
197 2 14.7571 -23.4474 -6.33553
345 7 15.3684 -22.7485 -6.85814
2102 7 12.4579 -19.6738 0.812633
2299 6 9.60777 -16.9121 -1.09379
1942 6 11.1197 -20.3421 2.42467
2745 2 13.9217 -23.9447 2.73781
2292 6 8.61652 -18.0636 -4.7936
2900 7 10.2001 -23.027 1.1284
1226 4 11.8471 -18.0775 -6.22548
2296 6 9.39001 -18.6499 -2.50956
344 7 12.7702 -22.4783 -5.93833
2298 15 9.68839 -18.2497 -1.27259
2895 7 12.9895 -23.3847 4.66817
1337 7 12.8801 -17.0138 1.84588
2295 6 8.95065 -17.6922 -3.48667
2460 9 9.84081 -21.8023 -2.26491
2458 7 8.81585 -21.4727 -4.45061
1223 2 11.5682 -19.3765 -8.28276
1455 7 15.1388 -22.2278 0.083538
198 2 15.0381 -23.1722 -4.84368
1943 6 11.1125 -20.5383 3.82411
347 7 14.7185 -22.1327 -4.61451
348 7 16.152 -23.2963 -4.78107
2750 2 12.3256 -23.4916 0.727395
196 1 13.2377 -23.2277 -6.66401
356 9 8.84963 -24.0793 -8.58187
1150 2 9.31957 -16.7137 3.88031
2455 7 8.36915 -20.5226 -8.92292
349 7 10.7507 -23.7745 -5.73491
2459 7 8.84667 -16.6821 -3.18667
2896 7 14.7718 -23.9204 4.88156
1333 7 9.9893 -16.9773 1.74425
2462 7 11.5531 -16.6342 -1.76932
1780 7 7.95375 -23.009 3.02966
200 1 10.6358 -23.9839 -7.82504
1937 6 13.179 -19.8229 8.23621
2263 6 12.0218 -16.8207 15.6726
676 7 15.9109 -21.9519 11.5369
2097 7 14.0653 -20.9913 6.62901
2442 7 9.02484 -20.2899 16.9617
665 7 14.9308 -20.236 16.2319
1417 7 16.0805 -20.4793 8.85466
1619 6 8.91055 -23.6069 6.21643
2438 7 12.373 -22.9198 16.1339
1614 6 8.57162 -20.456 10.2711
2264 6 12.0961 -19.1258 16.4587
1612 6 8.08164 -22.3723 8.21607
1621 6 10.2199 -23.4203 6.77359
2249 6 10.4402 -23.7546 16.7076
2450 7 14.8729 -16.8482 13.9034
508 2 15.4033 -21.6449 14.624
2443 7 12.6553 -20.0498 16.4395
524 18 15.2895 -23.7376 9.21625
2250 12 8.53816 -22.4373 17.2284
2096 9 10.8191 -17.1932 12.9813
675 7 13.8752 -20.4893 13.837
1935 6 12.1903 -18.8512 8.6235
1771 7 8.90159 -19.7086 10.966
1930 6 11.0662 -16.5583 11.2233
509 2 14.7224 -21.0073 13.4538
2259 2 9.97799 -20.2063 17.346
503 1 16.5026 -21.5781 16.945
1938 6 12.1193 -20.1548 6.06175
1933 16 11.1306 -17.5206 12.1718
2262 6 10.0945 -17.7085 16.7437
3768 22 8.64678 -18.1676 12.9367
2439 7 12.3354 -23.4858 17.6662
523 6 8.71497 -23.0709 12.4889
2441 7 9.81885 -20.1683 18.4658
1934 15 12.316 -18.1191 9.77398
2265 6 12.6981 -18.0147 15.8337
1383 7 11.4068 -17.3988 20.4041
510 6 14.1328 -22.1198 12.6515
515 6 12.3469 -23.5955 11.9786
1772 7 10.66 -20.7859 9.82811
670 7 15.0339 -22.9401 17.8853
511 6 14.3131 -23.4075 10.6806
1421 7 15.4243 -18.8937 10.7268
680 7 8.00858 -22.2471 12.7328
1620 6 10.4827 -22.6115 7.85421
2100 7 10.2232 -18.9685 5.88062
2261 6 10.7297 -16.6469 16.1027
512 6 14.9096 -22.5452 11.5505
677 7 12.3498 -22.1084 13.696
671 7 15.658 -23.5947 16.3859
514 6 12.8886 -22.6384 12.8522
522 6 10.0443 -22.8277 12.5646
1423 7 14.6882 -16.9626 10.2562
1939 6 11.1194 -18.6603 7.7633
660 7 15.4545 -20.2904 18.3562
2444 7 13.7144 -18.2074 15.4434
679 7 10.3959 -21.9414 12.9434
2260 6 10.7534 -19.0181 16.7419
2258 15 10.6424 -21.3978 16.9477
1776 7 11.4781 -22.3412 8.14569
1613 6 9.40441 -22.0302 8.58569
2098 7 13.9784 -20.0237 8.92598
2248 6 9.83647 -22.5189 16.9848
2452 9 8.50765 -16.7407 17.1785
518 6 10.9485 -23.8106 11.9989
2275 16 8.84873 -17.592 17.4096
1264 2 16.4945 -18.8946 10.7774
507 2 15.9646 -22.9694 17.2735
1420 7 16.5816 -17.9272 8.93195
2099 7 10.3802 -17.9345 8.12118
673 7 14.6738 -22.3565 15.1644
1615 6 9.61041 -21.1161 9.59071
3766 21 7.94712 -18.061 13.8557
500 1 16.5183 -20.5973 18.2102
1932 6 11.686 -16.8618 9.93784
1936 6 13.1576 -20.413 6.99835
669 7 16.2607 -18.1604 16.9224
659 7 16.0197 -22.0091 19.9133
662 7 16.0763 -18.0131 18.9824
504 1 15.849 -20.718 15.8213
2253 3 11.9651 -23.733 16.6886
672 7 16.3444 -22.1057 14.2949
674 7 15.3657 -20.3333 12.8757
1940 6 11.0362 -19.3932 6.6266
1777 7 10.9703 -23.8632 6.17242
353 7 11.1555 -22.3528 20.557
1191 2 15.3307 -14.0568 -4.41412
1195 6 13.6946 -15.1194 -8.33645
1158 12 16.4623 -12.1717 2.12513
2310 6 10.7052 -11.0009 1.23548
248 7 10.6965 -11.2786 -5.28948
1344 7 13.3932 -13.2513 3.06865
1379 7 10.8599 -15.2869 -6.53816
1159 6 14.4082 -12.807 3.1721
62 2 8.98793 -11.4427 -3.98592
1339 7 12.3818 -15.3822 1.32734
1151 4 10.2111 -16.2379 4.90711
249 7 9.39364 -12.3585 -5.92983
48 20 11.2623 -9.04814 -5.66812
1343 7 12.8541 -12.4884 5.53259
51 6 7.88079 -10.5556 -7.005
1154 2 13.9592 -12.4606 5.67033
250 7 9.36755 -12.3771 -3.51789
1221 2 11.5636 -15.6931 -7.23412
2080 7 11.5003 -10.1412 -9.01138
1146 15 12.4945 -15.4973 5.4329
1335 7 8.46918 -16.0124 3.60692
254 7 12.3119 -11.0374 -1.70324
1380 7 11.179 -15.3332 -8.2172
2307 6 8.52853 -12.0133 -0.0636719
2468 7 11.586 -10.4079 1.63617
1200 6 16.1378 -14.287 -8.98161
1954 4 11.5363 -9.61793 4.94827
2113 7 12.4123 -10.1914 5.14384
1186 6 15.0852 -14.0485 -1.36304
2467 7 11.682 -12.8626 0.73916
1139 6 16.6306 -16.408 5.04778
2083 7 16.4552 -10.5553 -7.28509
2302 6 9.56774 -14.0869 -0.535773
52 6 9.72109 -9.13808 -6.77071
1184 6 15.5914 -13.7623 -0.0977867
1378 9 13.1341 -14.8948 -4.01962
67 6 8.42548 -9.25688 -3.00175
1160 6 15.2908 -12.8022 2.09929
1197 6 12.9427 -15.2806 -7.19967
2108 7 8.57994 -11.3521 5.12977
1165 15 14.788 -13.3174 0.922408
1149 4 11.5384 -16.065 3.14456
1361 7 13.925 -14.0186 -1.51637
1192 6 14.8329 -14.4872 -5.78566
2087 7 14.4419 -11.4138 -6.72233
63 6 9.36541 -10.2143 -3.18492
253 7 12.288 -11.0547 -3.52741
61 2 9.63339 -11.3713 -5.38598
1907 6 14.6319 -10.0506 -8.41894
1196 6 13.4547 -14.8688 -5.94885
2085 7 13.5463 -11.928 -8.14436
2086 7 12.9191 -10.5686 -7.10798
1155 6 14.8114 -12.3555 4.42124
2304 6 8.38551 -14.9666 -0.280416
2300 6 10.6642 -14.7798 -1.11706
1364 7 16.3769 -13.7068 -4.56638
2305 6 9.69478 -12.7319 -0.0404396
2461 7 11.4859 -14.1223 -1.46193
1194 6 15.4847 -14.488 -6.96624
1338 7 13.5877 -15.5051 2.67072
1220 16 12.6506 -14.7843 -4.83125
53 6 9.02009 -10.2212 -6.24491
1949 2 9.69324 -11.3646 5.28565
2301 6 10.6866 -16.1176 -1.39456
2791 7 15.3446 -9.69929 -2.11782
255 7 11.2552 -12.1274 -2.502
65 6 10.6232 -10.068 -2.58952
1157 6 15.978 -11.6399 4.41334
1143 6 13.8681 -15.7951 5.29915
2107 7 10.1225 -12.1208 4.55614
2308 6 9.51886 -10.2792 1.18896
1190 15 15.3113 -15.1352 -3.50011
1185 6 15.8903 -14.6775 -2.30731
2306 6 8.41089 -10.7862 0.518596
251 7 7.86687 -11.4909 -4.014
2303 6 8.51843 -16.3357 -0.512532
1950 4 10.1964 -9.99792 4.97173
2309 6 10.8611 -12.1761 0.59492
1363 7 14.6322 -13.2053 -4.01242
69 3 11.6728 -11.1621 -2.61465
2466 7 9.53688 -9.20869 1.60992
1147 4 11.4963 -15.9233 4.55093
1910 3 13.8436 -11.0049 -7.55775
1908 6 15.9629 -9.98212 -8.13024
1193 6 15.0359 -14.5752 -8.20995
1152 3 12.6361 -15.9809 2.20031
2606 2 16.4521 -9.57168 -2.1214
1161 3 16.3591 -10.7757 5.60875
1144 6 16.0868 -15.3731 5.67746
1365 7 13.2123 -15.2153 20.5227
2092 7 8.26634 -10.0177 10.0731
1913 6 8.77911 -10.0853 12.2448
1217 6 15.687 -9.26305 13.546
1283 6 14.2076 -11.9504 9.76963
1918 15 9.50119 -10.8222 11.3542
2079 7 9.60389 -9.28586 19.2998
1904 6 14.2086 -9.22716 20.3802
2449 7 15.6923 -15.2575 14.4066
1370 7 16.1783 -11.8051 18.8303
1923 6 10.3469 -13.1162 6.87146
2318 4 9.44443 -15.1828 19.8258
1900 6 10.623 -9.01471 19.1629
2274 3 14.8712 -15.9558 14.5911
1153 2 14.3269 -13.6646 6.61805
1367 7 15.7254 -14.385 18.7457
1341 7 13.4438 -13.8572 7.29644
1948 16 8.48079 -10.01 7.51119
1340 7 15.1654 -13.4126 7.37063
1271 6 15.2571 -16.0893 10.5314
1920 6 9.21871 -11.731 9.1308
2119 7 8.71807 -12.6719 13.1398
1267 6 16.4395 -16.3831 11.2345
2315 2 9.74406 -12.8162 19.3753
2448 9 13.1266 -11.9828 12.3143
1281 6 16.551 -11.4975 9.72669
2267 6 11.3013 -14.7137 15.1353
2447 7 14.4974 -13.7355 13.2172
2473 7 10.491 -12.2229 19.9199
1213 6 15.0912 -9.93782 14.6116
1924 6 9.18699 -11.1347 7.8083
1336 7 9.86207 -16.1993 5.93472
2314 4 8.37609 -14.5609 20.4172
1921 6 10.434 -13.7188 8.16862
1284 6 13.9212 -10.7277 9.31958
1927 6 10.4106 -14.654 10.1503
2317 4 10.374 -14.1818 19.3491
2094 7 9.84836 -14.9258 12.2269
1209 6 16.3389 -11.6667 17.6865
1285 6 16.2304 -10.1603 9.38835
1433 7 13.4014 -12.5394 10.0322
1439 7 12.2111 -11.012 8.09374
1208 6 15.5871 -10.8982 16.8582
2266 11 10.2564 -15.3369 15.8755
2117 7 8.16363 -12.299 15.5328
1915 6 7.98549 -10.6409 13.2685
1289 2 12.2449 -8.96799 8.68916
1929 6 10.4198 -15.3324 11.3677
1290 2 12.5399 -10.4216 8.97565
1901 6 11.6392 -9.49658 19.9781
1931 6 11.6675 -15.9676 8.81314
2272 6 13.574 -13.9376 13.7938
2273 16 12.3723 -12.0451 12.9378
1440 7 11.9569 -10.6987 9.81998
1424 7 14.0733 -14.7399 9.48359
1928 6 10.8465 -14.8361 8.9022
2269 6 11.2878 -13.5126 14.4982
2271 6 13.63 -15.1645 14.4508
2270 6 12.4262 -13.1807 13.7415
2268 6 12.4161 -15.5712 15.048
1345 7 15.5853 -10.0396 5.93809
2474 7 9.6855 -12.3922 18.315
1272 6 14.9425 -14.8343 10.0871
1210 6 15.9286 -10.7783 15.4536
1145 6 14.8253 -14.8851 5.8293
1369 7 14.8648 -10.2413 17.2992
2095 7 12.215 -16.1812 7.8554
1926 17 9.70021 -13.4918 10.4154
1280 6 15.4955 -12.4539 9.97679
1286 6 14.9445 -9.76171 9.17822
2446 7 10.3471 -13.0011 14.4128
1922 6 9.82929 -12.9328 9.06797
1215 6 13.7307 -9.71007 14.8262
1919 2 8.58932 -10.9951 10.3352
2476 7 11.3452 -14.4417 19.0195
2477 7 9.7227 -16.1611 19.9056
1925 6 9.86054 -11.8114 6.75611
1373 7 13.2153 -10.2802 15.5803
1274 6 15.7629 -13.7487 10.4329
2316 4 8.47297 -13.1819 20.1449
2445 8 9.29881 -15.1406 15.7179
1346 7 16.4532 -11.3695 6.47564
2093 7 10.4732 -13.7313 5.98582
1342 7 14.1167 -11.5482 6.30585
2451 7 14.9715 -16.3896 15.5947
1203 6 16.5002 -14.1049 19.5185
1899 6 12.9911 -9.03085 19.742
2106 9 7.97353 -9.64258 8.28477
2642 6 15.4469 -3.51255 -0.375569
2641 6 15.7335 -3.08447 0.888419
1952 4 9.48584 -8.84889 4.68218
21 6 14.8814 -2.2003 -8.76742
138 2 8.78151 -2.10474 0.0745932
95 6 8.73663 -3.47572 -0.413115
2110 7 10.2437 -6.96638 3.58656
91 16 12.57 -8.07638 1.86366
29 6 13.5057 -3.20265 -6.66746
299 7 8.75321 -1.9049 1.22877
2817 7 14.4574 -3.93262 -0.51513
136 1 10.2305 -1.51003 -1.78055
2621 15 16.1688 -4.08682 -2.60441
135 2 10.2945 -2.93291 -2.31875
81 6 15.9179 -6.66949 -0.300793
41 6 10.878 -6.21777 -8.66632
42 6 12.0597 -5.58289 -8.30331
82 11 15.19 -7.76423 3.09468
2109 7 10.0554 -6.84568 5.39551
47 6 9.49234 -8.25755 -7.72955
43 6 10.594 -7.37033 -7.80196
32 6 13.0587 -2.5426 -4.33787
297 7 10.8991 -2.09958 0.233907
137 1 10.0862 -1.46958 -0.298169
256 9 15.4157 -8.00643 -5.0914
271 7 8.47491 -5.7188 2.21275
294 7 11.2561 -3.3862 -2.11497
2640 6 16.3954 -3.53643 -1.39775
64 6 10.8738 -8.85385 -1.82628
92 6 8.01971 -5.93444 -1.42893
257 7 11.3813 -6.87918 -0.285361
28 6 13.375 -1.90415 -7.07799
2654 17 12.5066 -2.74504 3.71357
40 6 12.9498 -6.04078 -7.30989
68 6 8.69494 -8.09353 -2.25813
35 15 14.1503 -5.44363 -7.08024
34 14 13.6301 -2.85899 -3.22359
2655 6 12.168 -2.67154 5.08923
1951 2 10.2712 -7.57641 4.56555
97 6 9.28621 -3.85654 -1.62501
237 7 12.2931 -4.69636 -8.9617
295 7 10.1099 -3.02246 -3.37281
225 7 11.4159 -1.4724 -6.52999
268 9 12.8876 -8.38532 2.74141
229 7 12.8814 -4.58242 -5.05354
2650 6 13.1158 -1.42856 3.56349
45 6 11.4989 -7.71401 -6.89327
44 6 12.6618 -7.16278 -6.52431
71 13 13.5021 -7.1008 -4.40455
228 7 11.6585 -3.52934 -5.52374
2819 7 13.7556 -1.84783 0.297758
33 2 12.7602 -3.57895 -5.38134
79 6 16.0591 -7.11274 1.05041
66 12 9.88893 -7.82164 -1.74703
2112 7 12.5446 -7.77913 4.5144
261 8 14.723 -8.26433 3.7767
39 3 15.9383 -4.59443 -9.12977
2820 7 12.7475 -3.10432 1.27727
78 6 13.6697 -7.64215 1.17374
96 6 8.96113 -5.09884 -2.06432
80 6 14.6441 -6.75641 -0.873066
259 7 14.5027 -6.56116 -1.91333
75 2 12.2678 -7.30936 -0.914081
70 5 13.5522 -7.66091 -5.43951
2646 15 14.7028 -3.11953 1.81191
2822 7 11.2916 -4.68918 4.79962
258 7 12.1361 -6.89781 -1.87416
2647 2 13.6283 -2.32928 1.31587
272 7 9.43051 -4.31143 2.42551
26 6 14.9491 -3.64392 -8.48759
77 6 14.8868 -7.49724 1.76374
3667 21 10.2808 -1.87247 -9.05266
74 15 11.9761 -8.69162 -1.04569
270 7 9.44635 -5.37623 -3.06072
27 6 14.1944 -4.10467 -7.45189
76 6 13.5221 -7.2312 -0.157359
99 2 8.40191 -4.65471 2.47472
106 17 8.7101 -2.37574 3.82819
50 6 8.24122 -8.58523 -8.3972
1953 4 11.622 -8.2652 4.64944
236 7 16.0337 -5.61095 -8.65032
2657 6 11.505 -3.8141 5.38355
3719 22 9.9746 -4.15341 -6.35746
3718 21 8.8581 -4.32015 -6.6241
72 16 14.7857 -8.15843 -5.81279
83 6 16.5472 -7.48243 3.30281
298 7 7.9574 -1.56325 -0.343366
2111 7 8.45581 -8.82717 4.59496
2656 6 12.4853 -1.52654 5.6512
2666 6 14.3009 -3.60505 11.7334
2062 7 8.41225 -3.47694 10.3206
2073 7 10.8019 -3.31195 17.466
1903 6 15.0737 -8.32842 19.7409
2661 16 10.2384 -4.74796 7.27142
1441 7 16.1885 -8.01478 7.3871
2827 7 10.9186 -2.75609 11.4533
1896 6 10.8588 -8.0982 18.247
1292 1 15.4288 -6.09487 7.97367
2663 6 12.2872 -2.8822 9.80251
238 9 9.18051 -5.97798 20.4098
3035 6 12.6796 -1.37822 17.8099
290 7 8.65228 -7.40718 9.16647
1897 6 13.1726 -8.03481 18.8161
1883 6 8.93944 -3.55277 14.9661
1898 6 12.1756 -7.6427 18.0429
1436 7 13.5165 -8.72202 6.96038
2075 7 9.36094 -3.67454 18.3037
2824 9 9.79547 -4.55441 8.09583
1882 2 9.02809 -2.11486 14.5137
1885 6 9.29584 -4.09559 16.1607
1894 15 9.66973 -6.11114 17.4482
2089 7 9.73455 -8.45138 11.4905
2832 7 15.0269 -6.15074 15.4883
2665 6 13.5689 -3.31997 9.42707
3193 7 12.784 -1.63768 18.9588
2669 6 15.1878 -4.22993 12.664
2667 6 12.0064 -2.90836 11.1548
2828 7 12.6271 -3.30309 13.1232
2664 6 14.5349 -3.59933 10.3444
2660 6 11.4372 -2.61179 7.56208
1293 2 14.2278 -6.02054 7.10022
3039 16 13.8658 -3.41652 17.3876
1446 7 12.2018 -6.64059 6.9647
1294 2 13.0686 -6.78952 7.6302
2831 7 13.6472 -5.08021 14.1788
1288 1 13.3331 -8.25202 7.93089
3197 9 13.9797 -3.44512 18.3354
3708 21 10.9946 -5.81256 10.7139
1291 2 15.7938 -7.55572 8.29811
2088 9 13.4827 -6.41091 17.2648
1895 2 9.77699 -7.57554 17.2743
1889 3 9.70926 -3.2422 17.3775
1886 12 8.89632 -6.21134 15.2291
3709 22 11.7211 -5.95155 11.6074
1214 6 13.0136 -8.76456 14.1208
1888 6 8.54532 -5.66211 14.0408
1438 7 12.0191 -8.34863 9.59644
1884 6 9.25149 -5.48937 16.2564
233 9 15.8104 -3.13918 19.1481
3194 7 13.8522 -2.617 14.9402
1216 6 13.5732 -8.00281 13.1302
1887 6 8.50269 -4.29604 13.9184
2074 7 9.39499 -2.11631 17.3316
2662 15 11.1888 -2.65368 8.96345
1443 7 15.1818 -5.6733 8.90443
1435 7 14.3702 -7.83801 9.79212
1445 7 13.8422 -4.97701 7.03658
1902 11 14.4786 -7.54985 18.742
1287 1 14.5937 -8.34556 8.84725
3710 22 10.2681 -5.67351 9.82037
2078 7 8.74988 -8.04987 17.4575
1437 7 11.3361 -8.85375 8.05578
2826 7 13.8583 -3.32569 8.35812
2668 6 12.943 -3.36025 12.071
3036 6 13.2723 -1.96031 15.649
2825 7 15.4859 -3.96457 9.96292
2658 6 11.0098 -3.72146 6.75815
1911 16 12.5411 -6.77752 17.0507
2671 6 16.6203 -4.1958 12.461
1447 7 12.7875 -6.34871 8.61823
1295 16 16.5747 -5.43818 7.52966
2081 8 15.0176 -7.40097 17.9315
2674 6 15.5717 -5.57702 14.6955
1905 6 16.4086 -8.44483 19.9633
1914 6 9.03755 -8.77993 12.2
2659 6 12.1537 -1.53836 7.04339
2077 7 10.0876 -7.73274 16.2417
235 7 15.5675 -4.90721 19.7378
2673 6 14.6759 -4.86655 13.867
1218 6 14.9112 -8.31893 12.8194
1876 4 8.22382 -1.48492 9.84711
2070 7 9.93101 -1.61004 15.0861
22 6 15.8373 -1.63589 20.2488
2071 7 9.31441 -1.86717 13.4452
1374 7 13.0564 -7.23812 12.4454
1912 6 8.33406 -7.85361 13.0517
3034 6 13.3241 -2.19983 16.9648
1376 7 15.4312 -7.68228 12.0415
1893 15 8.39918 -6.46221 12.9428
2072 7 8.34115 -3.81712 12.8743
1219 16 11.6652 -8.561 14.3729
1377 9 11.2959 -8.3914 13.4665
1444 7 14.4908 -6.29342 6.09186
38 16 16.3943 -2.38481 19.2499
3668 22 10.9302 -2.52997 20.1029
1442 7 16.5623 -7.5609 9.07399
46 16 10.0857 -5.89017 20.1834
3637 7 15.0558 -1.30439 13.6907
289 7 7.89787 -5.95345 10.028
1448 9 16.4321 -5.2142 6.63012
109 6 9.38329 -0.296561 4.36854
337 7 13.9813 5.96909 2.88473
3000 6 9.72454 5.16351 3.04387
336 7 14.5565 5.66477 1.13506
146 6 13.7905 3.85988 -1.93385
276 9 11.0489 1.58805 4.76271
110 6 9.33199 0.833621 5.27992
2648 6 13.5337 -1.26343 2.3191
2834 9 14.2008 0.00160759 0.278887
2680 4 16.5628 3.70592 4.53438
361 7 14.6535 3.41382 -8.94829
313 7 14.8557 2.89166 -0.31872
2653 6 14.1678 0.95684 3.21158
2839 7 15.9387 4.59604 4.44512
207 6 13.8797 5.68349 -6.506
2678 4 16.0218 2.54816 3.89592
3190 7 11.0534 1.3482 -8.12188
3670 21 10.4945 5.84154 -2.93322
149 6 15.9543 5.6631 -2.05665
2676 16 14.8086 0.302185 0.944364
3174 7 10.2331 4.41829 -0.212252
363 7 15.1416 3.84637 -6.37179
305 7 8.93488 0.266559 -0.249267
141 2 11.0576 0.907474 -0.24352
312 7 13.1647 4.88533 -3.66445
213 4 12.9442 4.62104 -8.38711
306 7 10.6078 -1.24569 -4.17985
3671 22 11.3453 5.66695 -2.16437
2649 6 13.106 -0.747437 4.68893
2836 7 14.0792 3.16797 3.46684
2677 2 14.7567 2.39152 3.10893
310 7 12.1687 3.22237 -0.660112
2887 7 12.6135 5.63021 4.83127
25 6 14.5875 0.0314414 -7.85705
147 6 14.9351 5.70577 -3.02138
224 7 14.2015 0.646134 -6.98093
211 4 14.2382 4.15115 -8.29547
2997 6 9.87013 4.94365 0.668939
3026 15 8.46696 2.01075 -8.70314
212 2 14.9315 4.67394 -7.05375
30 2 12.4203 -1.11641 -6.21058
139 1 11.3987 -0.604314 -2.28223
311 7 11.6908 3.41202 -2.42591
223 7 15.77 1.62039 -8.5811
142 2 9.89612 -0.0139821 0.187234
31 1 12.6367 -1.13765 -4.65812
3176 9 10.5526 2.58007 1.32759
308 7 13.5397 1.16892 -1.57786
2835 7 15.0736 2.56674 2.06868
3175 7 9.88923 4.64428 4.00774
302 7 11.9676 0.430884 0.122665
113 16 10.2297 1.8731 5.1405
3732 21 9.97246 3.56796 -5.74143
338 7 15.7323 5.64231 2.52243
2652 6 14.2427 0.0100279 2.15895
2821 7 13.6231 1.41531 5.18418
151 6 15.93 4.59563 -1.09391
227 7 13.3747 -0.341685 -4.56601
144 2 12.6359 1.66377 -2.12597
358 7 10.651 6.17095 -7.60401
274 7 10.1807 -0.386336 3.60495
140 1 11.3801 0.871662 -1.77857
226 7 12.4728 0.0152774 -6.42008
304 7 9.76535 0.0833366 1.27175
150 6 14.8655 3.67433 -1.0309
2905 9 13.2216 3.62435 5.58962
145 2 12.4896 3.10538 -1.73541
307 7 11.0343 0.402028 -4.12
143 2 11.414 -0.625923 -3.84199
3672 22 9.64353 6.01614 -3.70198
301 7 10.5185 1.36955 -2.33923
206 6 12.7122 5.52791 -7.28748
309 7 13.008 1.53754 -3.13344
3276 7 8.27215 3.44116 -4.12939
303 7 10.9478 1.84497 0.235843
2995 6 9.34908 6.19285 0.608866
3024 6 8.15916 3.35218 -8.83418
148 6 13.897 4.81997 -2.89053
3001 16 10.363 3.0611 2.12498
2998 6 10.0013 4.36032 1.93263
2651 6 13.6454 0.628634 4.45415
362 7 15.9043 5.13474 -7.2487
300 7 12.3156 -1.14456 -1.92123
296 7 9.24013 -1.12594 -2.15934
24 6 15.5628 0.557745 -8.66579
107 6 8.57291 -1.25022 4.74341
3273 7 8.03741 4.21459 -1.70896
3669 22 9.63138 -1.21498 -8.35147
315 7 16.5852 2.32065 0.177626
184 3 14.7876 6.12708 2.1227
23 6 14.1368 -1.31355 -8.04323
2735 6 13.2564 6.02628 5.6351
3029 6 10.8097 1.27169 -9.19301
364 7 12.1665 4.01342 -8.93892
3033 6 11.9872 -0.202928 17.3912
3187 7 9.86754 3.92161 19.7756
702 7 10.5597 1.70203 9.06819
2726 6 15.5709 5.01663 8.24827
2069 7 7.94523 -0.204316 14.7236
3020 6 8.75262 5.66549 20.3974
553 6 16.0284 4.10141 14.5028
114 15 8.04025 1.96767 7.1049
3028 6 11.6981 0.840272 19.6689
2734 6 13.912 5.21457 6.5084
3038 6 12.6354 -0.841943 15.1414
3030 6 11.3272 0.702059 18.3063
1880 3 8.15711 0.940187 10.641
991 7 8.73401 4.4643 11.5379
995 7 9.79285 2.76752 13.1386
554 6 15.2499 3.01281 14.2251
2225 6 8.06064 5.38706 16.9648
697 7 10.0228 5.43 7.97907
994 7 9.36168 3.99839 14.2895
18 16 13.4491 5.98617 17.4871
698 7 11.3388 4.62666 7.138
2 6 15.5435 4.99068 18.2588
704 7 15.6193 2.00814 14.4776
541 6 11.4934 4.57481 9.35731
7 6 15.0629 3.65605 17.9975
551 6 13.512 2.0152 12.9209
2732 3 15.5525 3.50115 8.3638
548 3 11.5818 2.10783 8.96914
3196 7 12.6659 -0.614531 14.0963
8 6 15.7494 2.55396 18.4683
552 6 15.6864 5.39257 14.0034
539 6 12.6615 5.67316 11.1548
3192 7 9.55842 0.962612 16.9248
2065 7 9.04056 1.30402 11.265
993 7 8.93514 2.32233 14.5699
3037 6 11.9693 -0.020534 15.9479
547 3 10.6855 4.5413 8.01818
721 9 11.494 0.978474 10.6725
216 7 15.5273 1.48252 18.2619
2422 9 8.44279 3.49255 16.9384
549 6 14.1072 3.17418 13.3965
3756 21 14.7354 -0.15957 8.13978
550 6 12.6141 2.07029 11.873
2886 7 14.5171 3.18529 8.31587
2884 7 15.7749 3.05508 9.27803
703 7 13.7532 1.06984 13.4768
3031 6 9.11631 1.50848 18.9146
2823 7 12.3034 -0.646132 7.69062
537 6 11.782 5.73008 10.0382
2724 6 14.7189 5.78589 7.47578
2068 7 8.07062 -0.979721 16.1346
568 16 12.011 0.901925 11.46
2230 16 8.88564 4.29366 16.7584
3027 6 9.45708 1.63047 20.2525
2752 16 13.8549 3.87251 6.28454
545 6 13.8421 4.40297 12.7668
20 6 16.223 -0.296305 20.3392
2725 6 16.583 5.57901 8.94083
538 6 12.9601 4.43767 11.722
540 6 12.5132 3.29222 11.1138
818 3 8.97531 3.14224 13.7813
3032 6 9.99448 1.05961 17.9308
3195 7 11.462 0.857572 15.5382
542 6 11.8632 3.33732 9.85471
219 10 13.6731 2.1549 16.4798
699 7 10.0931 3.61327 7.9581
3191 7 8.10603 1.86568 18.6059
2424 7 10.9796 5.61686 15.3149
17 19 13.6242 3.36129 17.0367
1877 4 7.89428 -0.503285 10.8086
701 7 11.695 2.30729 7.88268
700 7 12.368 1.3489 9.02572
546 6 14.6831 5.46826 13.0601
3487 4 16.0722 -1.08709 13.5609
2061 7 8.89243 -1.21909 9.02827
2885 7 16.2004 3.05671 7.67612
3 6 14.7164 6.09802 17.9922
3189 7 12.6845 0.453098 19.9083
3640 7 16.1912 -0.241217 11.5084
3023 6 8.96322 4.20768 20.3014
2067 7 8.42195 1.14655 9.54934
112 6 8.33666 0.830336 6.29399
192 6 14.2753 13.4142 -4.2142
2751 16 9.19218 12.4882 -0.0972131
3178 7 8.12948 7.42365 4.56176
2890 7 11.6203 9.72708 3.05832
335 7 16.6403 8.31915 4.80727
199 2 11.1161 13.2216 -6.46645
357 9 11.8279 6.33364 0.176034
2891 7 12.7589 11.8362 1.39432
341 7 15.3329 13.7522 -2.47213
178 6 15.0212 7.62965 1.86418
181 6 14.1089 10.2326 -0.628866
2741 6 12.1284 10.3183 3.8234
2996 6 9.07048 6.94466 1.79155
180 6 15.6143 12.0449 -0.307977
2894 7 14.5755 13.04 2.33652
2737 6 12.5809 9.55939 4.95488
3014 6 8.47652 7.80654 -9.15165
3043 2 14.2211 9.2594 -8.0512
2888 7 11.9119 7.65475 4.11658
360 7 10.591 7.45315 -5.39278
193 6 12.6389 11.7524 -4.2884
2897 7 10.1515 12.8231 2.54095
176 6 14.2442 8.32559 0.927592
2994 11 9.06383 6.89218 -0.58566
182 6 14.6888 11.4475 -1.12868
3204 7 14.5712 11.443 -7.61605
410 16 16.432 10.3143 -4.90798
3044 4 13.252 8.76087 -9.07717
340 7 11.6786 9.5399 -2.94799
2738 6 12.4151 8.14845 4.96324
2746 2 13.8012 13.6446 4.25118
194 6 13.2629 12.8334 -4.93186
2740 6 13.3781 12.1844 4.38638
2744 1 12.5526 13.7344 2.15883
3012 6 8.3649 9.15858 -8.89311
3180 9 8.19837 8.22396 -2.60364
174 6 14.6417 9.57287 0.503737
3173 8 8.65788 6.3205 -1.33465
2743 1 12.1345 12.2325 2.20654
318 7 16.2091 8.71854 -2.49816
3045 4 14.1397 10.7147 -8.30812
332 7 16.0613 13.0118 -0.606596
2898 7 10.1884 11.1095 1.90177
2899 7 11.2137 12.2114 -0.205616
3002 3 9.17322 7.19678 4.34006
3202 7 13.8532 8.99453 -7.06811
175 6 15.6566 10.1926 1.25672
2903 7 12.8169 13.6066 -0.0444612
350 7 10.6932 12.2029 -6.22816
204 16 12.3563 6.73877 0.887285
3737 21 9.33259 13.2545 -3.33059
2747 2 10.6591 12.1309 1.80351
160 18 15.256 6.60745 -4.47987
2999 6 9.40924 6.47748 3.07291
2742 6 12.5723 11.5731 3.49415
185 6 13.0219 9.61219 -1.27694
209 6 12.7493 7.28659 -5.18639
190 6 12.536 10.0665 -2.51675
3179 7 9.74248 8.17809 4.31865
2991 6 8.33017 8.02427 1.35108
2989 6 8.31548 8.00051 -0.114221
186 6 13.0327 7.78938 0.34875
191 6 14.6201 13.0908 -2.91434
3177 7 9.77467 6.6876 5.13039
2739 6 13.8143 11.5106 5.49284
205 6 13.8913 6.59297 -5.47496
189 6 13.079 11.2563 -3.03453
188 6 14.2078 11.9046 -2.36265
343 7 13.022 12.5166 -7.08022
339 7 11.807 7.86894 -1.26538
177 6 15.8201 8.33487 2.73772
187 6 12.4904 8.45659 -0.703907
195 1 12.6449 13.1761 -6.32148
210 6 11.537 7.05261 -5.83323
359 7 12.7412 7.94386 -4.26924
179 6 16.2484 11.382 0.745582
2904 9 8.82408 13.2129 -0.616652
3738 22 9.02828 12.1396 -3.23103
173 6 16.0719 9.67101 2.49089
351 7 10.7712 13.0161 -8.59614
183 3 16.2577 7.61 4.00315
342 7 11.8697 11.1852 -4.84209
333 7 15.4831 7.02194 4.45912
2748 1 10.4909 12.6922 0.424579
3201 7 15.1119 8.77367 -8.27836
602 9 16.3669 10.82 -4.10935
329 7 16.5643 10.343 4.43494
346 7 15.1725 13.2985 -6.61505
208 6 11.5667 6.26547 -6.92227
2727 6 15.9443 9.13639 8.44268
2889 7 14.5879 12.0914 6.05974
555 6 16.5433 6.4206 14.3434
2730 6 14.2922 9.40304 6.77237
220 9 13.0693 6.89011 17.2446
3046 4 13.2879 11.0404 20.4777
2431 7 14.0614 9.68692 11.2701
2736 6 13.526 10.1818 5.85764
2729 6 14.1018 8.04342 6.7836
2238 15 12.1771 9.6112 13.6779
519 6 10.4352 12.8222 11.3596
696 7 15.2426 7.45845 12.5134
3199 7 11.8926 9.1447 18.0352
3041 2 11.6694 9.71524 18.9167
3040 16 9.53969 11.1068 20.0401
3200 7 11.2994 10.7164 18.6375
526 6 8.69115 11.1048 11.3605
2244 3 14.7253 10.2088 11.9801
695 7 13.2756 7.7986 11.0451
705 7 16.3241 7.42726 14.0009
3042 4 12.7013 9.82324 19.9824
2880 7 15.6498 10.9739 7.62996
2251 6 8.34425 12.9655 16.9695
3017 6 10.4083 8.99285 19.5285
2430 7 14.7609 11.3604 11.7665
2722 6 14.8344 7.19323 7.55403
683 7 13.9596 11.2965 9.16563
2245 2 9.81977 11.0018 14.9759
690 7 10.8754 7.69597 12.0732
534 2 9.92283 7.51108 11.4165
396 6 16.1973 12.8839 18.6096
592 7 16.4536 11.0038 19.7017
2433 7 10.3467 11.531 14.202
2234 6 10.7841 6.66865 15.3587
678 7 10.7474 11.428 9.82463
2423 7 12.5294 7.03998 14.3381
543 6 13.4165 6.80155 11.5227
530 6 9.51395 9.93973 11.4877
521 6 8.19199 13.4686 11.8871
2233 6 11.6103 7.62728 14.7279
2428 7 13.0838 9.50563 16.3197
3013 6 9.36252 6.93592 20.1338
723 7 16.319 13.1804 11.6872
691 7 9.45128 6.9084 9.45805
2432 7 8.75435 11.1924 14.8207
2426 7 15.5747 10.6713 16.4405
2429 7 15.757 9.84762 11.8353
2236 6 9.32732 8.46968 15.5304
3205 7 13.1548 12.0242 19.9978
3015 6 10.4524 7.6119 19.5287
398 14 14.98 12.5578 18.262
3198 9 10.1469 11.3592 19.3442
682 7 13.5356 12.8145 8.22255
535 2 10.1755 7.53555 9.95328
516 6 12.4872 12.6807 10.0437
2723 6 15.7599 7.74339 8.4174
686 7 10.5776 10.0035 11.5428
214 7 14.5483 8.2295 18.0268
2240 4 15.6664 10.023 14.2617
2434 7 11.3058 11.4524 16.4112
525 3 13.2417 12.0307 8.86133
544 6 14.4867 6.70145 12.3323
2241 4 14.536 10.0356 13.4437
2435 7 9.95487 10.7596 17.1758
692 7 10.0444 8.4952 9.48281
2242 2 15.3003 9.80577 15.71
2437 7 12.4728 13.1013 16.4448
1 6 15.1824 7.39535 18.2859
2243 4 13.8127 9.6427 15.5237
517 6 11.2361 12.2592 10.3486
2235 6 11.3553 8.98355 14.5096
689 7 9.51407 6.53083 11.6852
2728 6 15.2945 9.96172 7.57429
536 2 11.5377 7.01183 9.41705
694 7 12.326 7.79303 9.53515
5 6 16.3432 7.54022 18.9862
2246 2 10.2399 11.452 16.3532
531 6 9.04472 8.61516 11.5451
2237 6 10.0987 9.47594 14.9783
2239 4 13.4077 9.78704 14.1769
3126 7 8.46338 9.86264 7.16484
2231 6 9.47961 7.15501 15.8334
2427 7 15.659 8.79589 16.141
2247 6 9.65885 12.8396 16.6734
520 6 9.13887 12.4175 11.5174
693 7 11.5508 6.89333 8.28558
2227 6 8.34441 6.6382 16.3688
681 7 12.5093 11.4834 8.29772
3016 6 9.41227 9.74848 20.221
3185 7 11.2241 7.12516 19.0202
2733 6 13.2411 7.42673 5.82764
513 6 13.0647 13.6976 10.8487
3203 7 13.1443 7.687 20.4928
ITEM: TIMESTEP
200000
ITEM: NUMBER OF ATOMS
3720
ITEM: BOX BOUNDS pp pp pp
-1.8537588574456475e+01 1.6718568795531038e+01
-2.3979255497150550e+01 1.3751847255063144e+01
-9.0974558875061717e+00 2.0470114713729824e+01
ITEM: ATOMS id type x y z
916 6 -13.7876 -17.6488 5.04614
926 2 -10.8997 -20.0596 4.91469
1326 7 -14.4189 -21.7619 4.03233
1117 6 -13.4792 -22.6529 -1.38025
2173 7 -11.0005 -17.789 -8.7005
1116 6 -12.4672 -23.5004 -1.08253
498 4 -15.3565 -20.5858 -8.973
1119 6 -15.6397 -21.0341 1.76006
494 4 -16.0927 -19.5214 -8.49269
1124 6 -17.317 -19.5537 -0.766481
1809 7 -9.92111 -19.5312 -5.50004
1075 7 -9.99367 -19.5061 5.0929
927 2 -10.7321 -18.6655 0.887485
941 4 -14.5907 -16.8375 -4.17279
1321 7 -15.6919 -18.3587 -0.014804
1070 7 -13.4835 -17.7602 1.64877
1112 6 -12.0352 -23.8978 0.195819
1399 7 -16.864 -22.0705 -2.04134
925 2 -10.708 -21.1022 3.8528
1319 7 -16.7136 -19.2422 -2.88787
1231 1 -17.4602 -21.3353 -4.14598
1232 1 -17.2423 -22.8134 -4.57
1077 7 -10.0841 -17.9063 1.35523
655 7 -16.2311 -18.4418 -6.57322
654 7 -13.6854 -19.2795 -6.55174
1074 7 -11.6908 -21.6278 3.6662
1812 9 -10.7012 -19.2063 -3.41419
1235 2 -17.3586 -21.214 -2.59094
1120 6 -14.9322 -20.9301 -0.537075
924 1 -10.1518 -20.4411 2.70685
1398 7 -18.387 -21.1843 -2.24837
1123 1 -16.6131 -20.0019 -2.09447
497 4 -14.3412 -20.8714 -7.99938
1316 7 -13.4667 -22.2141 -2.37931
928 1 -9.82712 -19.4312 -0.0412325
1083 7 -10.261 -21.7646 1.11503
1134 6 -18.1815 -21.8899 1.62457
1393 7 -17.9538 -23.341 -3.89521
2021 2 -10.7656 -18.8114 -8.98278
1127 15 -16.5356 -20.6909 2.74917
1071 7 -11.8303 -20.2911 1.56217
1114 6 -12.7994 -23.5187 1.25589
496 4 -15.6843 -19.1937 -7.15181
921 6 -13.1159 -17.9128 2.73995
1115 6 -14.1238 -22.0935 -0.311998
1078 7 -11.6 -18.2397 0.374597
656 7 -13.474 -21.4979 -8.32646
1328 7 -15.8942 -22.7055 3.68644
1329 7 -17.3853 -22.4991 1.1864
1317 7 -14.6725 -20.7248 -2.71796
1389 7 -18.3225 -20.3907 -6.67009
1131 3 -14.7992 -22.5812 3.44285
918 6 -15.0797 -16.6311 3.28189
1392 7 -16.782 -20.6652 -4.6764
653 7 -14.7188 -20.5415 -5.88779
1079 7 -10.3169 -20.1639 -0.680215
1320 7 -16.7794 -18.9135 1.25633
1121 6 -15.5534 -20.3968 0.535595
1318 7 -14.4635 -19.2126 -1.68222
1092 7 -14.1633 -17.3699 -3.31023
917 6 -14.0414 -17.4783 3.68026
495 2 -14.4853 -20.0019 -6.78556
1122 2 -15.0476 -20.2065 -1.84432
923 1 -11.2281 -19.4975 2.11042
1656 1 -9.76493 -20.8516 -3.86203
1118 6 -14.7425 -22.0874 2.03
920 6 -11.9473 -19.0603 4.38102
1132 6 -17.8859 -20.9098 2.51087
1233 2 -17.5078 -23.104 -6.04586
1113 6 -13.8918 -22.6026 1.01064
1315 7 -11.776 -23.794 -1.90712
1659 16 -10.7783 -20.1286 -3.1643
1125 2 -16.3432 -19.1881 0.32797
2172 7 -11.1856 -19.5426 -8.20167
1236 2 -15.7891 -23.2639 -4.3161
652 7 -18.1691 -18.9162 -8.6013
1807 7 -10.354 -21.6776 -4.41051
1401 7 -15.3876 -22.7199 -3.44852
1163 13 -17.8585 -19.2085 4.81345
1394 7 -16.5858 -22.7006 -6.51402
922 6 -12.1153 -18.7993 3.05511
1400 7 -15.0697 -22.8371 -5.09259
919 6 -12.6961 -18.4644 5.38257
1089 7 -16.6623 -17.0572 -3.77389
1327 7 -14.2538 -23.5214 3.67681
1730 7 -10.9409 -23.8091 5.30844
1130 16 -12.366 -23.8476 2.54085
939 4 -15.9447 -16.7669 -4.46193
1086 7 -11.7164 -16.4285 -4.69864
1351 7 -18.0547 -16.6744 0.338773
1073 7 -10.0412 -21.9227 4.19876
1068 7 -15.4207 -16.5288 2.28571
3403 16 -16.7057 -23.9593 -8.92986
1060 7 -13.9218 -18.2516 7.76995
476 6 -14.6726 -18.735 13.5185
1057 7 -17.5002 -17.2503 9.94605
908 6 -14.5985 -17.4353 7.36936
632 9 -16.1648 -23.7556 14.5481
3384 6 -10.3599 -20.7797 12.3042
3397 6 -13.7715 -23.572 18.3447
2169 7 -11.7291 -21.0731 19.2998
3386 6 -12.2922 -22.2749 10.8861
479 6 -12.6793 -17.4283 13.7155
477 16 -15.0702 -19.9513 11.4505
3385 6 -11.624 -21.2048 10.1898
3387 6 -10.973 -21.8956 12.9398
3388 6 -12.0269 -22.5597 12.2624
1449 9 -17.1348 -19.2987 8.64463
480 6 -10.8819 -17.6664 15.2733
3396 6 -13.66 -22.3029 16.1954
3555 7 -13.3378 -21.3182 14.2442
657 7 -15.1209 -20.925 19.5707
3399 6 -15.169 -23.5429 18.821
465 6 -16.6759 -19.399 16.7276
481 6 -11.8395 -18.2597 14.4128
3389 16 -13.3813 -22.9569 10.2129
2162 7 -10.5967 -22.2817 16.9117
3552 9 -14.0546 -23.1247 10.8365
1069 7 -12.3384 -18.6552 6.42707
3556 7 -14.0381 -21.3413 16.5972
3383 6 -10.774 -20.5931 11.0444
638 7 -17.1767 -21.2057 13.0049
2013 6 -9.69554 -22.6915 17.3524
469 6 -17.4186 -19.3806 18.9753
466 6 -17.6117 -20.2863 16.5991
2160 7 -10.7257 -24.0476 15.2307
2020 1 -11.3752 -18.9932 19.1801
642 7 -11.8175 -19.3227 14.1493
639 7 -14.4408 -17.801 15.5523
907 6 -15.5708 -16.9746 8.19814
3401 6 -12.7675 -23.9264 19.2431
3391 6 -13.0382 -23.4272 14.1897
470 17 -17.6316 -20.9304 15.207
468 6 -18.3609 -20.3703 18.6148
1059 7 -15.5708 -17.4714 9.17296
473 6 -16.4377 -20.5711 13.4015
2171 7 -10.8782 -18.2607 18.5107
3794 21 -14.5585 -21.0894 7.8888
493 2 -17.1911 -18.8167 20.4255
3551 7 -10.6051 -21.9764 13.9334
478 15 -13.6731 -17.9639 12.9249
2170 7 -11.3282 -20.446 17.7111
467 6 -16.5139 -18.8748 18.0346
3395 6 -13.2674 -22.2486 14.8758
641 7 -10.2507 -18.2348 15.8621
3382 17 -10.1214 -19.5779 10.3364
1296 16 -17.779 -19.7466 9.16645
910 6 -14.5535 -16.9369 6.04252
472 6 -15.946 -19.3516 15.5164
3390 15 -12.8016 -23.6247 12.8418
2176 9 -12.9885 -17.813 19.0102
640 9 -15.8591 -20.3715 11.0853
474 6 -15.3289 -19.7417 12.7837
475 6 -14.8726 -18.5914 14.9217
637 7 -15.74 -18.1528 18.3027
471 6 -16.5555 -20.1711 14.6826
651 7 -17.0507 -17.7898 20.2746
1430 7 -17.6294 -22.5124 9.45326
1076 7 -11.2891 -20.5511 5.77268
3394 6 -13.5128 -23.4931 16.9761
3557 7 -15.9556 -23.4085 18.0871
3550 7 -11.8567 -20.9983 9.1937
2019 2 -11.0434 -20.4293 18.7143
2023 16 -12.7858 -18.7825 19.1792
3398 6 -15.4247 -23.8357 20.1445
3574 7 -12.2435 -16.6519 9.0744
943 7 -12.319 -14.3701 3.99491
1355 7 -11.2596 -14.5564 -1.69558
915 6 -16.7999 -15.0953 3.89787
1178 6 -12.4269 -13.3787 -3.14712
952 7 -11.0519 -10.5444 -5.38573
3348 16 -10.6537 -9.17764 5.72802
936 6 -12.4877 -16.1385 -5.44659
1173 6 -16.3869 -15.5846 -0.280355
765 16 -15.6977 -12.1253 1.5254
937 6 -13.06 -15.1875 -7.71641
914 6 -17.525 -14.3943 4.82009
1038 7 -13.1013 -9.45851 -8.38423
938 6 -12.1399 -15.6937 -6.73833
1176 6 -14.583 -14.1484 -1.51932
1182 3 -12.9436 -15.3521 0.0268231
960 9 -16.0178 -12.4689 2.33634
1172 6 -17.7539 -15.8947 -0.413585
909 6 -15.4653 -15.9637 5.7007
764 11 -15.3999 -10.0495 -0.451245
3505 7 -13.271 -10.2239 3.85998
737 6 -12.0856 -11.5476 0.628819
744 6 -13.6288 -12.7841 2.58448
1359 7 -11.8893 -15.6651 0.0561033
958 8 -15.5052 -9.15038 -0.792919
873 2 -12.6644 -10.441 -8.41916
267 7 -18.3508 -10.1715 -2.57848
1087 7 -12.6605 -14.831 -8.70129
1181 16 -11.3189 -13.0009 -3.81637
1353 8 -16.3289 -12.9811 -3.97806
1352 7 -15.7542 -16.1373 0.396871
1698 7 -9.7992 -14.9377 -4.04364
888 18 -15.6508 -14.6407 -8.46367
1177 6 -13.6252 -12.955 -3.479
2598 6 -17.2345 -11.2307 -5.61325
1170 6 -18.0543 -14.4125 -2.21646
953 7 -10.0767 -11.5349 -6.79072
1040 7 -14.0796 -12.6491 -7.46921
733 6 -11.6131 -14.0152 3.27485
1356 9 -11.6051 -12.4657 -4.58309
935 6 -14.7606 -15.7164 -6.14456
729 6 -10.3378 -14.4687 3.11257
2597 6 -18.1322 -12.1237 -6.24011
730 6 -10.1555 -12.7371 1.44307
868 1 -10.2249 -9.436 -8.71746
940 2 -16.2131 -15.8677 -5.59597
876 6 -14.1656 -12.4999 -8.56169
263 7 -18.2391 -10.4537 -0.194999
951 7 -11.9963 -9.56139 -3.45498
946 7 -14.1848 -13.3034 3.36402
933 6 -14.44 -15.2569 -7.37963
1354 7 -13.7463 -12.2095 -4.30231
1029 7 -9.95642 -9.54011 -7.65712
3309 2 -14.0435 -9.78194 4.48236
734 6 -12.2488 -13.0272 2.45066
3347 13 -10.8573 -10.5178 4.00693
1179 6 -13.2872 -14.5458 -1.19446
1180 6 -12.2612 -14.2878 -2.04694
2599 6 -18.4585 -12.081 -7.59245
1175 6 -14.6464 -13.4578 -2.7033
959 8 -15.8145 -10.2281 0.463357
1067 7 -17.1492 -15.0896 2.81903
1169 6 -16.7739 -13.9798 -2.17989
740 6 -13.1885 -9.49569 -0.897155
1171 6 -15.9 -14.5844 -1.17551
3308 6 -14.6457 -10.8266 5.38513
1037 7 -10.7948 -11.4256 -8.90016
752 6 -10.8993 -9.78888 -3.53046
1358 7 -13.1919 -14.9393 1.02988
1039 7 -12.5479 -10.8589 -7.41067
738 6 -11.2456 -10.5913 -0.039653
1090 7 -16.5723 -14.9396 -5.27521
732 6 -11.5006 -12.4454 1.45741
736 6 -9.90044 -10.7165 0.125532
1174 11 -16.0403 -13.2034 -3.06242
742 6 -14.0201 -10.4081 -0.32151
2600 6 -16.9125 -10.2566 -7.64487
739 6 -11.7999 -9.57765 -0.811792
932 16 -18.5558 -13.5774 4.28758
743 6 -14.2872 -12.0965 1.55857
2595 6 -16.4525 -10.2636 -6.41001
741 6 -13.4947 -11.41 0.590837
2601 6 -17.8637 -11.0151 -8.3663
2788 7 -17.2034 -11.2491 -4.53536
753 6 -10.3387 -10.394 -4.60089
1088 7 -11.0597 -15.6855 -6.98112
913 6 -15.781 -15.9017 4.27581
2591 6 -15.5621 -9.24104 -6.22528
3310 14 -15.5171 -11.644 5.00436
2786 9 -15.867 -9.73436 -3.7977
2596 20 -16.349 -8.97698 -8.82998
2594 16 -14.932 -9.52598 -3.88803
3346 5 -10.4785 -9.5037 4.37783
3504 7 -14.7749 -9.51503 3.66154
2787 7 -18.55 -12.8532 -5.43443
934 6 -13.8712 -16.157 -5.1947
1360 9 -18.4207 -13.5744 -3.8743
942 7 -9.88274 -15.2581 3.81627
748 6 -10.2088 -9.08354 -2.60906
1357 7 -13.4546 -16.3304 0.032862
1091 7 -16.943 -16.2784 -6.3767
902 6 -16.2677 -15.3791 6.59644
883 6 -16.2747 -12.1658 16.421
887 6 -16.4006 -9.35783 16.1653
3581 7 -13.9897 -15.4976 10.194
3576 7 -13.0656 -11.8152 9.14023
643 7 -13.3508 -15.4639 13.4803
3307 1 -14.0482 -10.891 6.74281
1043 7 -14.9239 -9.15129 17.5701
3411 2 -11.8621 -13.2265 7.38959
3587 7 -13.9988 -11.1704 11.7766
905 6 -17.9447 -14.1787 8.53194
3573 7 -11.4919 -13.8471 9.8533
3580 7 -12.8043 -15.2612 11.4562
486 6 -9.94514 -14.4646 18.5966
3415 1 -13.8377 -12.6017 8.84405
3268 9 -13.5062 -11.6163 13.6778
889 3 -16.2912 -15.3808 18.363
1042 7 -17.2411 -14.1366 16.3595
2908 7 -18.5027 -9.29727 6.69522
3416 1 -14.8212 -12.778 10.0305
3111 2 -10.7574 -10.5764 12.8755
3371 6 -10.7321 -15.3999 7.96156
487 6 -10.6714 -14.8725 17.5382
3532 9 -11.2642 -9.80691 6.18821
903 6 -16.4039 -15.9349 7.8923
900 2 -17.7096 -16.1949 10.0714
2796 7 -17.862 -11.8273 19.1782
3585 7 -16.2074 -11.6748 11.2774
872 2 -11.2823 -10.5164 20.409
3413 1 -12.3596 -14.4886 9.51287
879 6 -14.8362 -11.8862 18.3888
3418 2 -13.3274 -14.7382 10.6866
3306 2 -14.4483 -9.48827 7.28502
901 6 -17.3864 -15.4115 8.79606
886 6 -15.4236 -9.89161 16.9601
3421 2 -14.4993 -10.4722 11.079
3501 7 -15.6303 -9.5507 7.08308
878 6 -14 -11.1139 19.1507
1045 7 -17.2596 -15.3922 18.9223
882 6 -15.4699 -11.2892 17.2134
484 6 -11.746 -15.4402 14.8196
3420 2 -15.5079 -11.464 10.4286
2797 7 -17.5786 -10.0998 19.1858
3570 7 -11.5315 -12.2095 7.6627
895 6 -18.2408 -14.3652 13.2459
3582 7 -14.8365 -12.9898 6.84682
1046 7 -16.4436 -15.9205 17.5043
644 7 -11.7294 -14.3429 14.9744
483 6 -12.6389 -16.0351 13.9295
3261 7 -10.1744 -11.5138 12.6162
3584 7 -16.1019 -11.1059 9.55701
3571 7 -12.2774 -13.2401 6.31949
1056 7 -16.1081 -16.3347 11.3946
1041 7 -13.6966 -10.146 18.8332
3115 16 -12.5839 -11.9206 13.822
1066 7 -18.2325 -11.96 5.94197
3575 7 -10.9058 -16.0386 9.97814
3417 2 -14.0448 -13.4653 11.1753
884 6 -17.1068 -11.6445 15.4698
892 6 -18.5175 -9.75293 14.8973
3113 2 -10.7905 -11.2581 15.2479
898 2 -17.8143 -15.7715 12.7422
649 9 -10.2083 -13.7255 20.2181
885 6 -17.308 -10.2555 15.485
491 16 -10.4461 -13.483 19.3768
3262 7 -11.2898 -10.3179 11.9941
3578 7 -13.2446 -12.8738 11.5739
3503 7 -13.008 -11.0533 6.6514
3373 6 -10.7672 -14.2403 7.22256
906 6 -17.8636 -13.6864 7.20844
904 6 -17.2491 -14.4945 6.2141
3412 1 -12.9473 -13.732 8.40142
3414 2 -11.6234 -15.749 9.16866
899 2 -17.0738 -15.7603 11.4043
3572 7 -13.6234 -14.4457 7.974
881 6 -16.4213 -13.5122 16.817
1047 7 -15.5491 -15.8526 19.0884
3264 7 -10.3335 -12.2174 15.1658
645 7 -11.6577 -14.525 17.3943
1055 7 -16.6602 -14.7084 11.2829
3579 7 -14.6898 -13.5452 12.0669
1050 7 -16.3236 -13.8366 14.0618
894 6 -17.4263 -13.6104 14.0351
3419 2 -14.6281 -12.1192 7.52439
3577 7 -15.5522 -13.5119 9.72487
3583 7 -15.7302 -11.9974 7.79088
890 6 -17.868 -12.3792 14.5523
880 6 -15.9085 -13.999 17.9947
3265 7 -11.4341 -11.4145 16.1634
877 6 -15.1779 -13.1907 18.8531
1036 7 -11.4543 -10.5197 19.2985
3112 1 -11.6982 -10.8629 14.0435
2609 2 -18.1505 -10.8455 19.702
3502 7 -14.3653 -9.40603 8.33355
485 6 -10.0724 -15.8479 16.6388
874 6 -13.6376 -11.3261 20.4713
3263 7 -12.2409 -9.93825 14.4881
3422 6 -15.076 -9.21799 11.6894
1062 7 -18.2091 -12.3916 9.70075
3586 7 -13.8691 -10.2152 10.2322
3588 7 -17.2033 -9.53094 11.1347
1054 7 -17.0962 -16.2167 13.4185
3114 2 -9.76933 -10.1402 15.5243
875 6 -14.9463 -13.3275 20.2527
3267 7 -10.384 -9.24645 15.7143
3424 6 -16.4262 -8.92992 11.6446
482 6 -10.765 -16.2877 15.5102
1064 7 -18.2238 -11.6018 7.65341
912 3 -18.4896 -12.3679 6.91125
2692 2 -15.6721 -6.2295 0.0928125
2859 7 -15.4236 -7.38801 1.98604
2590 6 -13.9847 -7.72573 -5.22633
2568 6 -9.88759 -3.16674 -2.19709
2782 7 -10.9247 -6.88733 -5.88905
2693 2 -14.9997 -6.50001 1.44838
2589 6 -14.7605 -8.87651 -5.04313
2775 7 -15.2283 -5.7401 -2.62233
2587 3 -10.4294 -5.95638 -5.44595
320 7 -18.0381 -2.17872 -0.686643
2785 7 -13.5201 -7.30453 -4.26734
2579 1 -15.8621 -4.90988 -2.91929
2581 2 -15.2191 -4.49306 -5.34628
949 7 -10.4332 -7.89854 -0.871583
3798 21 -12.995 -1.84344 -6.95689
2858 7 -13.9969 -6.82998 1.2084
2588 6 -13.922 -6.97619 -6.40704
2583 15 -12.9889 -5.94214 -6.57073
2576 6 -13.7209 -3.94115 -3.57135
2861 7 -14.3374 -3.93589 1.05443
2700 6 -15.5223 -1.84131 5.0143
747 2 -11.0649 -8.49336 -1.56306
2855 7 -17.1928 -4.1465 -1.26382
1032 7 -10.1226 -5.95486 -9.16796
2574 6 -11.5362 -5.1177 -4.82929
2696 6 -15.4653 -5.42143 3.68502
2856 7 -15.3879 -7.01521 -0.70957
869 2 -10.6826 -8.04539 -9.09438
2783 7 -9.83016 -6.50118 -4.76351
2706 6 -13.5894 -1.45917 1.29019
2863 7 -13.2193 -2.36231 0.848323
3311 15 -12.6638 -7.85876 3.05302
2572 6 -11.0169 -2.79273 -1.4386
2857 7 -15.346 -5.21216 -0.263129
2771 7 -10.9569 -2.31194 -0.475843
2849 7 -17.6452 -5.14991 0.423244
2580 6 -16.1041 -5.15788 -4.36858
2578 2 -15.0131 -3.61391 -2.78516
2860 7 -15.4763 -6.43274 4.14367
2854 7 -17.9614 -4.5264 -2.78689
2593 6 -15.4584 -8.47791 -7.23692
950 7 -11.8511 -7.79702 -1.91792
945 7 -13.5556 -8.7088 -1.58421
2592 6 -14.6751 -7.42922 -7.5986
2774 7 -14.8269 -3.33246 -1.679
2577 6 -13.8905 -4.62899 -4.74306
2689 2 -17.7835 -7.35302 0.890812
1031 7 -11.4536 -7.75926 -8.3639
2773 7 -15.5582 -2.73833 -3.19832
3510 7 -11.129 -5.07854 4.08353
3511 7 -12.674 -4.25595 4.32622
2688 1 -17.2625 -6.13509 0.0675972
3302 6 -12.667 -6.33152 4.93596
3316 6 -11.3078 -7.72625 2.58961
2570 6 -9.9987 -3.88255 -3.38204
2582 14 -17.0471 -5.99199 -4.8609
2784 7 -9.76234 -5.43189 -6.12499
3305 6 -13.6204 -8.51721 5.1729
2699 6 -14.94 -2.83233 2.89769
2569 6 -11.319 -4.23731 -3.76001
2691 2 -17.1991 -4.87599 -2.12023
2695 6 -15.6659 -4.39706 4.52635
2776 7 -15.4325 -3.34864 -5.52954
2777 7 -15.3848 -4.8752 -6.36482
3513 7 -11.7534 -6.2113 0.958165
2698 6 -14.75 -3.94656 2.05435
2848 7 -17.0585 -7.1698 -1.81422
3318 6 -10.9717 -6.86422 1.50546
2687 1 -17.5598 -6.20552 -1.44856
2850 7 -17.2424 -8.26405 0.554019
2702 6 -14.5096 -1.62137 2.39923
2697 6 -15.4645 -3.00208 4.21186
3800 22 -12.2298 -2.38038 -7.64377
3320 6 -10.2772 -8.43823 3.31613
2694 6 -15.0661 -5.23712 2.38312
2573 6 -12.2337 -3.05533 -1.88004
3512 7 -12.4245 -5.44765 2.95621
3315 3 -12.1733 -5.25354 4.03722
2851 7 -17.5615 -7.19835 1.93282
3303 6 -12.8984 -7.59471 4.40716
2571 6 -12.4209 -3.75164 -3.07222
2772 7 -13.1181 -2.59785 -1.4352
2911 7 -18.2472 -4.20757 3.39177
2575 6 -12.8083 -5.27673 -5.35835
3743 21 -16.004 -2.58504 -8.99576
3745 22 -15.2903 -2.41775 -8.09663
2808 7 -17.7048 -1.97669 -5.87586
2618 5 -14.6822 -6.64739 -8.94453
715 7 -16.6507 -2.65351 13.5699
3254 7 -10.5398 -8.79068 10.7438
2709 3 -15.8514 -1.8115 6.50841
3599 7 -12.4674 -3.0888 19.6431
3433 6 -12.2903 -5.75268 15.8257
838 6 -10.9501 -2.04298 12.8985
3435 6 -11.7396 -6.46521 14.7369
3591 7 -11.8462 -7.08026 12.816
3594 7 -18.0677 -4.58584 14.7669
3301 6 -13.6418 -6.98499 8.48535
3485 6 -18.0146 -5.64685 10.2657
2753 6 -17.5689 -6.03018 5.83831
3590 7 -16.1477 -4.66675 15.4309
720 9 -15.8766 -3.24628 10.8811
2708 18 -16.3449 -4.87073 6.08626
3434 6 -12.4449 -6.5361 13.6048
3438 6 -13.8889 -4.18704 16.6795
564 1 -16.5317 -2.31082 12.4992
3255 7 -10.2596 -8.53901 13.4148
3432 6 -13.5448 -5.11797 15.7408
3251 7 -9.95768 -5.99266 6.76776
3314 16 -11.5487 -4.02157 6.57505
2804 9 -15.768 -5.74642 19.3646
3598 7 -14.7566 -2.69859 15.3601
841 16 -12.1993 -2.40047 12.5909
567 16 -15.7751 -3.36992 11.8201
1004 9 -12.6665 -1.66657 12.0683
3288 6 -10.3601 -4.84666 10.8052
3595 7 -18.341 -4.85969 13.0023
3492 7 -10.3129 -2.20859 7.74091
3445 6 -13.6487 -1.82156 18.45
3500 7 -14.0279 -7.63975 9.24835
3497 7 -11.9599 -2.76428 8.86199
231 8 -18.5903 -4.42675 17.7934
3425 6 -16.1256 -6.85003 12.9334
2619 13 -13.935 -6.76683 19.7758
3498 7 -12.4689 -3.74833 10.219
3295 2 -11.8519 -3.80992 9.34209
3444 6 -13.2 -3.09658 18.8017
2802 7 -18.1666 -6.90586 19.3934
563 2 -17.9253 -1.96827 11.8443
3423 6 -16.9228 -7.7733 12.2093
2867 7 -15.0888 -2.26165 7.12026
1002 7 -10.3244 -3.77074 14.0854
3287 6 -10.401 -4.02723 9.71379
3442 6 -14.3677 -2.8365 16.3581
3430 6 -13.7725 -6.20033 13.5607
3431 6 -14.3386 -5.43993 14.6186
3300 6 -13.2329 -5.77273 9.1389
3486 6 -18.3391 -4.71131 9.32703
3441 6 -12.1425 -5.11164 18.1884
3589 7 -13.1626 -8.48202 12.3994
3439 6 -13.2351 -4.22554 17.9224
3297 6 -12.852 -6.19372 6.36489
3426 6 -14.2556 -8.27371 12.2998
3597 7 -11.5224 -5.25668 19.0891
3493 7 -11.2393 -5.09984 11.2689
3427 6 -14.6851 -7.05561 12.8722
3296 6 -12.4268 -4.9136 8.44118
3299 6 -13.385 -7.26121 7.11516
230 8 -18.5744 -2.94123 18.306
2758 6 -18.5657 -8.16648 6.38965
3437 3 -18.021 -5.32279 13.9548
3298 6 -12.3139 -5.04176 7.12461
3428 6 -16.5917 -5.87056 13.7866
2757 6 -17.5211 -7.2619 6.53656
3635 7 -16.9143 -5.79806 10.4654
3636 7 -17.5547 -4.12322 8.77439
2866 7 -16.8695 -2.15325 6.6521
3429 6 -15.718 -5.28882 14.637
3499 7 -13.1821 -5.82897 10.2113
3440 6 -11.5874 -5.7251 17.0765
3509 9 -11.9619 -3.19589 6.70267
3443 6 -14.2141 -1.72895 17.1855
3304 6 -13.8011 -8.40879 6.52889
2507 7 -10.191 -2.60968 18.8506
2620 16 -15.9048 -5.94475 20.2344
1044 7 -16.5283 -8.31715 16.0195
2907 7 -16.7227 -7.54597 7.25602
3744 22 -16.7177 -2.75235 19.6728
837 6 -10.0281 -2.80336 13.6498
3592 7 -10.7033 -6.90137 14.864
713 7 -17.644 -1.63407 10.7932
2352 6 -10.0131 -1.72447 19.4887
1030 7 -11.1884 -8.19548 19.4512
3596 7 -10.6395 -6.34055 17.2519
3252 7 -10.3313 -7.37355 8.71184
2555 6 -10.0491 0.96493 -3.09916
2714 6 -16.7091 1.70802 3.41911
2811 7 -16.4521 2.83472 -6.90163
2712 6 -13.5618 2.16813 0.776495
579 7 -12.1788 3.07485 3.73233
3676 22 -12.911 -1.06862 -4.03548
2711 6 -15.3286 3.13569 2.04006
3617 7 -13.3564 5.21328 -7.55307
605 7 -14.8764 4.67826 -2.68758
380 6 -13.817 4.81151 5.13711
163 6 -17.5779 1.09604 -1.62908
2715 6 -17.6584 2.64038 3.59555
2552 6 -10.0386 1.94703 -0.88822
2705 6 -13.8087 0.870001 1.42023
2704 6 -14.6762 0.749009 2.48757
2554 6 -10.3425 2.97753 -0.0158156
164 6 -18.1632 -1.19358 -1.1958
2551 6 -10.9276 3.28301 -2.75236
2634 6 -17.7873 2.86462 -8.63104
2716 6 -16.2599 4.17176 2.20971
2566 16 -11.1431 3.59949 -4.07925
2763 7 -11.4925 4.7665 0.280227
3674 21 -13.4732 -0.168283 -3.56753
2550 6 -10.3706 2.0523 -2.23832
2869 7 -14.3 4.3063 0.646518
2502 7 -10.078 3.93114 -6.68279
2553 6 -11.1292 4.07383 -0.519375
3821 22 -12.8778 1.13223 -5.97413
2565 19 -10.4502 1.05385 -4.74625
165 6 -17.2669 -0.203196 -1.10812
3819 21 -12.9715 1.72941 -6.96419
321 7 -16.359 -0.364342 -0.560974
2767 10 -10.3864 0.0332071 -5.61915
578 7 -11.539 0.828368 4.51308
2564 6 -10.0096 2.85397 1.35788
421 4 -16.0752 6.12235 -3.71876
370 6 -13.3129 3.52275 5.56136
2638 3 -16.897 0.592723 -5.69176
2707 6 -13.2164 -0.246549 0.889109
2868 7 -12.9748 2.22273 -0.183746
2768 9 -10.5688 3.09721 -4.64277
2870 7 -17.0448 0.715306 3.68535
2864 7 -12.4691 -0.235624 -0.041117
2871 7 -16.0742 5.08566 1.63028
169 6 -17.5874 3.4329 -1.0897
2636 6 -17.2237 2.34985 -7.44962
3820 22 -13.0652 2.32655 -7.95424
323 7 -16.1239 2.00457 -0.429026
424 3 -16.3829 5.2122 -4.85406
2762 7 -11.7483 5.19613 -2.25627
3675 22 -14.0353 0.732106 -3.09951
420 4 -15.3256 5.69454 -2.61203
2814 7 -17.5868 0.024711 -4.98939
2703 6 -14.7667 -0.504777 3.17716
610 7 -16.0811 5.57821 -5.84064
2713 6 -14.3567 3.24837 1.03703
2815 7 -16.4508 1.30193 -5.05032
2635 6 -17.556 1.14752 -6.929
2766 7 -10.4944 3.73167 1.85677
2549 6 -11.2647 4.26455 -1.84259
324 7 -17.2723 4.2207 -0.469542
168 6 -16.9257 2.21652 -1.11341
609 7 -15.7009 4.4267 -4.71165
2717 6 -17.3911 3.88582 2.96165
2710 6 -15.535 1.85235 2.67778
582 7 -13.5874 5.26898 4.13188
2701 6 -15.2677 -0.632157 4.45815
2862 7 -15.2457 0.172644 5.18284
369 6 -12.4092 2.74653 4.74778
365 6 -12.1757 1.46735 5.12742
2501 7 -10.0064 5.69228 -6.76993
2872 7 -18.2151 4.60554 3.31655
611 7 -17.4217 4.76608 -4.9156
2813 7 -16.0687 -0.11348 -5.96341
3624 7 -12.8337 5.3915 -5.42948
2632 6 -18.4759 0.321581 -7.60731
326 7 -18.5459 5.73008 -2.13088
3467 6 -12.8815 6.19811 -7.80011
3799 22 -13.7602 -1.30646 -6.2701
3455 6 -13.6692 3.58612 18.4412
585 7 -15.1499 3.59319 11.7273
584 9 -12.6132 -0.510643 7.46452
842 15 -11.3183 -0.00590015 11.6025
367 6 -12.7605 0.911332 6.25589
3446 2 -14.7957 -0.361967 16.8714
372 6 -14.7406 1.99856 9.23935
3605 7 -14.892 1.86003 15.1636
3450 6 -12.2401 4.97787 17.1182
37 16 -18.2288 -0.881277 17.5363
2347 6 -10.0308 -0.486277 18.8622
3606 7 -15.0916 2.18358 16.8126
3609 7 -11.6988 1.16088 14.2978
3614 7 -10.649 4.34415 13.0364
3448 2 -14.3357 1.99549 16.0967
843 6 -10.5951 0.614617 10.6358
3600 7 -13.4606 -0.980638 19.0816
379 6 -14.5128 5.6268 5.96205
583 10 -13.8115 -0.498634 10.3422
3459 3 -12.4273 1.97497 13.9939
3453 6 -12.3664 3.10493 15.0306
580 7 -15.0804 1.57852 10.1972
3601 7 -15.5011 -0.033295 17.6535
1009 7 -10.0409 3.44175 6.73201
1005 7 -10.6166 3.37305 8.67838
597 9 -15.4602 3.93261 13.4508
384 6 -17.2501 4.55982 11.9905
3607 7 -14.2156 2.60153 18.5085
3603 7 -13.232 0.685004 17.6785
388 6 -18.3831 5.05262 11.3858
385 6 -18.4431 5.15032 14.0797
718 7 -15.968 1.02005 12.9341
3602 7 -15.4184 -0.396448 15.9603
560 1 -17.9354 0.307724 12.5235
3458 6 -12.8643 5.67645 19.2865
375 6 -15.6139 4.23145 9.75005
845 6 -10.9372 1.82742 10.1259
2865 7 -15.85 -0.705025 6.77187
598 7 -18.1815 3.79386 17.2959
586 7 -16.5704 2.88252 10.9566
3456 6 -13.5681 4.46568 19.4589
2505 7 -10.8603 -1.23985 16.9273
566 2 -16.5398 0.110195 13.0943
3457 6 -12.285 6.00788 18.0138
844 6 -10.253 2.42189 9.13767
3451 6 -13.0895 3.86594 17.1658
3449 6 -13.2258 3.00562 16.0791
368 6 -13.8354 3.00944 6.78583
383 2 -16.1249 3.79021 11.221
2637 16 -17.4104 4.05134 20.3657
3452 6 -11.3345 5.05383 15.9834
3447 2 -13.7299 0.69882 16.6761
3604 7 -12.9581 0.278002 16.0297
2812 9 -17.6852 3.98169 19.4775
377 6 -14.855 5.16312 7.18841
3611 7 -12.2436 2.34664 13.027
599 7 -16.8257 4.4411 16.3509
371 6 -14.0273 1.19215 8.40189
716 7 -15.64 -0.76328 11.3759
402 16 -16.2443 3.97761 14.0139
600 7 -17.7618 2.8417 15.828
376 6 -15.7683 5.55746 9.39501
373 6 -14.5532 3.86567 7.62436
386 6 -17.3114 4.60481 13.3767
381 19 -13.5208 -0.318535 9.05806
719 7 -16.6156 -0.207346 14.1365
2504 7 -10.0561 0.83148 15.6621
382 16 -12.4545 -0.387766 6.50873
3612 7 -10.2044 2.78721 13.6305
403 3 -17.828 3.87497 16.2942
3454 6 -11.3177 4.01542 15.026
709 7 -17.8577 2.19247 13.2935
366 6 -13.5592 1.68035 7.14914
3610 7 -13.3778 1.47879 13.8849
374 6 -14.9924 3.36168 8.86336
2349 6 -10.4018 -0.306173 17.4632
587 7 -18.3702 5.00747 10.2429
1006 7 -11.9821 2.30432 10.3693
708 7 -17.6352 0.681444 11.4869
3460 3 -10.2958 3.83669 13.9296
2875 7 -17.6358 2.61043 6.10579
1740 7 -13.8034 5.13604 14.3707
840 6 -10.452 -0.756911 12.4193
717 7 -14.7739 -1.14811 12.9675
565 2 -15.7038 -1.03537 12.4068
2348 6 -9.88743 0.808081 16.7389
1739 7 -13.4353 5.98529 12.1301
378 6 -15.5022 6.01514 8.09772
232 9 -17.7563 -0.0448566 17.6349
436 16 -16.9005 6.13539 17.7748
3462 6 -10.6108 6.20224 15.83
581 7 -16.0538 6.3741 10.1567
3608 7 -13.8496 4.1396 20.4623
425 2 -16.2179 8.58468 -7.03801
612 7 -15.7213 8.30122 -8.04728
1111 2 -10.7978 12.984 0.155861
3619 7 -10.4621 9.07071 -5.71684
606 7 -14.1323 6.8481 -1.28426
1237 2 -15.6459 12.9173 -4.28163
1403 7 -15.8024 12.4592 -5.21788
3618 7 -11.4928 9.67872 -8.44436
1255 6 -17.7878 10.5209 4.85018
614 7 -15.332 10.418 -6.81107
608 7 -16.2014 8.75004 -1.69614
1407 7 -14.5601 11.6788 -0.18227
1408 7 -13.9011 11.2574 2.14649
613 7 -15.5194 8.42061 -6.22255
3628 7 -12.7068 11.0967 -3.03309
1246 6 -16.7432 11.7009 0.313416
3629 7 -10.9119 11.1464 -2.69153
3478 2 -11.3617 9.35815 -3.43124
1325 9 -11.4684 13.6035 2.37328
401 16 -14.7394 6.91362 5.43091
1102 6 -10.2539 11.3835 2.09977
1105 6 -11.3566 9.19685 2.20563
417 6 -17.533 7.95969 -6.72371
3472 1 -12.0583 8.56451 -4.49258
3621 7 -12.0694 6.73391 -3.34521
3632 9 -12.4884 12.9642 -5.45014
426 2 -16.4019 10.0873 -6.96718
419 4 -16.4544 7.45469 -3.45725
1251 6 -14.9745 11.45 1.97241
1107 6 -11.764 7.99352 2.87374
1242 6 -16.404 12.4136 -1.98091
3622 7 -10.7794 6.75992 -4.66844
1313 7 -10.3923 12.8064 -0.817068
3473 2 -11.8059 7.05017 -4.38978
615 7 -17.1104 10.2479 -6.11351
3560 7 -12.3813 13.2953 -8.15315
1309 7 -12.2498 11.1089 -0.493682
3474 2 -12.904 6.48436 -5.34291
3646 21 -16.2881 7.93239 1.75661
1249 6 -15.9201 11.2211 2.9462
1098 6 -10.3399 8.69016 4.65855
3558 7 -14.7409 13.2542 -7.47809
1254 6 -18.0922 11.4001 3.7953
3620 7 -13.1652 8.55632 -4.45996
1257 6 -16.4837 9.95978 4.92293
3468 6 -12.6147 7.00505 -6.71976
3648 22 -17.01 8.52853 1.07206
1732 9 -12.3852 12.1321 4.61781
416 6 -18.4064 7.36442 -7.59509
1101 6 -10.5674 10.1867 2.78711
1128 11 -12.7478 8.69404 0.234134
1402 7 -14.5349 12.7415 -3.96896
3627 7 -10.2469 11.5749 -4.89714
3479 16 -11.785 12.8703 -4.79398
415 6 -17.9323 7.79434 -5.35475
1096 6 -10.067 9.88708 4.01569
3647 22 -15.566 7.33575 2.44103
3470 6 -12.0299 8.23871 -6.93198
423 4 -15.9279 7.79353 -2.15798
1243 6 -17.2044 11.798 -1.02952
3630 7 -11.7095 8.97918 -2.47439
1395 7 -17.429 13.5815 -6.22378
3623 7 -13.8355 6.723 -4.8403
1129 16 -12.7 7.11622 2.36651
1405 7 -15.6308 13.0345 -1.54074
3626 7 -11.5454 11.0454 -6.85497
1412 7 -14.4212 10.022 4.24482
3477 2 -11.6482 10.8026 -3.44942
1323 8 -13.297 8.99067 -0.527044
418 15 -17.1697 8.28914 -4.28091
1250 6 -15.3447 11.6627 0.649239
1322 8 -13.0798 7.8234 0.643606
3475 2 -11.9328 10.6485 -5.8873
1241 6 -18.4722 11.2365 -1.40152
3625 7 -13.0643 10.7548 -5.77513
1106 6 -11.9179 9.48324 0.960958
3476 1 -11.3311 11.5139 -4.79589
1103 6 -10.9065 11.712 0.941487
1310 7 -11.4282 6.79653 4.58936
3469 6 -11.7648 8.62581 -8.24402
427 6 -17.0598 10.5905 -8.32303
1108 6 -11.2139 7.7748 4.08453
619 7 -14.4553 10.5838 -8.75885
3471 1 -11.5879 9.15373 -5.81664
1256 6 -15.4918 10.4419 4.1137
1238 6 -16.6059 12.362 -3.33129
431 6 -18.4002 11.0048 -8.21479
3631 7 -10.3391 9.10851 -3.42396
1104 6 -11.7935 10.7821 0.426974
1248 6 -17.2833 11.5327 2.66445
1247 6 -17.6779 11.618 1.3553
728 7 -17.9053 6.39957 4.99647
422 2 -15.1314 6.68877 -1.55877
1240 6 -17.8275 11.7681 -3.66691
1569 16 -12.5628 11.7471 5.446
3400 6 -14.4004 13.5368 -8.57481
1404 7 -17.9594 11.5536 -4.73389
3402 6 -13.0989 13.5055 -8.99642
607 7 -15.5779 6.33611 -0.639116
1314 7 -9.94133 13.5046 0.600042
3561 9 -16.6433 13.2304 -8.15558
1324 9 -13.1045 6.60535 3.02048
621 7 -18.1846 12.5022 17.1198
3553 7 -13.1775 12.11 16.8862
446 11 -16.2892 12.8724 12.1656
1736 7 -14.0911 10.8254 11.8547
620 9 -16.2498 6.64353 17.295
1570 15 -12.4251 10.2905 7.609
627 7 -16.8777 9.65199 8.0548
1565 6 -10.9523 13.4101 6.26386
2010 6 -9.91807 13.1993 15.7009
1573 6 -12.6425 8.45102 9.17194
1576 6 -13.6504 10.1065 11.1178
442 6 -16.9358 12.2951 14.5826
1572 6 -12.9055 8.03059 10.4096
3461 6 -11.6176 7.21032 17.8784
1579 6 -13.9272 8.85655 13.8413
400 11 -15.6931 7.44018 7.91973
1733 7 -12.6079 6.96669 10.5457
1571 6 -12.7688 9.78165 8.86276
455 16 -16.2827 13.3317 15.2332
1734 7 -12.4234 7.66285 8.43971
449 6 -15.9646 12.4977 9.71471
594 8 -14.8748 7.91807 8.28772
623 7 -18.4021 9.30732 15.4602
617 7 -14.7178 9.32337 19.6446
596 9 -15.6919 7.11257 5.61652
447 6 -16.4658 12.206 10.9573
452 6 -16.7826 10.3197 8.97589
1564 6 -10.0642 13.1276 8.52153
450 6 -16.1613 11.541 8.72006
435 13 -18.2216 7.85072 17.419
3554 7 -13.1104 12.1401 14.2721
433 3 -14.8942 10.362 19.8048
1738 7 -14.2682 6.63883 16.3661
1574 6 -13.4324 8.7726 11.4711
628 9 -15.7937 12.765 7.25722
1741 9 -14.7971 8.73303 16.9153
443 6 -17.3996 10.9551 12.6387
1580 6 -14.146 6.98063 15.278
1575 6 -13.3017 10.5944 9.84055
2177 9 -10.9866 10.8721 12.0319
444 6 -17.9248 10.1042 14.8044
595 8 -15.7171 7.62155 6.94375
618 7 -14.3545 11.0116 19.1072
3464 6 -12.5722 6.49624 20.4508
624 7 -18.2187 8.9582 13.146
440 6 -17.5909 11.3095 15.3816
3466 6 -11.4645 8.14693 18.9665
438 15 -16.7383 11.0316 17.6262
1578 6 -14.1824 8.35904 15.136
451 6 -17.4004 10.0534 10.2143
631 7 -17.9616 8.03377 9.50806
3393 6 -13.113 13.043 14.9249
445 6 -17.9578 9.96244 13.4653
3392 6 -13.1683 13.0181 16.2954
441 6 -16.8659 12.0732 13.2028
3559 7 -11.7537 13.7457 18.8113
1568 6 -11.6219 11.4765 7.61447
454 3 -17.8522 8.57553 10.4238
1577 6 -13.6407 8.13173 12.7131
3616 7 -10.8527 9.07825 18.788
448 6 -17.2178 11.0015 11.2167
1737 7 -13.9606 9.97412 13.7402
1425 7 -18.5576 13.3689 8.38158
412 20 -17.795 7.7222 20.3369
1413 7 -16.4215 9.34705 5.78335
630 7 -17.2025 7.95798 11.0507
1731 7 -10.5632 11.3372 9.57595
434 5 -18.1467 6.75643 17.7535
439 2 -17.8801 11.4837 16.8411
1583 16 -14.4169 9.19773 16.1845
430 12 -18.4603 11.396 19.0405
1735 7 -13.4152 11.6909 9.56952
429 6 -16.4039 10.6391 19.9996
1563 6 -10.2387 13.7299 7.32238
626 7 -15.5976 13.4878 9.43958
428 6 -17.1867 11.045 18.8843
3615 7 -10.2605 8.14697 16.5393
1581 6 -13.5788 6.71809 12.9175
1567 6 -10.7595 11.8761 8.62123
3463 6 -10.7588 7.21751 16.7064
3465 6 -11.9542 7.78973 20.2179
1566 6 -11.7163 12.2384 6.42953
1415 7 -18.6221 9.52442 6.61466
2159 7 -10.8667 12.2281 13.5263
2007 6 -10.0169 11.612 13.927
453 16 -15.7622 11.7879 7.42062
2024 16 -10.3619 10.1839 12.1699
625 8 -15.609 13.6372 12.1794
1307 7 -9.9927 7.59485 6.41563
3480 16 -9.83671 6.46154 14.6799
1582 6 -13.8392 6.19655 14.1914
1713 7 -3.61798 -17.0195 4.85253
1800 7 -6.7344 -20.6349 -4.36772
1084 9 -9.16845 -17.6247 -0.559282
1550 6 -6.38931 -19.5314 5.09479
2164 7 -9.42791 -20.939 -8.58688
1469 6 -1.77093 -21.7968 -0.859424
2174 7 -8.76223 -18.9508 -7.96256
1493 16 -3.59778 -20.6362 -2.00896
1857 16 -4.05418 -19.0592 -6.32968
1674 7 -5.02628 -21.4181 -0.123941
1856 11 -5.54662 -17.0331 -7.53612
1804 7 -4.08691 -22.9729 -5.20396
1658 2 -8.25341 -20.9007 -5.8022
1652 1 -7.20117 -21.4748 -4.8946
1655 2 -8.71841 -21.5548 -2.94016
2167 7 -7.58096 -22.6503 -8.68121
930 2 -9.46795 -21.2414 1.6587
1472 6 -4.00725 -21.7207 0.023181
1671 7 -5.55059 -22.3567 2.07892
1811 7 -8.86355 -21.5531 -6.39391
1492 11 -1.19529 -21.3759 -3.22567
1705 7 -5.51314 -17.3104 -2.64006
1725 7 -7.41863 -19.2714 4.9087
1552 6 -4.15893 -19.6962 4.29248
1460 6 -2.19117 -22.588 1.41545
1805 7 -8.15978 -20.7829 -2.40859
1651 1 -7.87677 -22.4587 -3.84028
2022 2 -9.21364 -18.9522 -8.99516
1808 7 -8.58357 -19.2473 -4.39567
1799 7 -8.58052 -23.0841 -4.35105
3152 7 -1.91134 -23.5454 -7.26944
1465 6 -1.32011 -22.3004 0.399982
1081 7 -8.14831 -20.7314 -0.0639494
1700 7 -7.80964 -16.4912 -4.77436
1708 7 -6.33758 -18.4427 0.246573
2052 9 -3.79921 -19.8904 -5.9445
1801 7 -5.57183 -21.4158 -6.3408
1529 15 -5.966 -19.3779 2.67077
1648 6 -5.38525 -23.2723 -3.50683
1457 6 -4.03512 -23.0834 3.39763
1726 7 -3.39731 -19.589 3.55961
1522 12 -5.23331 -17.2061 3.15313
1311 10 -7.77532 -23.4624 4.05588
1647 6 -4.45274 -23.9349 -2.78142
1688 9 -4.54094 -20.5556 -1.87438
1523 6 -5.79518 -17.7209 0.953259
1458 6 -1.70648 -23.1053 2.63222
1704 7 -4.34463 -17.9628 -1.58927
1517 2 -4.74041 -16.977 -1.91991
1082 7 -8.75876 -21.9369 2.11213
1686 8 -2.00581 -21.69 -3.69085
2051 8 -5.74085 -17.7157 -6.75656
1657 2 -9.12351 -20.0009 -4.93195
1519 6 -5.364 -16.5298 0.538217
1670 7 -4.69398 -23.3236 4.2254
1080 7 -8.03696 -19.7173 1.30799
1650 6 -6.75061 -23.2468 -3.11008
1459 6 -2.67241 -23.2953 3.64866
929 2 -8.80529 -20.2798 0.708709
1810 7 -7.80599 -20.2225 -6.45403
1504 20 -2.21613 -16.8707 -0.79147
1461 6 -4.50738 -22.5445 2.25285
1524 6 -5.65319 -18.0907 2.26089
1462 6 -3.59224 -22.3152 1.21018
1802 7 -6.26641 -23.0943 -6.19732
1806 7 -9.12261 -22.0956 -2.11693
1803 7 -4.35587 -21.5139 -4.2825
1653 2 -6.02784 -22.0816 -5.5943
1797 7 -3.43561 -23.6503 -3.0281
1833 6 -3.22795 -16.8048 -6.64954
1654 2 -4.8569 -22.4064 -4.62675
1835 6 -3.13473 -18.0951 -6.06006
1471 6 -3.11702 -21.3664 -0.962339
1548 6 -5.53038 -19.5082 4.00976
1072 7 -9.28612 -19.9468 3.10418
1712 9 -1.12548 -19.1424 1.59156
1751 7 -1.75255 -19.6534 4.96513
1553 6 -3.67152 -19.9548 5.60092
1836 6 -2.12695 -18.3736 -5.23448
2038 7 -2.21324 -19.3621 -4.77964
931 16 -9.0446 -18.5232 -0.853715
2178 7 -1.61091 -17.9628 -8.6524
1474 16 -2.34317 -23.7194 4.91473
1527 13 -1.11543 -16.955 2.22481
2165 7 -7.01762 -20.2083 -8.52854
1826 6 -1.10143 -17.4659 -5.01532
2962 6 -1.05952 -23.828 -6.64122
1706 7 -6.7036 -16.5403 -1.04404
1743 7 -7.07096 -21.5928 12.5982
3377 6 -9.37026 -19.8003 12.5374
1555 2 -7.81209 -21.0031 7.18671
1592 1 -1.72915 -19.561 7.18392
3375 2 -8.59499 -17.4421 9.47935
3549 7 -8.47426 -19.7285 14.5661
2175 7 -8.7543 -18.2195 19.8675
2166 7 -6.90704 -20.2186 19.2362
2011 6 -7.58017 -23.958 18.3799
3563 7 -6.78913 -16.7249 14.2221
3378 6 -9.23546 -19.108 11.4342
1816 7 -4.07921 -23.5668 6.77015
3408 4 -4.556 -19.4408 13.7796
2184 7 -3.79862 -17.364 19.5192
2018 2 -7.238 -22.1575 19.9995
1753 7 -2.35626 -21.2695 8.16418
1755 7 -4.55838 -21.0988 8.62882
3376 6 -8.60836 -18.0816 10.8757
1754 7 -4.6647 -19.3807 8.63777
2014 6 -9.14369 -22.1131 18.4321
2183 7 -4.61352 -21.1758 18.3634
1560 6 -7.47341 -21.7061 9.72943
1967 6 -1.11049 -22.4902 16.4815
3410 4 -4.1009 -17.2165 13.6385
3774 22 -5.99294 -21.3775 15.9938
1724 9 -4.49644 -17.0497 8.43925
2032 2 -3.91348 -20.4368 17.9123
1727 7 -8.75222 -20.5298 6.85555
1742 9 -6.17663 -20.8385 10.9545
3380 6 -7.6917 -17.6789 11.8515
1744 7 -8.18599 -22.8752 12.8317
2012 6 -7.9741 -22.7329 18.8803
1598 2 -2.28137 -19.7547 9.71163
3566 7 -2.50909 -19.7207 14.5254
3568 7 -1.98792 -17.4961 13.1183
1980 18 -1.72639 -22.7188 18.1334
1969 6 -1.05271 -23.5531 15.5093
1585 2 -7.27425 -22.5646 12.2235
3406 4 -5.16725 -18.1646 13.8322
1584 16 -6.57849 -20.7266 10.065
3567 7 -5.16701 -20.3326 13.8142
3407 2 -3.01499 -19.3938 13.5919
2168 7 -6.21029 -22.4185 19.8461
2181 7 -5.42978 -18.6227 17.7613
3379 6 -8.42971 -19.3378 13.4674
2027 6 -2.69872 -20.3662 18.7274
2182 7 -3.75618 -20.5989 16.8437
1594 2 -4.15638 -20.2169 8.11866
3381 6 -7.62885 -18.2916 13.1289
3565 7 -2.59549 -19.8705 12.6722
3405 2 -6.66888 -17.8029 14.1051
1551 6 -4.60414 -20.0138 6.65074
1747 7 -4.42409 -22.3893 12.003
3545 7 -7.92071 -16.823 6.70843
1761 7 -2.7868 -18.7892 9.9247
1558 6 -8.88871 -22.7959 8.41935
1557 6 -9.28933 -23.725 9.2976
1593 1 -2.63661 -20.2375 8.2983
1561 6 -7.77636 -22.6224 10.7462
1547 16 -4.64222 -16.5703 7.62443
2163 7 -9.1169 -20.1884 17.9205
3409 4 -2.92223 -17.9384 13.5174
1760 7 -2.60859 -20.5472 10.4603
3547 7 -7.75694 -17.8741 9.00968
1728 7 -7.55224 -21.5901 6.29816
647 7 -8.35842 -17.1322 16.283
2025 6 -1.72602 -21.2075 18.8642
1588 4 -4.8597 -23.3087 12.4053
2017 2 -7.44465 -20.6946 20.1209
3564 7 -6.96481 -18.1895 15.0871
1556 6 -8.04366 -21.7751 8.42619
2015 1 -9.54418 -20.6969 18.8351
2031 4 -4.5008 -19.0202 18.1451
1549 6 -5.94474 -19.7594 6.34821
1554 15 -6.83145 -19.8948 7.40889
2033 4 -3.7007 -18.296 19.0235
1752 7 -1.96196 -18.4937 7.13566
2026 6 -2.61225 -19.1559 19.3681
2016 1 -8.92782 -20.404 20.1482
1591 2 -2.19028 -20.1956 5.81336
1559 6 -8.67463 -23.6114 10.5531
3404 16 -6.83234 -16.607 11.6256
1750 7 -1.85268 -21.2438 5.60839
3374 15 -9.72301 -17.4865 8.60388
3773 22 -5.13434 -23.5227 16.2023
2028 6 -1.60623 -18.9151 20.3472
3772 21 -5.56364 -22.4502 16.0979
1562 17 -9.466 -22.8804 7.09357
1586 4 -6.24467 -23.5202 12.5725
489 6 -8.78922 -16.4013 16.978
648 7 -7.27536 -16.5792 18.5666
2009 6 -9.23589 -23.8802 16.7317
3528 7 -6.50442 -13.0618 3.45441
955 7 -8.92371 -12.4057 -8.85042
1521 6 -4.7683 -15.6447 1.35644
1703 7 -5.40425 -13.1206 -1.56557
2037 7 -5.11918 -14.8889 -8.68698
1828 6 -1.02657 -13.8048 -6.982
772 6 -3.36067 -8.90125 -6.30898
948 9 -8.05406 -14.6831 2.62525
1829 6 -2.04717 -15.943 -6.49973
1701 7 -6.66827 -12.1087 -1.77681
3337 2 -5.0133 -9.63278 4.07277
2036 7 -1.11515 -12.8504 -7.45878
758 2 -9.04598 -11.9263 -6.71869
756 6 -8.27921 -11.196 -5.71312
871 2 -7.91338 -10.6073 -8.55983
1709 7 -3.92268 -14.325 -0.0390204
1503 6 -1.78291 -14.7074 -2.47272
768 6 -4.67018 -9.12576 -5.91043
760 6 -7.21123 -12.7792 -7.67788
745 19 -7.61964 -11.693 1.15042
954 7 -9.16557 -13.0018 -6.26615
964 7 -6.04814 -9.02488 -1.89391
956 7 -5.50455 -11.567 -7.40162
762 14 -7.19376 -14.0684 -7.84952
3519 7 -3.02035 -10.5434 -1.93324
1530 15 -4.16961 -15.2917 3.68649
1832 6 -4.22723 -15.1396 -8.02429
3334 2 -2.62479 -10.6756 -0.917873
1514 2 -8.97489 -15.3352 -3.28246
799 13 -1.55021 -10.2138 -6.62339
3324 20 -7.8222 -9.12066 3.81818
1711 7 -3.22932 -14.2015 1.59927
3333 4 -1.50893 -9.0243 0.335873
3331 4 -2.77035 -9.15987 0.928369
1707 7 -5.66209 -15.1973 -1.1178
746 16 -8.26836 -14.0672 1.99395
754 6 -6.72918 -9.60933 -3.89983
757 6 -6.89552 -11.2442 -5.76303
984 9 -2.67695 -9.55649 -4.03277
749 6 -8.13468 -9.66558 -3.78065
947 10 -7.02978 -10.6834 0.570124
763 15 -4.87106 -10.3104 -5.16874
3343 6 -6.2542 -12.9377 4.50154
1839 2 -3.18898 -13.1381 -8.97205
1508 6 -2.67079 -15.6042 -2.16283
1834 6 -4.36542 -16.3035 -7.34395
1507 6 -4.28746 -15.0358 -3.62283
1510 15 -5.50853 -15.1858 -4.32674
944 7 -9.19997 -9.9294 -0.212132
3527 7 -5.50297 -11.1838 2.78612
3518 7 -2.54998 -11.8463 -0.897382
1512 4 -8.32644 -14.2855 -2.43911
1505 6 -3.49529 -13.9556 -4.00278
1710 7 -4.90453 -13.5391 1.30857
1824 6 -0.995201 -16.2255 -5.65196
1513 4 -6.99408 -14.002 -2.79087
2041 7 -2.99387 -12.2505 -8.30027
1831 6 -3.15107 -14.3117 -8.01804
1511 4 -6.67751 -15.0295 -3.71453
1516 3 -6.14547 -12.8708 -2.31227
1506 6 -2.26791 -13.7414 -3.44578
1714 7 -5.12969 -16.1316 5.22577
1697 7 -8.81833 -13.735 -1.66257
1702 7 -5.62769 -12.4323 -3.09747
1695 7 -3.87782 -13.1527 -4.65481
735 6 -9.35631 -11.7629 0.826434
1525 3 -4.14252 -14.3515 1.08684
1509 6 -3.87592 -16.0006 -2.55515
3332 4 -1.37801 -9.96112 -0.698288
755 6 -6.21024 -10.4214 -4.89591
3339 6 -5.26147 -12.0216 4.75288
957 7 -5.78196 -12.9857 -6.22943
761 2 -6.18652 -12.1286 -6.77372
759 1 -8.35653 -11.943 -8.04774
1515 4 -7.82615 -15.7569 -4.03484
3525 7 -4.06461 -9.15777 4.44888
798 5 -2.19612 -9.72678 -5.80869
3526 7 -3.79496 -11.441 3.25653
751 6 -8.91758 -10.4688 -4.64935
3338 2 -4.8193 -11.1004 3.63736
1035 7 -7.81946 -9.87947 -7.74489
1830 6 -2.05367 -14.6984 -7.22069
3344 6 -6.89668 -13.6739 5.48136
1715 7 -2.03437 -14.2973 4.69611
1696 7 -1.79326 -12.7051 -3.67557
3335 4 -3.45406 -10.1361 0.175095
800 16 -1.93495 -9.91685 -4.48519
3349 15 -7.6573 -14.7718 5.19683
963 7 -4.74867 -9.14258 -3.04305
731 6 -9.56661 -13.767 2.15388
3520 7 -4.40176 -10.533 0.471822
3524 7 -5.64983 -9.66747 4.97133
1518 2 -5.66161 -16.2566 -0.957545
1531 2 -4.07923 -15.9637 4.93934
1699 7 -9.4166 -16.1055 -2.64927
2050 8 -6.33156 -16.3332 -7.65408
1520 6 -4.72276 -16.0532 2.72449
3107 1 -9.74332 -9.46344 13.1332
1541 6 -1.63053 -14.2434 11.4571
1532 6 -3.31857 -15.3087 6.0425
3825 22 -1.21537 -9.80372 9.16803
1023 7 -6.42152 -9.81987 18.7787
3544 9 -7.89121 -14.2459 10.1563
3360 6 -5.53096 -12.6238 14.8283
3361 6 -7.22039 -12.9384 16.4422
2044 7 -1.49307 -15.6398 17.1016
3353 6 -6.67519 -13.2657 12.9386
3534 7 -7.16822 -12.9201 8.90639
3109 2 -7.7229 -9.0951 14.5891
3345 3 -3.71544 -11.1485 6.60056
3824 22 -2.35126 -10.5229 11.0588
3364 6 -4.95501 -12.2488 16.9969
3823 21 -1.78329 -10.1633 10.1134
3539 7 -4.26845 -11.9279 17.7808
3530 7 -2.93852 -11.6204 7.32412
2058 9 -1.13153 -9.13214 13.9685
3801 21 -8.97987 -11.4521 8.19405
488 6 -8.77229 -15.1617 18.9139
3529 7 -4.16204 -10.1787 7.08794
3350 15 -5.12234 -12.6078 8.38497
3531 7 -3.13048 -10.7757 5.7414
3367 16 -8.01196 -13.9442 11.063
3541 7 -2.60272 -12.1732 14.7888
3783 21 -5.05133 -15.5997 16.5789
3803 22 -8.49943 -11.392 7.13993
3259 7 -6.30205 -10.1418 13.4681
490 6 -8.1364 -16.1414 18.1222
3785 22 -4.49548 -15.2503 15.6226
1844 6 -2.36229 -14.443 18.6955
3368 6 -8.6595 -14.9156 6.16609
3108 1 -8.89862 -10.0038 14.2725
3257 7 -7.26896 -9.44169 15.5381
3358 11 -7.55598 -13.593 14.0414
867 1 -8.8413 -9.77527 20.1315
2043 7 -3.23821 -15.1179 18.6807
3538 7 -8.19783 -13.4545 16.8535
3266 7 -9.18125 -10.3823 16.4595
998 7 -5.07298 -9.38492 17.1923
3372 6 -9.63147 -13.9521 6.37332
1845 6 -1.38414 -14.7491 17.73
1539 6 -1.90221 -14.5752 10.1571
3535 7 -3.82177 -12.2379 10.4444
3356 6 -4.70364 -12.5307 11.0948
1717 8 -3.85281 -15.4416 10.0973
3340 6 -5.51441 -12.7014 7.0776
1840 6 -2.15607 -13.3808 19.5782
646 7 -8.23798 -14.7764 19.7374
1022 7 -7.84548 -9.41308 17.7852
1533 6 -2.76716 -15.2791 8.31839
3354 6 -6.86332 -13.3757 11.5769
3359 6 -6.8493 -13.075 15.1525
3542 7 -2.78784 -11.2224 16.2612
3562 9 -6.56267 -16.1013 12.4245
3351 2 -6.14906 -13.3 9.12556
3784 22 -5.60701 -15.949 17.5353
1534 6 -3.60492 -15.7117 7.37218
3355 6 -5.43291 -12.7101 13.3842
3543 7 -3.3718 -10.6117 14.7008
3342 12 -6.49905 -13.5364 6.75491
3829 21 -3.88359 -10.1546 19.9209
3365 16 -6.67085 -12.4942 18.7355
3533 7 -6.14325 -14.3437 8.80388
1538 11 -2.92841 -15.4117 9.71479
1842 6 -1.04911 -12.5709 19.353
1535 6 -1.55809 -14.5886 7.99341
3366 3 -3.30904 -11.4816 15.3026
3363 6 -4.61943 -12.0959 15.6581
3357 6 -4.43337 -12.3498 12.4495
3546 7 -9.61021 -13.029 5.82111
3537 8 -8.46062 -13.0744 14.0268
3104 6 -7.47393 -9.11083 11.9968
3110 2 -6.78294 -9.16388 13.3796
3352 6 -5.8859 -13.0749 10.6305
1028 7 -9.11083 -10.3279 19.2138
3362 6 -6.29546 -12.5508 17.3766
3341 6 -4.89639 -11.9168 6.09759
3256 7 -8.3979 -10.9326 14.0117
3536 7 -3.47675 -11.8961 12.7495
3540 9 -7.53576 -12.807 18.9224
1718 7 -2.33157 -14.6173 12.2577
3802 22 -9.46038 -11.5122 9.24818
3106 6 -8.8411 -9.22665 11.9184
863 2 -7.13826 -9.03894 18.4987
1858 16 -1.08403 -11.3794 20.1192
1537 6 -1.301 -14.2613 6.67081
2042 7 -4.15036 -12.9779 20.1789
3370 6 -8.66057 -16.0847 6.90592
3548 7 -8.44455 -16.377 9.56804
1034 7 -6.87742 -10.6512 20.6296
1540 6 -0.983619 -14.1154 9.20207
3369 6 -9.71015 -16.3383 7.8285
3569 7 -4.19124 -16.1301 13.5133
1536 6 -2.17909 -14.5748 5.73182
3222 7 -1.32733 -1.84345 -6.33989
750 6 -8.86513 -8.86657 -2.84919
3245 7 -2.62359 -4.43149 4.10863
769 6 -5.36378 -7.06186 -6.98808
3058 6 -1.2598 -2.84465 -4.31973
3523 7 -0.838978 -7.00297 0.749441
2522 7 -3.91068 -5.133 -2.85163
3246 7 -3.4621 -5.38262 2.92941
770 6 -5.61751 -8.15311 -6.21388
870 2 -9.6158 -6.93897 -9.04967
1024 7 -7.28049 -8.41627 -8.96856
3325 6 -5.08051 -7.41777 0.875106
2353 6 -9.23593 -2.02318 -9.00769
3095 3 -3.63787 -4.68996 3.80588
773 6 -3.23378 -7.87047 -7.12852
767 3 -5.82213 -8.85825 -2.95575
3327 6 -4.59099 -8.22007 1.93622
3328 6 -6.76338 -8.36178 2.55934
2355 2 -6.85741 -2.38254 -7.18124
3083 2 -1.79905 -7.13965 5.10473
3319 6 -8.6446 -7.33675 1.87943
2770 7 -7.82212 -2.34893 -2.4219
2360 6 -5.23386 -2.15818 -1.94813
3514 9 -8.41815 -5.66973 -0.159099
3057 2 -1.8241 -1.85134 -5.37434
962 7 -5.83839 -7.79757 -2.93405
2356 2 -5.5558 -2.01813 -6.28631
2512 7 -6.58197 -2.50709 -8.21535
2559 6 -8.728 -1.51539 -0.741289
776 20 -1.46831 -7.86825 -7.64376
3090 6 -5.85497 -5.40205 4.72264
2781 9 -9.03651 -4.99575 -4.52002
3225 7 -2.4838 -1.98024 -2.81962
2513 7 -4.75267 -2.69067 -6.69104
3239 7 -2.3322 -7.14405 4.16488
2520 7 -5.45258 -5.4099 -2.01032
2778 8 -7.51706 -1.41563 3.02176
965 7 -6.68581 -8.04057 -5.78879
3089 6 -4.4688 -5.42691 4.88937
766 16 -8.23881 -7.97904 -2.01201
2560 6 -8.4792 -1.61239 0.647119
3326 6 -6.35196 -6.97131 0.682837
3070 6 -1.41952 -1.48598 -0.50036
3269 9 -9.70726 -4.99173 4.77393
3515 7 -4.29975 -6.81247 0.341487
2519 7 -5.94487 -4.54736 -5.66729
961 9 -7.29944 -8.04053 -2.15636
3066 6 -1.17016 -2.89528 -0.624971
1033 7 -8.95771 -7.15745 -8.09703
3063 6 -1.06093 -3.41979 -1.95613
2541 9 -4.87936 -3.03939 1.05043
3323 6 -7.28826 -7.5329 1.64279
775 6 -3.47149 -5.97879 -8.30869
2362 6 -5.06727 -3.29368 -2.67754
2765 7 -8.17372 -2.56289 0.978781
2769 7 -8.01895 -3.47537 -1.07771
3317 6 -9.62207 -6.65057 1.08421
2388 16 -5.26294 -3.30514 0.189099
771 6 -4.08323 -6.97313 -7.50292
3321 6 -9.06049 -8.13827 2.81827
3250 7 -5.83284 -5.06855 2.57048
3796 22 -2.85183 -7.53025 -3.53544
2567 2 -8.52745 -2.71831 -1.6723
3116 16 -8.77703 -4.6359 4.90738
3249 7 -7.37395 -4.87569 3.2671
2518 7 -5.61804 -5.35866 -4.13152
3516 7 -6.59401 -6.1339 0.0364198
966 9 -6.08301 -5.91869 -8.33152
2370 6 -5.28894 -2.18519 -0.57203
2517 7 -4.30445 -4.83244 -5.26849
2586 16 -8.83979 -4.21454 -4.00671
2367 3 -5.24921 -4.48407 -4.80136
2521 7 -3.88844 -4.64927 -1.34342
3322 16 -9.36603 -5.88541 0.00449797
2361 6 -5.1745 -3.16477 -4.03281
3247 7 -4.07482 -3.78275 3.39336
3248 7 -6.04625 -3.62943 3.55799
780 6 -2.21049 -6.26719 -8.53102
2368 3 -4.60823 -4.65228 -2.15342
2511 7 -7.2724 -3.37962 -6.91295
3062 6 -1.70309 -2.78741 -3.00419
3096 3 -6.34194 -4.74173 3.4939
774 16 -6.38565 -6.24174 -7.43775
2509 7 -8.781 -1.53132 -6.27353
2357 6 -5.41495 -2.03019 -4.75206
3240 7 -1.98136 -8.08452 5.61034
3795 21 -1.98329 -7.40454 -2.77679
972 7 -1.01628 -2.15951 -8.70752
3223 7 -2.90883 -2.04182 -5.43753
3329 6 -5.53632 -8.77491 2.93567
3330 15 -3.2026 -8.37678 1.94737
2508 7 -9.36611 -3.02746 -8.5166
3797 22 -1.11477 -7.27892 -2.01828
778 6 -3.97553 -4.84989 -9.04351
968 7 -5.04445 -4.4862 -8.98011
3496 9 -6.66876 -1.66516 5.69904
830 6 -7.2664 -1.91554 15.2649
3294 16 -5.75147 -1.7099 5.95405
3100 6 -7.31619 -8.67388 9.60117
3087 6 -4.76049 -6.80159 6.86654
781 6 -1.25988 -5.79641 20.2737
3695 22 -5.00204 -1.57504 11.6802
3084 2 -2.42662 -6.1525 6.07106
3098 6 -8.10094 -5.57922 5.69649
865 1 -8.68512 -7.23103 19.3749
827 2 -6.77903 -3.8703 16.7494
3103 6 -6.75505 -8.84614 10.9202
823 6 -6.61671 -6.51567 18.2385
3292 6 -5.55332 -4.88028 10.433
825 6 -6.25758 -7.87934 18.0547
3656 22 -2.15246 -7.9801 11.7802
980 7 -2.51168 -7.40544 18.3113
3290 6 -9.14263 -5.16238 11.4011
3243 7 -3.17677 -7.78679 8.05216
3093 6 -6.9495 -7.34735 7.52756
3494 7 -4.59083 -5.15845 10.7678
794 12 -1.47545 -6.8742 15.1023
3241 7 -2.20559 -6.38383 7.12805
996 9 -1.42842 -3.66013 12.3465
3277 6 -4.5601 -3.06262 7.43512
3281 6 -4.44303 -3.74436 8.55781
3508 9 -6.71846 -6.63916 12.6109
997 7 -4.09528 -5.16861 16.3975
3284 6 -9.32976 -2.67263 8.0295
3094 6 -6.50364 -8.18711 8.54627
3654 21 -2.94047 -7.18516 12.0848
864 1 -7.93101 -8.56989 19.7104
1026 7 -7.49532 -5.27263 19.7161
3313 16 -6.37264 -5.79009 12.4647
824 6 -5.21148 -8.31332 17.2598
3286 6 -9.26668 -3.56679 9.09476
820 6 -4.41711 -7.32865 16.6538
3278 6 -6.97333 -2.95947 7.68301
828 6 -6.47618 -2.46569 16.1753
3092 6 -5.10073 -8.26433 8.75888
3285 6 -8.03404 -4.04016 9.52474
3282 6 -5.62289 -4.19712 9.25187
3506 8 -8.38331 -5.83335 13.1784
3101 6 -8.69928 -8.49232 9.57266
1000 7 -7.84695 -4.01154 16.995
3102 6 -9.2168 -7.61143 8.63681
3099 6 -8.88325 -6.25543 6.57146
3097 6 -8.32888 -7.04981 7.58302
779 6 -1.78585 -4.62663 19.4859
3279 6 -5.7444 -2.55733 7.0591
835 6 -8.96193 -2.04536 14.0394
796 6 -2.2594 -7.19835 16.1208
999 7 -6.46853 -4.59119 15.9749
3085 6 -3.93288 -6.12611 5.94724
973 7 -1.79738 -2.80382 15.9314
3283 6 -8.1926 -2.38866 7.29434
3244 7 -4.59279 -8.93165 9.49805
801 15 -3.44686 -7.65267 15.7514
3491 7 -3.41434 -4.10596 8.80784
3258 7 -8.08705 -8.04024 14.829
3757 21 -4.04706 -3.72093 13.8191
1025 7 -9.3037 -7.38748 18.5292
856 16 -4.46407 -1.92237 17.3615
819 16 -1.08954 -3.4238 11.4859
821 6 -5.75927 -5.57885 17.7273
822 6 -4.67567 -5.96138 16.9256
826 15 -6.06338 -4.2404 17.9502
866 2 -7.8774 -6.0508 18.9446
795 6 -1.81266 -7.24135 17.4781
787 4 -1.12138 -1.69857 19.8689
832 6 -5.38942 -1.55851 16.4671
3655 22 -3.72846 -6.39036 12.3893
967 7 -3.41077 -3.28854 19.1182
3086 6 -6.12948 -6.67807 6.69338
3289 6 -7.93316 -4.76851 10.766
777 6 -3.11284 -4.19583 19.6802
3091 6 -4.2413 -7.63582 7.86526
3490 7 -3.65764 -2.74782 6.93423
3280 6 -6.85679 -3.74761 8.8512
3291 6 -6.65369 -5.15204 11.2399
834 17 -8.33554 -2.8854 15.0347
3312 11 -9.18816 -5.97915 12.5694
1027 7 -8.61871 -5.54924 18.2872
3693 21 -6.04636 -1.5902 11.1754
3694 22 -7.09041 -1.60532 10.6706
3242 7 -2.16787 -5.11142 5.79649
3088 6 -6.67299 -5.89147 5.68662
3293 19 -8.33721 -1.45987 5.89766
3260 7 -5.95813 -8.45034 13.5332
783 4 -1.00872 -2.53855 18.7169
3253 7 -5.72386 -8.64597 11.155
788 3 -0.943177 -2.13535 16.1927
1014 9 -3.5972 -1.56865 17.0973
3105 6 -9.41192 -8.86124 10.7291
785 4 -1.04709 -1.68834 17.6083
782 15 -0.965166 -3.95056 18.611
3507 8 -9.13842 -6.97292 12.4735
2359 6 -5.37512 -0.846946 -4.04746
2363 6 -5.56895 0.383643 -4.69687
3139 7 -1.59409 4.41849 -5.22652
2524 7 -6.00091 1.36538 1.27322
2944 6 -3.56715 4.30771 -6.01255
2515 7 -5.28059 0.624973 -5.76634
2563 6 -9.44566 1.71431 1.88206
3213 7 -1.32538 -0.0101924 -7.03607
2351 6 -8.70525 -0.971032 -8.29751
850 6 -8.35988 3.96645 5.493
3227 7 -1.76429 -0.906983 -1.34826
3219 7 -2.8723 1.55957 -5.71805
2525 7 -7.33623 3.79825 -3.51544
2562 6 -8.70675 -0.629145 1.56034
2336 6 -8.65414 4.63169 -8.17406
2379 1 -7.79775 6.07598 0.483992
2943 1 -2.40543 3.66875 -5.28327
3138 7 -2.24185 3.18822 -3.19071
3056 2 -1.58768 -0.395682 -4.90974
2780 9 -9.31143 2.58549 3.67654
2376 6 -7.54026 4.76732 -1.66819
2374 6 -6.06501 1.3546 0.174498
2337 6 -8.91654 3.42917 -8.76301
3071 6 -1.27898 -0.814141 0.679233
2371 6 -5.38949 -0.973659 0.0774803
2948 11 -2.35467 3.17018 5.52444
2932 6 -3.07291 6.12648 0.67849
3220 7 -0.952215 -0.25982 -4.09064
2556 6 -9.47221 -0.174092 -2.62057
2364 6 -6.15415 1.45409 -4.01906
2498 7 -9.58567 2.71523 -8.25717
2527 7 -8.93202 5.99878 0.653625
2926 6 -1.66888 3.93663 4.48218
3793 22 -4.62778 0.192564 3.75412
2764 7 -9.31294 -0.976912 -3.30769
3135 7 -2.87066 3.98067 0.971816
1013 9 -8.37611 5.09669 3.93738
2373 6 -6.55457 2.52919 -0.458014
1010 7 -6.34799 4.4427 4.77468
1018 7 -3.55749 2.23275 -8.83739
2936 6 -3.06247 4.80773 0.247724
2940 6 -3.426 4.96439 -3.40423
2526 7 -6.76769 3.57653 1.41212
3228 7 -1.46284 0.284041 0.994089
3055 2 -2.15582 2.3601 -6.06378
2557 6 -9.4839 0.805565 -0.373458
2375 6 -7.157 3.7158 -2.44401
2510 7 -7.37586 -0.351967 -6.64664
2779 8 -8.29618 -0.0610909 3.45123
2923 6 -1.86805 5.57181 2.75838
2534 7 -6.97346 5.35985 2.4939
2937 6 -3.13531 4.44251 -1.06604
1020 7 -6.23451 1.90255 -8.73584
855 16 -8.98796 4.82826 4.63587
2506 7 -8.17946 1.0818 -8.45284
2945 2 -3.90763 5.72393 -5.79595
2523 7 -5.47516 -0.952371 1.11245
2350 6 -8.86435 0.282426 -8.8096
2942 2 -2.99088 3.58346 -3.82847
2369 6 -5.72067 0.204025 -0.595859
3221 7 -2.53551 0.0591233 -4.75598
2358 6 -5.36696 -0.91183 -2.64078
2378 6 -7.42725 4.77345 -0.269236
3218 7 -2.3374 2.58241 -7.17454
2514 7 -5.14634 -1.06243 -6.65338
2372 6 -6.66131 2.54039 -1.87222
2366 6 -6.1703 1.42056 -2.61843
2333 6 -7.79863 5.51158 -8.90571
3792 22 -2.42753 0.0115597 4.46707
2935 6 -3.34695 5.39739 -2.05705
3791 21 -3.52762 0.102065 4.1106
2558 6 -9.17522 -0.262124 -1.22915
2946 14 -4.39231 3.61972 -6.70968
2585 16 -9.28985 1.72413 3.20294
2365 6 -5.7554 0.216908 -1.99659
2516 7 -6.38517 2.33208 -4.6798
3136 7 -3.0895 3.37768 -1.31846
2924 6 -2.43347 4.79549 3.70682
2561 6 -9.15386 0.642654 1.00925
3137 7 -3.95293 2.95049 -4.0117
3129 7 -3.55635 4.97148 3.8858
2377 6 -6.94286 3.61987 0.332508
852 6 -7.00048 3.89195 5.48599
2584 11 -8.34197 -0.917043 2.93181
3140 7 -4.88846 6.05166 -5.9687
2941 6 -3.68026 5.98281 -4.27447
2503 7 -8.59996 4.84041 -6.00376
2345 3 -9.34814 4.80462 -6.82051
2354 2 -7.97357 -1.22456 -6.98945
2532 7 -8.94778 5.49931 -3.08328
2382 2 -8.06856 5.98869 -2.47388
3495 10 -9.55536 -1.09812 5.59086
831 6 -6.29291 0.111032 15.0276
2191 6 -2.59308 4.06335 8.94667
1012 7 -5.29236 2.89456 6.18196
2414 8 -9.18682 4.32152 11.3815
833 6 -5.37101 -0.28514 15.9271
2405 7 -4.55523 1.1031 11.3431
1016 7 -4.46125 1.65982 15.8347
2400 7 -2.77207 2.65684 10.545
849 6 -8.40813 2.49941 7.48382
2406 7 -5.59078 1.74166 12.6117
784 4 -1.22416 -0.353163 18.0978
2338 6 -7.79274 3.84339 18.7851
2343 6 -8.24636 2.70792 16.7035
859 2 -4.2064 2.57198 19.8874
970 7 -2.10849 0.286548 19.9186
854 6 -6.34186 3.07127 6.369
860 4 -3.74793 2.13568 18.4952
2500 7 -8.15338 2.67345 15.6441
2340 6 -9.14798 1.84913 18.8322
969 7 -1.37481 0.494482 17.4004
2417 9 -3.20072 0.122214 12.0717
2334 6 -6.13348 5.64178 18.953
2497 7 -5.54971 5.04126 18.222
2415 8 -9.07384 5.56115 10.1778
2408 7 -2.98509 4.89288 15.0361
1019 7 -2.72643 2.22373 18.1319
2206 6 -2.44241 1.63945 13.1061
2491 7 -1.6986 5.26647 19.257
2199 6 -7.21962 6.03208 8.53412
2346 6 -9.41952 0.609635 19.5352
1008 7 -7.85647 0.0552004 8.77642
2499 7 -6.73369 4.16772 16.9799
786 2 -1.17892 -0.261478 19.5507
2155 7 -7.70559 5.9007 12.9405
2407 7 -4.58353 4.2467 13.3169
2416 9 -8.96368 5.40916 8.31018
2341 6 -9.18539 1.85699 17.4015
2401 7 -7.35732 2.95704 12.0182
2205 6 -1.36143 2.08689 13.8899
2186 6 -3.09583 5.05127 8.1376
1015 7 -3.4024 0.477659 16.4838
975 7 -1.0447 -1.18693 15.6537
836 6 -8.45761 -0.842278 13.7976
2193 6 -5.23991 4.71637 9.27574
851 6 -8.97263 3.34454 6.51515
2220 11 -8.61078 4.84431 10.7083
2196 6 -6.73269 3.43803 11.2824
2198 6 -7.33644 4.43708 10.503
2335 6 -7.24982 4.98861 19.4229
2188 6 -4.43619 5.36978 8.33821
857 2 -4.48604 0.806739 16.4964
853 6 -7.02382 2.26079 7.32354
862 4 -5.79422 1.11848 18.8857
2342 6 -7.56183 3.63392 17.4484
3143 8 -1.64505 2.80884 6.15546
2208 6 -3.65707 3.63458 13.4538
2204 6 -3.59816 2.39048 12.819
2207 6 -1.61118 3.22913 14.7032
1003 7 -9.18287 0.925918 12.6036
1001 7 -6.15283 1.08078 14.6125
2192 6 -3.2958 3.49431 9.94484
861 4 -5.57476 1.93842 19.9881
1021 7 -6.68919 0.521072 18.7115
3812 21 -3.16583 -0.503022 9.31353
2154 7 -6.30381 5.65099 13.8399
829 6 -7.33922 -0.768241 14.6027
2214 2 -1.0871 4.92898 16.534
2209 6 -2.77541 3.99247 14.4461
2222 16 -2.40158 0.333214 12.4733
858 4 -4.7466 1.28707 17.942
1011 7 -6.43956 1.64451 7.98891
2195 6 -5.42967 3.1317 11.0669
2339 6 -8.65476 2.9879 19.4647
2203 2 -4.77126 2.03827 11.9203
2194 6 -4.66462 3.73057 10.0967
2197 6 -6.62867 4.98961 9.3603
846 6 -9.08813 1.87621 8.58358
2409 7 -1.9864 4.60611 17.0701
848 6 -8.77141 0.626185 9.09669
1017 7 -4.31039 3.64827 19.9143
1007 7 -9.17407 -1.1155 10.3394
2187 6 -2.22038 5.91297 7.42401
847 6 -9.4754 -0.0471432 10.0977
839 6 -9.31297 -0.122344 12.8807
3613 7 -9.33881 4.26395 14.307
2410 7 -1.35574 5.83171 15.9867
3142 8 -3.05315 3.73368 6.05185
2492 7 -3.11764 5.98221 20.4913
1308 7 -9.31181 13.311 2.44253
1109 19 -7.91899 13.223 4.76007
3133 7 -2.21638 7.48314 2.08028
1796 7 -7.49636 12.505 0.167716
1631 6 -1.81476 11.2691 0.808773
2487 7 -2.19604 9.46822 -7.97018
1643 6 -5.7965 11.5136 1.9861
2528 7 -6.51323 7.48183 -0.661327
1632 6 -3.52693 11.1432 2.51013
2331 6 -7.41356 6.81468 -8.45421
1637 6 -4.08627 11.9184 0.339765
2391 6 -7.86043 10.0171 -6.29521
1100 6 -9.4242 12.3086 2.80089
2956 6 -2.04078 9.41886 -4.64583
2547 7 -6.68226 9.0119 -4.72361
2939 6 -3.99752 7.29486 -3.86763
1794 7 -3.52175 11.3945 5.23562
1645 6 -6.10587 12.8797 -1.37584
2947 15 -4.30874 8.29421 -4.85538
2540 9 -6.52918 6.62329 3.96387
2386 2 -7.97524 8.60237 0.296575
2548 7 -7.68547 13.1316 -5.15842
1644 6 -4.73127 12.9873 -1.74645
2531 7 -7.3205 6.23303 -3.28667
2496 7 -5.72839 8.20773 -8.47903
1642 6 -4.9291 11.0754 2.88794
2344 18 -8.05241 7.46018 -7.03947
2394 6 -8.72356 10.998 -8.72732
2951 3 -4.61611 9.04503 -2.27783
2545 7 -7.37807 11.275 -3.23159
3149 7 -5.16647 10.5529 -5.8788
2953 6 -3.40285 11.5872 -6.03937
2542 7 -8.42223 12.9547 -7.91075
1636 6 -2.36595 12.3193 -1.25762
2933 6 -3.67434 6.77268 -1.6495
2396 2 -7.59516 9.65506 -4.85324
2535 7 -8.5526 7.18003 2.79406
2958 16 -4.05152 12.5446 -6.79335
1641 6 -5.4565 11.8637 0.704401
2389 6 -8.12938 9.1678 -7.31415
3147 7 -5.1989 9.0515 -1.3648
1813 9 -6.3256 10.4837 3.90581
1795 7 -6.87812 11.5648 2.02171
2537 7 -7.41502 9.51801 2.2236
1792 7 -1.79381 10.8039 5.553
1793 7 -3.14999 9.72307 5.23082
2536 7 -6.09233 8.61089 1.51218
1634 6 -2.55015 10.8225 3.46706
1094 6 -9.1147 10.7602 4.57549
1788 7 -2.00263 12.7729 -2.1927
2393 6 -8.56358 9.61818 -8.58093
2325 2 -1.79215 9.18948 -9.07231
2950 16 -3.47757 8.43514 0.151369
3148 7 -5.37109 9.3689 -2.99909
2493 7 -3.68097 7.35078 -8.22383
2982 5 -1.16235 8.33019 -4.01831
1646 6 -6.44421 12.4102 -0.11539
2955 6 -2.00697 11.6501 -5.75339
3146 7 -3.86594 9.8408 -2.07325
2546 7 -8.43227 9.07704 -4.47206
2934 6 -3.40512 7.11873 -0.296508
1099 6 -8.79884 11.9724 3.93813
3134 7 -3.69769 6.63772 2.61822
2384 1 -7.54031 7.3902 2.51186
2395 4 -7.49978 11.0698 -4.3037
2332 6 -6.24768 7.35634 -8.94164
2538 7 -7.77924 9.55511 -0.185334
2380 1 -7.62698 7.30252 -0.426779
2529 7 -8.49826 8.01579 -2.32319
2385 2 -7.19066 8.59485 1.65008
2952 6 -3.50164 9.35905 -5.08038
2957 6 -1.61857 10.6134 -5.08108
3145 9 -3.38793 9.0162 -0.585054
2381 2 -8.45589 7.16095 -1.65596
2390 6 -7.8894 11.4046 -6.50462
2387 16 -6.94759 7.49235 3.79634
1640 3 -2.74998 10.67 4.94614
2397 4 -7.68317 12.0628 -5.29574
3150 9 -4.89546 12.2802 -6.90701
1633 6 -1.24276 10.5558 3.01339
1630 6 -3.1844 11.4424 1.21075
2954 6 -4.08454 10.4782 -5.66624
1638 6 -3.73972 12.4651 -0.897043
2485 7 -1.14033 7.22037 -8.72665
1660 16 -5.43773 10.584 4.02115
2392 6 -8.34618 11.8965 -7.78427
2938 6 -4.0755 7.68396 -2.56801
2539 7 -9.06929 8.61391 0.511432
1635 6 -1.37935 11.7782 -0.466233
3141 7 -3.18831 6.28919 -6.39455
2959 6 -1.05896 12.6434 -5.96107
2533 7 -5.95959 6.45283 1.53214
2931 2 -2.76283 6.55123 2.07275
2530 7 -9.52304 7.03409 -1.29095
1676 9 -3.09374 13.6657 5.35807
1629 6 -0.903514 10.6445 1.64592
1649 6 -7.08776 13.6089 -2.08034
1798 7 -8.14348 13.6666 -1.94148
2383 2 -6.95183 6.18643 1.75624
1590 4 -6.43508 12.9493 13.1441
2148 7 -3.91453 9.11622 15.4182
2142 7 -2.59818 10.431 13.4882
2543 7 -8.75786 8.95526 20.0259
1306 7 -8.51443 9.09087 7.51565
2399 7 -4.53375 8.31551 6.59601
1110 16 -7.52524 11.166 6.51508
1093 6 -8.84885 9.29447 6.49582
2003 3 -6.74943 6.40086 13.2019
1981 3 -2.44339 12.487 16.8707
2002 6 -7.67892 11.8904 16.7113
3633 9 -9.23194 7.17246 14.8436
1990 2 -4.03869 8.11615 13.4816
1589 4 -5.10739 12.404 13.357
1668 2 -4.33613 9.94293 10.0736
1997 6 -7.0916 7.74266 13.8886
1991 2 -4.0215 8.08302 15.0022
2005 6 -9.43057 12.0499 15.1072
1999 6 -6.27725 9.95771 16.6736
1996 6 -8.5315 9.65024 13.8115
1748 7 -4.9461 11.3827 13.6602
2006 6 -9.60563 10.4476 13.3029
1972 6 -1.54446 12.8693 15.7285
2147 7 -3.15766 7.52601 15.3726
1994 6 -7.93982 10.0937 14.9728
2152 7 -6.11471 11.3027 18.1645
2200 6 -6.38799 6.81788 7.82439
2402 7 -6.75328 7.77785 7.26386
1989 6 -2.04358 7.20303 12.4616
2134 7 -1.584 10.8777 15.1335
2323 1 -1.33442 7.36874 18.7734
2158 7 -9.12803 7.18358 11.8518
1666 6 -4.13786 13.3374 7.42184
2189 6 -4.06733 7.37958 7.07648
1663 6 -4.11148 11.1384 9.1511
1768 7 -1.21325 13.2044 10.0783
2156 7 -7.58873 7.67604 11.1967
1820 7 -7.33233 11.6785 9.94981
1662 6 -5.29931 11.7861 8.8664
1986 6 -2.03085 9.54624 13.1639
1616 18 -1.46857 10.7148 8.93531
2150 7 -5.27087 7.53561 16.6675
1819 7 -3.60946 9.99192 10.9237
1664 6 -5.3086 12.9279 8.06919
1729 7 -8.8089 13.3827 11.3784
2157 7 -8.80049 8.7585 11.1554
1312 9 -7.39709 10.7852 7.37658
1993 6 -6.45651 8.16559 15.038
1815 7 -1.94555 13.0249 7.3931
1745 7 -3.52355 13.5891 13.985
2145 7 -4.47314 7.13686 13.1002
1746 7 -3.34026 12.9481 12.2753
2329 2 -4.28336 7.4064 19.1306
1987 6 -2.67762 8.31038 12.9507
1992 2 -5.24184 7.45064 15.6156
2149 7 -5.19743 6.34491 15.4194
1817 7 -6.29478 9.84502 11.3596
2004 3 -8.42378 7.98331 11.8131
2001 6 -8.29067 11.3151 15.5615
1095 6 -8.47902 10.4639 5.86494
1818 7 -4.29246 8.9971 9.48191
2185 6 -2.72635 7.1303 7.01018
1665 6 -2.93609 12.6933 7.76511
1661 6 -2.93092 11.5574 8.58861
2137 7 -2.93982 11.5365 16.8371
1667 4 -5.78998 10.3164 10.5251
2221 16 -8.57575 6.26869 8.54424
2330 6 -5.627 6.77116 19.5312
1669 4 -6.28135 11.344 9.78257
2544 7 -9.10466 11.4892 19.9119
2151 7 -5.3251 9.59993 16.9541
2000 6 -6.71333 11.117 17.326
1995 6 -6.81249 9.40623 15.4833
2495 7 -4.39884 8.54205 19.0011
1998 6 -7.99501 8.48623 13.2001
1749 7 -7.38989 12.4998 13.4177
2146 7 -4.712 8.90038 13.0754
2494 7 -3.93326 6.95943 18.2056
2161 7 -6.66471 13.2568 18.8125
2484 7 -2.10664 7.44837 17.983
2486 7 -2.50304 9.71464 19.9088
1587 2 -4.01816 13.34 13.0393
2008 6 -8.17084 13.1471 17.273
2139 7 -3.22569 13.2307 17.1107
2324 1 -1.89587 7.69775 20.1511
1973 6 -1.14236 11.8593 14.9
2328 2 -3.24902 7.05378 20.3369
2478 7 -1.10472 9.30879 16.5511
1097 6 -9.75428 8.48965 5.90165
2138 7 -1.88048 12.407 17.8329
2153 7 -6.16752 6.58815 12.2859
2398 7 -2.09788 7.80881 6.44925
2190 6 -5.009 6.51314 7.72126
1814 7 -6.22693 13.5543 7.88874
2144 7 -2.49491 6.18682 12.3979
2302 6 6.57407 -19.5795 -4.01395
1335 7 5.60094 -20.8186 -0.621222
1673 7 1.30747 -21.9453 -2.43903
2292 6 5.76429 -23.2086 -8.85246
1494 16 2.81409 -20.004 -1.06738
1467 6 0.986075 -22.4859 -0.409209
1923 6 6.94395 -18.2909 2.94941
3151 7 -0.0142927 -21.9505 -6.77539
2305 6 6.76548 -18.2815 -3.4776
1150 2 6.31128 -21.569 -0.282919
1689 9 2.59182 -19.0945 -1.23475
1485 6 2.08955 -17.2461 3.08755
1482 6 2.83611 -17.7153 0.804443
1678 7 2.78819 -23.5192 0.366653
1692 7 3.92053 -17.8161 -1.12286
1487 1 0.812196 -18.2043 5.48776
2971 4 2.63813 -20.2331 -5.87145
250 7 6.40296 -17.7125 -6.90455
1464 6 0.548434 -23.0401 1.84524
1484 6 2.39561 -18.4978 3.55219
1483 6 2.30299 -16.859 1.7647
1682 7 1.92672 -20.0255 5.00746
2307 6 5.80734 -17.3005 -3.3275
2968 4 2.89464 -20.4101 -8.03342
1687 8 -0.525914 -21.4182 -3.9198
2035 7 0.167492 -18.8205 -3.72457
1922 6 6.11737 -18.094 5.01714
2303 6 5.3909 -21.6824 -4.1509
2969 4 2.62747 -21.7249 -7.58533
1921 6 6.85993 -18.8315 4.25746
1680 7 3.36905 -21.18 3.96723
3156 7 2.53926 -19.8601 -4.81848
2966 15 2.14936 -22.5604 -5.30546
2970 2 2.83299 -19.3338 -7.00867
2304 6 5.50011 -20.3848 -3.78318
1468 6 0.482378 -22.0835 -1.65253
2300 6 7.61613 -20.0908 -4.86509
1481 6 3.41506 -20.6766 2.95547
1920 6 5.39009 -16.9106 4.99898
1480 6 3.28999 -21.6929 2.00337
2296 6 6.28977 -23.8349 -6.48484
2463 7 4.54987 -22.3404 -3.84173
1495 3 3.10059 -17.243 -0.595693
2963 6 1.10661 -23.4137 -5.54519
1478 6 2.93989 -20.1149 0.255327
1479 6 2.99137 -19.3615 2.58612
1679 7 3.53851 -22.7429 2.25366
1477 6 2.96199 -19.0392 1.19151
1475 2 2.4821 -22.588 -0.144865
251 7 5.2003 -16.8859 -7.72841
1333 7 7.50277 -22.1396 -2.20391
1486 2 2.04708 -18.9366 4.98206
1336 7 6.59158 -21.1217 1.95613
1677 7 2.96328 -22.6391 -1.10901
3155 7 3.70353 -18.6854 -6.94282
2295 6 5.87782 -22.8704 -7.46087
2961 6 0.0221585 -22.9632 -6.35246
1928 6 7.23575 -19.9621 4.99867
3154 7 1.95719 -18.7155 -7.2401
1476 6 2.92959 -21.4057 0.740664
2093 7 7.44804 -18.6231 2.03422
1470 6 -0.834149 -21.7776 -1.95443
1672 7 1.5934 -23.2551 2.02304
2464 7 4.69045 -20.1067 -3.09533
2107 7 6.99697 -17.3721 0.765913
2972 3 2.49753 -22.8605 -8.49475
1466 6 0.0730824 -22.5696 0.602321
2967 4 2.43056 -21.5982 -6.21548
1334 7 5.78611 -22.562 -0.123243
3159 7 3.05644 -23.7539 -8.10105
1825 6 -0.00654088 -17.8164 -4.18092
2299 6 6.47646 -22.2516 -4.82761
243 7 0.365959 -16.8993 -8.4463
2298 15 6.48669 -23.5713 -5.16567
2180 7 0.396069 -19.348 -8.62315
2459 7 5.54416 -21.8748 -7.20004
1681 7 2.77501 -18.7455 5.76409
2099 7 6.40268 -23.5646 4.22173
62 2 6.3215 -16.7783 -7.55178
2465 7 4.78284 -17.4438 -3.58201
1925 6 6.36778 -17.055 2.72382
1683 7 -0.0732386 -18.4116 4.85044
1949 2 6.37182 -16.6581 1.27318
3158 7 1.40117 -23.2384 -8.56426
1151 4 7.03009 -21.2516 0.911857
1148 4 7.47048 -21.7359 -1.18416
1691 7 2.19256 -17.3332 -1.2184
2301 6 7.50384 -21.3967 -5.2372
2034 7 1.80857 -17.3306 -3.19477
3768 22 3.70079 -23.0646 5.09899
1488 6 1.12717 -16.7378 5.32087
1821 6 1.0486 -16.9683 -3.85421
1526 5 -0.536162 -17.2864 1.29173
61 2 7.03057 -16.9187 -8.94141
2108 7 5.38799 -16.7888 0.752677
1939 6 7.36745 -23.9099 3.82014
1463 6 -0.340781 -23.3724 2.79909
1528 16 -0.497057 -18.6493 1.0041
1596 1 0.160129 -20.128 8.84218
2285 6 5.30664 -22.7942 19.4491
2275 16 5.2142 -23.3191 12.4613
1962 2 3.72594 -19.2897 10.7764
2287 6 5.0133 -21.6032 18.6963
1601 2 0.457639 -22.3692 10.0516
1965 2 0.196998 -19.6212 14.4495
1957 1 4.0544 -17.7574 10.8443
2179 7 0.193286 -21.6686 19.7386
1765 7 1.17026 -21.7647 8.11782
249 7 6.89036 -17.9151 20.3315
1968 6 -0.596804 -21.2816 16.0954
2445 8 5.82857 -21.1927 11.1101
2091 7 4.01824 -17.0325 6.65316
2289 6 4.58665 -21.7526 17.3626
1929 6 6.53906 -20.5378 7.26889
2120 7 3.60149 -17.5027 13.283
2118 7 3.45385 -17.7107 8.81285
1759 7 -0.609707 -18.4365 9.98714
2315 2 7.28524 -18.4809 15.5043
1970 6 -0.0016207 -22.0471 13.9195
1763 7 1.31574 -18.4095 7.54983
2129 7 2.22628 -19.0865 14.9906
2122 7 4.28533 -19.521 12.7477
2314 4 5.38785 -19.9758 15.9081
1757 7 1.13882 -19.7222 9.07826
2474 7 7.3479 -17.4825 14.9916
1961 2 3.41837 -19.7243 12.1424
1958 2 4.26859 -17.2822 9.42227
2266 11 6.74959 -21.153 11.3744
3766 21 4.11148 -22.8864 6.16918
2286 6 5.17526 -23.8668 18.6869
2262 6 6.58465 -23.4024 12.2363
2128 7 2.17527 -20.5195 14.1688
3157 7 2.86623 -22.5909 20.1088
2133 7 0.380313 -21.7357 12.9055
1956 1 2.93165 -16.9359 11.4232
2131 7 0.0500542 -19.0047 15.3371
2047 7 2.28375 -16.6761 15.7388
2472 7 3.77926 -19.8526 17.2969
2094 7 5.95947 -20.2615 8.14131
1926 17 5.89024 -18.6653 6.33869
1963 2 1.52327 -16.6074 13.5465
2446 7 6.9947 -18.5728 9.95091
2313 2 4.23707 -20.5276 16.5877
2029 6 -0.599193 -20.9061 19.6337
1766 7 -0.58995 -22.3352 10.482
1960 1 2.17461 -18.9832 12.7053
1769 7 2.8044 -23.3441 9.20683
1595 1 -0.208364 -19.729 7.41001
2288 6 4.34808 -22.9665 16.7782
2318 4 6.17594 -20.4887 14.8387
1379 7 7.89432 -21.0949 19.3286
2261 6 7.31226 -22.3657 11.7347
2312 16 3.89784 -23.1187 15.5153
1597 2 -0.760106 -19.5668 9.9138
2130 7 -0.413779 -19.2091 13.6286
1959 1 2.5853 -17.4842 12.7948
2475 7 5.70506 -18.2976 17.231
1767 7 1.21911 -21.9476 10.7347
2123 7 3.26915 -20.8648 12.1953
2135 7 1.86805 -23.4158 12.8248
54 15 4.39013 -17.0338 19.1765
1602 6 0.785603 -23.7745 9.60651
1933 16 7.28893 -22.6918 8.29149
1758 7 -0.332524 -19.8767 10.9107
2121 7 1.3892 -19.1078 12.0079
2471 7 3.407 -20.7745 15.815
244 7 1.99773 -18.3178 19.6834
1966 6 -0.124111 -21.0388 14.81
1762 7 -0.141859 -17.5281 7.25512
2117 7 4.89713 -17.5444 11.5091
1756 7 0.0766011 -20.5475 6.73315
2124 7 4.59218 -19.7595 10.3188
2317 4 7.1758 -19.6099 14.5836
2477 7 5.97813 -21.3296 14.1971
2116 7 2.01232 -17.1369 10.8507
1600 2 0.298702 -21.6471 8.73948
1599 2 0.453488 -18.4672 6.9695
2125 7 2.87032 -19.4731 10.1233
1964 2 1.6971 -19.5539 14.1487
59 4 1.96822 -17.1871 19.6699
2119 7 5.14012 -17.8319 8.98232
2316 4 6.1035 -18.8477 16.3574
2457 7 5.22999 -20.6236 19.1108
2132 7 -0.427317 -20.4845 16.7833
1764 7 -0.598371 -22.0527 8.16706
1930 6 7.33681 -21.7644 7.22181
1971 6 -0.266336 -23.3528 14.313
2127 7 0.672034 -17.2061 13.6315
1927 6 6.61939 -19.8829 6.12596
3767 22 4.52212 -22.7083 7.23933
58 2 0.767917 -16.5063 20.1562
2269 6 7.86926 -19.2242 10.0572
2030 6 -0.560342 -19.7972 20.4659
55 4 3.16787 -16.4483 19.5488
2476 7 7.79509 -19.6781 13.7029
2267 6 7.80471 -20.4697 10.7182
3153 7 2.95229 -20.1764 20.4483
1498 6 1.42218 -14.3549 -0.457994
1948 16 4.7708 -15.2514 3.33974
1491 15 2.07147 -15.5151 1.45039
1497 6 0.544258 -13.9716 -1.44743
2040 9 2.17078 -14.1218 -4.63585
67 6 5.64726 -14.6877 -6.43656
289 7 5.29977 -11.6162 5.28633
287 7 0.657453 -10.5511 3.19057
2469 9 4.27566 -15.3109 -3.38387
3517 7 -0.442825 -10.0038 -1.24418
68 6 5.91288 -13.6253 -5.56328
286 9 4.03896 -11.9616 0.36909
96 6 5.93262 -10.6274 -5.55224
66 12 7.15729 -13.4958 -5.12124
131 2 4.3836 -12.2397 5.02134
1951 2 6.65387 -12.8822 0.307875
1684 7 2.25138 -15.3793 4.11607
94 6 4.372 -11.1028 -3.8234
1437 7 7.5378 -14.2183 4.98565
1823 6 1.02475 -15.6991 -4.41632
2308 6 7.34633 -15.6327 -2.6616
1502 16 0.796961 -12.769 -2.12375
269 7 3.76142 -11.8139 -3.3166
1685 7 0.602786 -15.8315 3.50399
2109 7 6.02197 -12.1047 0.78743
2110 7 6.75657 -12.5085 -0.697681
3719 22 0.646081 -9.841 -7.30066
134 4 2.09594 -11.5146 5.22414
128 16 3.14515 -11.5387 0.41641
290 7 4.64776 -13.2802 5.03303
272 7 5.70699 -9.3215 -1.32417
2111 7 5.1806 -14.5069 -0.176821
105 6 2.56451 -9.90561 2.02171
97 6 5.97653 -9.2364 -5.2155
63 6 6.6431 -15.5919 -6.73092
92 6 5.09575 -11.5048 -4.8991
99 2 4.74589 -9.79909 -1.16943
270 7 6.55254 -11.1305 -6.35424
271 7 5.09545 -10.8051 -1.12492
98 15 3.8384 -9.45132 -2.19477
1950 4 6.78415 -15.2007 1.10799
2106 9 5.11184 -14.9585 2.52966
1694 9 0.558272 -12.8412 -3.09464
2661 16 7.15958 -9.92955 3.14014
1837 19 0.983522 -12.7733 -5.74941
246 7 4.64115 -14.098 -9.00985
288 7 1.31029 -11.6618 1.98458
93 6 4.52003 -9.76791 -3.38626
73 15 4.84377 -12.7435 -5.30001
3813 21 5.21027 -11.0551 -8.74419
2824 9 7.1274 -9.87724 4.07057
1500 6 -0.0523709 -16.2524 0.262589
2039 10 0.905616 -11.7221 -6.59378
129 2 1.62038 -10.8947 2.70351
1489 2 1.48479 -16.1832 4.01755
100 6 4.12747 -9.48707 0.122905
1838 16 2.03182 -14.8463 -3.99722
130 4 2.43125 -11.4895 3.86161
291 7 4.20174 -12.0175 2.78081
1827 6 -0.135402 -14.0461 -5.99518
1693 7 2.35778 -13.7865 -0.218007
2311 16 5.04121 -15.0958 -2.81812
3686 22 0.667829 -9.68048 -3.1715
1952 4 6.03808 -14.248 0.399654
104 6 3.3 -10.299 0.879715
2306 6 6.05639 -15.9942 -2.99158
132 4 3.76906 -11.8504 3.77734
1822 6 0.000428949 -15.2759 -5.35079
2466 7 7.4646 -14.6457 -2.15963
252 7 4.62535 -14.9398 -6.75328
1496 6 1.1425 -15.4031 0.430308
3815 22 4.17388 -10.8669 -8.25819
1690 7 3.41001 -16.2143 -0.696268
247 7 3.11551 -13.4988 -8.34289
3777 22 7.89118 -10.246 -1.20959
3685 21 1.17481 -9.00938 -3.97034
241 7 1.04023 -14.3653 -8.67671
3809 21 -0.800901 -13.3312 2.40386
3718 21 1.44387 -9.01354 -7.45648
1499 6 -0.67902 -14.732 -1.57456
1501 6 -0.775006 -15.7895 -0.81198
293 7 1.15925 -11.1518 5.64191
1924 6 5.5329 -16.3637 3.66695
1890 5 4.69991 -9.66135 15.5912
2053 9 -0.426662 -10.7791 19.7462
1860 6 2.31306 -10.2857 15.4877
1850 2 0.531252 -15.3766 15.4608
1915 6 4.47384 -15.7549 9.23391
1894 15 7.14526 -11.3896 12.9661
2046 7 0.0980028 -16.1706 15.9981
1885 6 6.70297 -9.34571 11.7388
1852 6 2.81589 -14.8093 14.8739
49 6 4.97598 -15.0674 17.948
2079 7 6.66217 -14.6749 14.6147
1913 6 5.07917 -15.1809 8.06542
2077 7 7.27965 -13.0276 11.6959
3826 21 7.33125 -16.1288 11.9527
2089 7 5.99168 -13.3729 7.17917
1853 2 2.34464 -13.3991 14.8668
1912 6 4.97393 -13.0251 9.08301
52 6 7.10298 -14.674 19.4182
1843 6 -0.260207 -13.9786 17.5739
1893 15 4.97325 -11.6432 8.77737
1546 3 0.886446 -12.5917 8.36662
1895 2 7.11501 -12.8172 12.7602
1888 6 5.50751 -10.8724 9.85024
51 6 5.33031 -16.0136 18.871
1542 6 -0.660874 -13.3384 11.7743
1891 13 5.2938 -10.6315 15.3306
1847 6 1.60034 -12.0931 16.8711
1866 16 -0.46692 -9.30719 13.2899
1862 6 1.02637 -10.1159 14.951
1884 6 6.62937 -10.7938 11.8203
1887 6 5.66514 -9.49727 9.67741
1918 15 5.69003 -16.0286 7.24081
2072 7 5.20606 -9.04003 8.77226
1490 14 1.6638 -16.1054 6.29377
47 6 6.86443 -13.6361 18.6128
50 6 5.676 -13.8979 17.7476
1861 6 0.818462 -9.37141 13.8243
1914 6 5.43383 -13.8267 8.02381
1543 6 0.0231688 -13.171 9.45002
1841 6 -0.0710105 -12.7747 18.3435
292 7 3.08454 -12.2732 6.99519
240 7 5.56274 -13.151 16.9477
1716 7 -0.445777 -13.6747 6.35845
1864 6 3.40925 -9.49958 14.9346
3814 22 6.24658 -11.2432 20.3375
1849 6 1.53869 -13.2587 16.1077
2126 7 1.25119 -15.6892 12.9767
2048 7 1.86475 -13.1938 13.9351
239 7 4.09404 -15.1915 17.3061
2057 7 0.238485 -10.7963 15.2109
2045 7 -0.150555 -15.1486 14.5255
1886 12 6.0007 -11.4875 10.8948
1859 3 1.50332 -10.8519 18.9649
1854 14 4.0354 -15.0655 14.8376
1544 6 0.189441 -12.8475 10.7637
2090 7 4.16876 -12.9635 11.0558
1720 9 0.384433 -12.6499 13.1294
1719 7 0.932582 -12.0751 10.9558
1723 7 1.31565 -13.3086 7.71186
2114 7 3.87741 -15.2317 12.2483
2049 7 3.27888 -12.7369 14.9205
2078 7 6.12012 -13.1895 13.0815
1848 6 0.593241 -14.2161 16.3968
1545 16 -0.494247 -12.9756 13.0296
1722 7 0.333183 -11.9052 7.78224
2062 7 4.77519 -9.13295 6.32226
53 6 6.57836 -15.8882 19.6277
2055 7 1.03282 -9.86532 18.6371
1851 1 1.8436 -16.0034 14.9704
2054 7 1.29556 -11.0317 20.0272
245 7 3.46371 -13.1403 19.6518
2092 7 4.19224 -15.3958 5.91746
1916 6 4.36974 -13.6093 10.1838
1855 15 2.56122 -11.1339 16.4974
1955 2 3.25427 -15.4183 11.4193
1917 6 4.03872 -14.9359 10.229
1721 7 1.72866 -11.9867 8.84149
1846 6 0.972743 -11.9112 18.1037
3828 22 6.37104 -15.6833 11.4784
2115 7 2.41037 -14.7532 11.5195
46 16 7.36168 -11.1064 16.9616
2056 7 2.64225 -10.8029 18.8609
57 4 2.87989 -15.2003 20.0393
2827 7 7.18225 -9.69077 7.0023
133 4 3.11832 -12.0807 5.90945
242 7 -0.135165 -16.4843 19.5563
1900 6 7.6719 -14.3012 14.6018
60 3 3.60485 -13.9433 20.3308
238 9 7.66439 -11.1661 16.0432
1919 2 4.74146 -16.3348 6.19171
56 4 1.47572 -15.2328 20.3601
3720 22 2.24158 -8.18602 -7.61242
3231 7 1.68697 -6.51765 -2.05033
140 1 7.88147 -4.42237 -5.60539
141 2 7.41142 -4.27481 -4.20937
3119 6 3.17578 -3.17635 -5.10424
3215 7 0.696606 -1.38472 -6.43596
115 6 3.64513 -2.02006 1.90028
3226 7 1.00972 -4.87427 0.99216
3074 6 -0.0719038 -3.54703 2.91601
2658 6 7.65442 -8.72791 2.69558
275 7 3.06797 -5.0019 3.16278
3124 2 3.21564 -2.45323 -3.77635
3079 6 0.0453769 -5.50398 4.41996
296 7 5.9326 -6.31186 -6.06769
3065 6 0.486163 -4.46099 0.170001
3069 6 -0.808057 -1.4888 1.79858
3274 7 2.21495 -2.17552 -3.35375
3229 7 2.90295 -5.29214 -1.5729
298 7 4.31051 -6.8991 -3.87551
3082 2 -0.3111 -6.94565 4.72755
3081 6 0.7505 -4.7231 5.35591
3270 7 4.56216 -2.58536 -8.15413
3224 7 0.0358976 -3.9727 -5.6469
2662 15 7.36823 -7.93665 4.92361
3073 3 1.94747 -5.74178 -1.26215
303 7 7.02593 -3.26426 -4.01817
142 2 6.29052 -5.18772 -3.8495
137 1 6.47518 -6.68456 -4.0954
276 9 7.23836 -3.59464 0.065025
103 6 2.62071 -8.60547 2.43934
274 7 6.37916 -5.7175 -0.601836
3078 6 -0.188079 -4.90399 3.20932
3336 3 -0.443141 -8.05917 0.689007
3117 6 2.71679 -4.4196 -5.33144
135 2 6.88607 -8.31747 -6.07786
976 7 0.653122 -6.47696 -8.58841
3067 6 -0.474613 -3.47835 0.457602
1876 4 4.34987 -7.13738 5.65657
2660 6 7.66468 -7.64823 3.61275
3272 7 3.45692 -4.68531 -8.70332
102 6 4.11694 -8.35451 0.854336
305 7 5.43986 -4.73711 -4.40651
273 7 1.87382 -8.29932 3.15453
114 15 4.50231 -2.85018 2.5196
138 2 5.24102 -7.46778 -3.58941
3080 6 1.14788 -3.45765 4.98944
3118 6 3.81872 -2.42551 -6.09732
3072 18 1.74922 -5.20004 -4.08092
3275 7 3.70056 -3.0507 -3.02649
3075 6 0.48795 -2.79952 3.93909
136 1 6.80428 -6.78653 -5.56045
3271 7 2.55906 -6.03597 -6.7366
3237 7 0.279231 -7.24697 5.65664
112 6 4.7257 -4.11799 2.01197
3064 6 0.818612 -4.72951 -1.16458
101 6 3.52529 -7.75912 1.86499
3230 7 2.19249 -6.23999 -0.341059
108 6 4.03596 -6.44528 1.76349
3121 6 2.81025 -4.96741 -6.63463
2061 7 4.6393 -6.94445 4.64401
107 6 4.92307 -6.39711 0.789757
3238 7 -0.0665614 -7.61945 3.90852
106 17 5.04238 -7.6031 0.0313736
3059 6 0.416913 -4.3458 -3.58169
301 7 7.13125 -3.88374 -6.13907
3122 6 3.37693 -4.25491 -7.686
109 6 5.79395 -5.5218 0.311129
3068 6 -0.512219 -2.90566 1.73756
3522 7 0.0599395 -8.29728 1.74769
3061 6 0.0357868 -4.24937 -2.21601
95 6 5.32121 -8.84443 -4.09712
3060 6 -0.278499 -3.76541 -4.61639
113 16 6.58269 -3.30297 0.718146
279 7 3.05533 -3.41289 0.215493
111 6 3.87115 -5.19614 2.43849
3120 6 3.89452 -3.02253 -7.38689
110 6 5.75684 -4.33555 1.02498
299 7 5.28296 -7.45773 -2.47411
304 7 5.90263 -5.05746 -2.83844
119 6 2.97092 -2.37742 0.751642
3077 6 0.27941 -1.3519 3.937
3521 7 0.323508 -7.99802 -0.105326
295 7 6.74129 -8.30177 -7.14467
2067 7 5.16064 -4.71035 5.0662
297 7 7.3994 -6.95134 -3.49231
280 7 1.71036 -1.57356 -0.892757
3687 22 1.68161 -8.33821 -4.76931
306 7 7.5899 -6.57485 -8.07082
698 7 6.93877 -1.9731 4.50979
120 6 2.22492 -1.36905 0.0566176
3818 22 7.73353 -2.58831 -8.05863
3234 7 -0.644006 -5.55949 2.46917
2063 7 3.01242 -8.92734 5.76928
1865 6 2.99365 -8.83818 13.7807
2075 7 7.80038 -7.71052 12.3759
806 6 0.263447 -3.53192 11.6321
2065 7 5.26057 -3.99745 6.6216
3236 7 0.991552 -5.19665 6.39836
2073 7 6.95 -8.54563 13.7147
1881 2 5.3675 -6.35452 10.9614
981 7 2.33453 -6.84116 17.4823
807 6 2.5159 -2.82593 10.963
3191 7 4.56089 -3.57855 14.8869
809 6 3.08286 -3.51815 12.0276
3235 7 1.64907 -2.83748 5.72393
982 7 2.15284 -5.81167 16.0128
1872 6 3.31744 -7.50787 11.8712
987 7 2.56094 -4.795 13.7004
2066 7 3.76964 -4.10725 5.69785
988 7 4.17473 -3.48145 12.2704
812 6 3.09791 -2.08261 9.93128
1867 6 2.0502 -7.96248 12.011
3817 22 7.08191 -2.35995 19.2941
978 7 -0.472051 -8.22178 19.4596
3031 6 5.41878 -4.02732 15.4686
2069 7 5.44182 -5.34833 10.5774
789 2 0.153586 -6.18639 20.055
2060 7 0.161345 -7.94454 10.9843
791 6 -0.508268 -7.00486 17.7525
790 2 0.157627 -7.40675 19.0888
3023 6 5.11405 -1.43703 17.3139
3027 6 5.33411 -4.11868 16.8727
1875 4 3.9259 -6.47399 7.70023
993 7 6.27969 -2.77032 9.37804
1871 6 3.08984 -6.38114 9.87043
986 7 -0.530759 -5.93843 12.7334
3668 22 5.4247 -6.95082 19.8992
811 6 1.97134 -1.72193 9.10427
1878 2 3.91716 -8.39714 6.25609
1868 20 4.56871 -7.99925 13.1791
2059 7 1.08883 -6.5717 8.99072
810 11 0.728245 -2.08517 9.6784
802 15 0.71486 -6.08946 14.4297
2071 7 6.4374 -7.03398 9.23522
804 6 0.875611 -4.37228 12.6242
994 7 5.43723 -3.02581 10.979
3026 15 4.28167 -3.64266 17.5978
983 7 1.77647 -5.05344 17.5405
979 7 1.17794 -7.86689 19.0725
995 7 6.12407 -1.37959 10.576
792 6 -0.185733 -6.53143 15.3983
2068 7 5.72792 -6.37248 12.0673
3187 7 5.96071 -1.74003 16.6071
2076 9 4.7785 -7.81595 16.2246
803 2 -0.0176223 -5.31579 13.4404
3022 6 3.0881 -1.78981 18.58
1879 4 3.64152 -7.88523 7.58936
1892 16 5.20694 -8.66298 16.3535
2064 7 3.14514 -8.44429 8.37865
2422 9 5.16035 -2.04394 14.204
3667 21 4.45335 -7.55671 19.7122
808 6 2.18828 -4.14981 12.9091
797 3 1.6701 -6.05497 16.9976
3025 16 2.1294 -2.661 19.0531
1874 15 3.62393 -5.72406 8.849
1869 6 1.73127 -6.71487 9.90372
818 3 5.58304 -2.29127 10.144
701 7 7.80238 -4.21642 6.2575
815 6 4.34921 -1.75126 9.49879
1863 6 1.88977 -8.8066 13.0945
793 6 0.271453 -6.48065 16.7198
985 7 -0.869975 -4.81323 14.0065
1870 6 1.18785 -7.47744 10.9391
974 7 0.158867 -2.62346 15.9889
805 6 1.10562 -2.85532 10.7967
3030 6 7.48492 -5.33962 15.5252
1873 6 3.95232 -6.79045 10.95
1883 6 6.29326 -8.70192 10.6002
1880 3 4.65747 -4.65888 5.98116
1877 4 4.35083 -6.01593 6.48928
1882 2 6.45289 -7.20706 10.3275
2070 7 7.38575 -6.85792 10.6658
3188 9 2.40385 -3.50295 18.7028
3669 22 3.48211 -8.16279 19.5251
3032 6 6.43162 -4.60703 14.8023
1889 3 7.53949 -8.74512 12.7745
3192 7 6.53163 -4.6215 13.6855
3028 6 7.44012 -5.31874 16.8836
3029 6 6.3226 -4.85017 17.5551
3190 7 6.38296 -4.92041 18.6171
3024 6 4.19885 -2.29947 17.8484
977 7 0.704569 -5.33274 19.5915
989 8 0.0589039 -2.51698 9.13821
3816 21 7.40776 -2.47412 20.4015
360 7 6.7287 1.64718 -8.82737
2927 6 0.538271 2.90815 4.80959
2999 6 6.23063 1.24213 -0.367789
2993 6 4.45521 3.69194 -1.40369
3007 6 2.40631 3.98019 -8.13984
2989 6 5.57245 2.94967 -3.42791
3054 2 1.60669 0.364219 -7.20295
3003 16 4.98559 3.83979 -5.4568
3005 6 3.44571 4.75139 -8.72549
3177 7 5.90318 2.50975 1.43522
3053 2 0.662866 -0.357214 -6.19858
3233 7 0.552334 -0.815679 4.87291
3170 7 2.30516 5.30873 -4.93244
3232 7 -0.68658 0.253379 3.13946
2897 7 7.62372 5.49287 -0.705812
2904 9 7.36624 6.07162 -4.35225
3172 7 4.35052 3.74337 -0.313934
2991 6 5.43255 2.91959 -2.05469
2925 6 -0.248074 3.90016 4.22088
3171 7 3.07866 5.2597 -1.58662
2751 16 7.09106 5.87053 -3.44735
2988 6 3.83212 4.63914 -3.51293
3047 2 0.284799 4.0092 -6.8214
126 6 0.667501 3.071 -0.694388
210 6 7.7529 1.23439 -9.07728
2913 6 4.47577 4.83188 2.88119
3000 6 7.08666 0.193143 -0.213433
3174 7 7.96914 -0.376144 -3.48254
281 7 2.70749 0.190139 -2.03808
2990 6 4.7821 3.81597 -4.1465
283 7 0.559311 2.18698 1.18707
2995 6 6.78064 1.27096 -2.76246
3051 1 -0.760753 1.81593 -5.99359
3127 7 4.58372 3.02798 4.06819
2996 6 6.19847 1.85914 -1.5942
123 6 2.06689 0.974362 -1.52929
3076 6 -0.431118 -0.794422 2.97505
2921 6 0.351554 4.73942 3.23117
3179 7 4.40199 1.92005 0.745769
3180 9 4.28684 4.33798 -5.87769
3216 7 2.66426 0.0763512 -6.99101
285 9 1.97675 2.70369 -4.28411
2998 6 7.70027 -0.403842 -1.33846
125 6 0.975635 2.06416 0.182309
3206 7 0.412858 4.0616 -5.75687
3276 7 5.06985 -0.549514 -6.06314
3052 1 -0.793036 0.259186 -6.05525
277 7 2.88868 1.18608 2.24552
3050 2 2.46812 2.46456 -8.25668
117 6 3.46758 -0.837526 2.52055
121 6 1.59831 0.910834 -0.239096
282 7 0.56951 3.79242 -2.68098
3212 7 -0.395213 2.08113 -4.98162
2987 2 3.19939 5.71449 -4.36148
3217 7 1.28479 -0.0305219 -8.18893
2922 6 -0.489159 5.56585 2.4826
3214 7 1.11047 -0.221776 -5.17326
2918 6 2.53966 3.7959 3.77303
278 7 4.07641 -0.599826 3.38135
127 16 2.12126 1.85983 -3.82077
2992 6 3.69419 4.56348 -2.13462
3175 7 7.25138 -0.196328 0.782792
547 3 7.24754 -1.05757 4.99309
3173 8 6.04117 1.45741 -4.73657
3208 7 -0.300014 2.22726 -8.02956
2994 11 6.49731 1.96804 -3.97248
3178 7 5.56149 0.767031 1.53992
2914 6 2.35105 5.71551 2.29435
118 6 1.97518 -0.0833035 0.639047
124 6 0.96749 3.00531 -2.04067
3002 3 5.46297 1.67359 0.887711
3126 7 5.54837 4.97729 2.85369
2917 6 3.96097 3.80451 3.61581
3209 7 2.2304 2.09978 -6.27682
2915 6 3.73212 5.78562 2.30123
699 7 6.37825 -0.727242 5.46368
2916 6 1.76982 4.78899 3.15488
3273 7 4.35253 -0.322223 -3.66544
3009 6 1.43689 4.6902 -7.48899
116 6 2.77023 0.1329 1.82221
2928 6 1.84363 2.82233 4.50022
122 6 1.72664 1.90477 -2.48792
3049 1 1.5753 1.91388 -7.12935
3048 1 0.153174 2.51168 -7.06372
3211 7 3.55674 2.13683 -8.03251
3123 4 4.02257 -1.18038 -4.17645
3006 6 3.42026 6.15278 -8.72613
3130 7 2.34351 1.98037 4.9181
284 7 0.193225 3.98623 -0.324512
2997 6 7.49975 0.143527 -2.6142
3008 6 1.42032 6.099 -7.49645
3207 7 -0.600437 4.57601 -7.24107
3125 4 4.39024 -1.25433 -5.56128
697 7 7.56087 -0.380096 4.14903
692 7 6.51352 2.79139 5.95075
2202 16 -0.9256 5.60615 7.10128
2412 7 1.39981 2.10044 17.6342
2227 6 5.34115 1.09756 13.0546
3186 7 2.15467 0.0647483 19.4823
2224 6 2.92102 1.1293 14.5971
2420 7 -0.0334365 -0.634921 13.3157
2419 7 -0.0534404 0.447652 12.0923
527 6 3.97266 5.37331 8.08824
358 7 7.06189 0.176233 18.7807
2421 7 3.4513 -0.853377 15.2481
2231 6 6.5504 1.46388 12.443
3017 6 6.93532 2.93911 16.4668
3013 6 5.45937 1.12851 16.917
2210 6 -0.131215 1.39901 14.054
530 6 6.29287 4.59933 7.92903
2212 6 -0.704218 3.71527 15.6915
3011 2 4.26481 4.19825 18.8948
2435 7 6.81774 5.15884 13.3178
2237 6 7.12331 3.65505 11.3451
3040 16 6.78804 5.12318 17.5807
3144 9 0.938224 1.7147 6.15869
3010 15 4.52258 4.08881 20.2716
686 7 7.39383 4.75804 7.95864
688 7 4.23265 1.93734 8.13177
991 7 5.49212 -0.987434 7.82307
816 6 4.48255 -1.20275 8.22529
2245 2 6.78241 5.10482 11.1549
814 6 3.36249 -0.844697 7.4404
2215 1 -0.135608 5.21491 17.7286
3016 6 6.30906 3.79611 17.4079
2229 6 4.50802 2.0874 13.2272
2246 2 7.15381 5.84431 12.4588
3184 7 4.50213 5.20842 18.6071
533 6 4.48886 3.02262 8.06014
990 7 1.16749 -0.810484 7.33846
817 16 3.51585 -0.221946 6.26789
813 6 2.08041 -1.15496 7.90044
2490 7 0.0167346 5.88171 19.6035
2403 10 -0.573607 2.67004 9.70856
689 7 6.27802 1.12499 8.32773
2226 6 3.64287 -0.0245885 14.5032
685 7 2.00463 6.19913 8.53238
2225 6 4.8573 -0.103243 13.8036
2223 3 0.331091 0.388852 13.0975
687 7 2.58813 3.69641 8.02269
3014 6 4.91589 2.10475 17.6455
690 7 7.61597 2.24154 8.37868
2228 6 3.32634 2.26705 13.8413
2254 5 2.6354 3.61052 13.8012
3012 6 5.16283 3.33084 18.0836
2216 6 0.288234 3.78903 18.1069
2440 9 1.39568 3.34818 12.2021
971 7 -0.229315 0.338889 19.9013
531 6 5.85621 3.30238 7.91221
3683 22 3.01902 1.06581 11.0534
532 6 3.60255 4.03486 7.98473
2411 7 0.659482 5.84987 17.3731
3015 6 6.60052 1.63865 16.2068
2418 7 1.43692 0.444529 12.9348
3018 17 3.83718 1.68112 18.4853
2433 7 7.39832 5.47043 10.3092
2327 2 -0.839 5.88454 18.8978
2234 6 7.83027 0.904588 11.9765
2219 15 1.76282 1.07179 15.3549
2211 6 0.659082 1.76603 15.1228
3682 21 2.10651 1.33367 10.3893
3019 6 3.90504 0.302922 18.1562
3684 22 1.19397 1.6016 9.72524
3183 7 3.19536 4.0103 18.6716
2213 6 0.437492 2.9114 15.8846
3020 6 4.87628 -0.0637894 17.3436
2217 2 1.21788 3.05394 17.1588
2230 16 5.6504 -1.22474 13.8983
3021 6 2.95848 -0.372396 18.8324
2218 14 -0.341605 3.05034 18.9962
2413 7 2.06589 3.66321 16.8927
2232 20 4.86242 3.76214 12.4827
2201 19 -0.950944 3.58982 8.86562
2256 16 1.78152 4.02047 12.796
534 2 6.68478 2.01071 7.83764
3185 7 7.22504 1.00861 15.5742
2255 13 2.65182 4.18754 14.7869
2236 6 6.38912 2.71964 11.9949
3198 9 7.41884 5.40981 16.8664
535 2 6.81071 1.76483 6.34738
526 6 5.4011 5.68234 8.04702
208 6 7.93059 0.396479 19.3866
2432 7 5.7085 5.22367 10.752
2949 16 0.125117 2.03779 5.79285
3210 7 2.25324 2.02777 20.3404
691 7 5.95557 1.1074 6.04116
3200 7 7.78418 4.4689 15.2721
992 9 2.68208 0.230124 6.09015
2929 19 2.23112 7.19054 0.0714029
3739 22 5.83903 7.70969 -5.98124
2965 6 1.11791 12.9335 -4.90372
2964 6 -0.0369576 12.2807 -5.21997
1947 16 6.24004 12.2722 -2.39995
2101 7 6.3429 12.616 0.159462
1619 6 6.27617 10.4766 4.41484
2892 7 7.6708 7.29624 0.846428
2488 7 -0.351286 10.8458 -9.03464
2293 6 6.32391 12.1676 -8.25281
1940 6 7.30075 13.3762 2.52226
3166 7 3.74407 10.2048 -2.31698
2985 15 2.52279 8.24865 -8.00161
3164 7 3.26006 10.6897 -7.11965
3163 7 4.05925 12.2961 -5.36007
1639 3 -0.285128 10.0193 4.01375
2294 6 6.60856 12.5807 -6.90731
1789 7 0.137922 10.7536 4.7327
2973 2 2.21616 12.5897 -3.97225
1779 7 7.40562 9.82109 2.71913
3182 7 0.592714 6.4437 -6.84542
2984 16 -0.667988 7.32214 -4.77294
3162 7 4.16783 11.8493 -3.75702
3004 6 2.35647 6.87626 -8.10932
1791 7 0.547975 9.54608 3.59243
2460 9 6.75595 11.95 -5.06639
1618 6 4.97305 10.6653 4.94859
3737 21 6.93442 8.09143 -5.98647
1623 6 4.07938 10.4234 2.67465
2974 2 3.43321 11.7829 -4.56693
1786 7 0.595296 9.10228 1.46297
3160 7 1.8309 12.0961 -3.09434
3169 7 4.00012 6.14301 -5.02562
2900 7 6.10316 7.61288 -1.65638
1778 7 2.94489 10.8636 4.48119
1785 7 0.656048 9.96238 0.235862
2981 3 2.93461 9.48373 -2.55287
2975 6 3.11273 10.2784 -4.97387
1784 7 1.71927 11.8608 0.919702
2960 20 0.161522 10.7698 -4.31593
1628 2 0.482085 10.1652 1.28155
2902 7 7.40512 9.44885 -0.392551
1790 7 -0.732308 9.21439 4.62376
2901 7 7.02783 8.59926 -2.75927
3128 7 -0.392933 6.92782 0.712183
2977 6 2.8553 9.28515 -4.01532
2980 6 2.56839 8.65913 -6.70137
3168 9 -0.392131 6.65743 -4.15551
2920 6 0.123924 6.35571 1.48568
2986 15 2.69507 6.89921 -3.59456
2749 2 7.1735 7.84221 -1.89685
1780 7 5.43147 9.94107 1.10023
1787 7 -0.299232 11.7204 -0.726449
2919 6 1.51304 6.47996 1.45837
2976 6 2.65478 7.94344 -4.46425
2978 12 2.35393 7.74528 -5.79974
1782 7 3.40432 10.6731 0.568768
2291 6 6.00241 13.2228 -9.02217
1625 6 5.34116 10.2084 2.17457
1627 2 1.67536 11.0545 1.6793
2297 16 6.97999 11.6302 -5.96304
1783 7 1.56193 11.5566 2.62297
1622 6 3.92575 10.6398 4.06226
3161 7 2.7351 13.4738 -3.62853
1942 6 7.32716 12.2192 -1.56347
2979 6 3.01318 9.92301 -6.32079
1624 6 6.4222 10.1322 3.02955
3132 9 5.24695 6.29539 1.14716
1781 7 2.7025 9.24029 1.59513
3167 7 2.04231 9.97546 -2.25627
3165 7 3.15333 8.60326 -1.85571
2489 7 0.41207 9.31545 -8.70376
1621 6 7.39887 10.5641 5.34671
2105 9 5.57473 12.7662 -1.92582
1626 2 3.00797 10.2888 1.58129
3131 10 1.2979 7.76914 -0.670206
2100 7 6.30888 13.5255 2.00848
2458 7 6.48126 11.1061 -8.56331
2930 16 4.53206 6.73653 1.58432
1943 6 7.29848 12.4214 -0.221788
2983 13 -0.86506 8.44985 -2.9014
1473 19 0.340261 13.7399 4.29671
1675 10 1.64545 13.4873 4.11513
1610 6 3.45465 12.107 7.92818
521 6 4.94403 7.8262 8.92571
1770 7 2.83486 9.46012 6.02828
3181 7 4.17624 6.74687 20.3364
203 16 5.68503 9.01784 19.0623
2290 17 5.66092 12.6123 19.2866
1607 6 2.17219 12.4591 8.35414
1775 7 0.957998 8.26547 6.79626
2143 7 -0.233403 6.36183 11.7912
2442 7 5.59845 11.7852 12.6002
1620 6 7.26015 10.9305 6.60997
2479 7 -0.529839 7.74561 16.2458
2260 6 7.26069 13.1603 12.5358
1975 6 -0.310296 11.9516 13.8056
2257 15 3.27468 8.60162 13.6152
2250 12 5.32825 9.69187 13.3719
2140 7 2.73826 10.1684 10.9493
3787 22 4.56963 6.60042 16.3991
2279 6 1.79917 9.97313 17.2147
2322 2 1.38469 10.3103 18.6054
1772 7 6.64956 12.2401 8.90476
1614 6 4.60801 12.4343 8.65036
1982 6 -0.705736 9.74574 12.7249
1606 6 2.0016 13.6508 9.03005
2453 7 4.55025 10.2202 15.3596
352 7 7.80262 10.6728 18.7338
3788 22 2.40024 6.86371 17.1777
1773 7 0.609595 8.52965 8.42318
356 9 5.08919 8.73672 18.341
2320 1 -0.184716 8.3338 18.2585
2136 7 2.90228 12.4117 11.604
1774 7 -0.413899 9.21991 7.23582
2259 2 6.5415 11.9441 13.1131
2251 6 5.19029 7.38084 12.9323
2249 6 7.27524 8.38315 12.8611
1608 6 1.41532 10.3009 7.51954
1977 6 1.289 11.0981 12.2222
1605 6 1.12397 11.461 8.32622
1978 6 1.36198 13.3434 12.8689
1985 6 1.20186 8.76715 11.5262
1771 7 4.5738 13.1145 9.60022
199 2 7.8126 8.08671 19.9716
3786 21 3.48488 6.73217 16.7884
518 6 7.66563 8.52816 8.76578
2454 7 0.87636 8.21902 14.5819
1988 6 -0.709472 7.31147 12.1481
517 6 7.63978 7.06012 6.8392
1609 6 2.59658 10.2445 6.81102
2276 6 2.78942 9.15099 14.754
2436 7 4.57889 6.45913 12.7623
520 6 5.83925 6.96357 8.40314
2282 15 3.67168 11.411 17.5426
1974 6 0.218348 13.1993 13.6495
351 7 6.9915 7.82092 17.9499
522 6 6.82528 9.24684 9.62241
528 6 3.5719 7.58524 8.86776
523 6 5.46538 9.04502 9.55059
1617 3 0.583869 9.06028 7.47094
2141 7 1.63905 7.87758 11.0206
2280 6 1.54883 8.76362 15.1695
1984 6 1.74756 9.99703 11.4179
2283 2 4.65053 12.213 16.8858
2319 2 -0.28744 8.58835 16.802
353 7 7.2721 10.0716 17.1258
680 7 4.82141 9.64812 10.2092
2284 6 4.76267 13.5815 17.4088
684 7 2.80711 8.26514 9.29271
2281 6 1.03386 9.16719 16.4099
2252 6 4.60355 8.57946 13.3293
2455 7 5.48341 11.5705 16.9927
2248 6 6.63116 9.58377 13.1726
1976 6 0.0639565 10.9066 12.9676
1612 6 4.81407 11.0015 6.28741
529 6 3.06166 6.39743 8.41346
2321 1 -0.0788957 9.72896 18.8267
2482 7 2.17416 9.92739 19.2091
2247 6 6.57094 7.2194 12.7938
2277 6 3.00869 10.4614 16.7537
2258 15 7.35843 10.812 12.9866
2278 6 3.51926 10.0081 15.5265
2483 7 1.40737 11.413 18.7662
1983 6 -0.0215535 8.53211 12.1979
2480 7 0.784576 7.77472 18.5044
1603 6 -0.107567 11.7598 8.99364
1615 6 5.83989 11.9718 8.25138
1611 6 3.58586 11.2343 6.84814
200 1 7.02828 8.66051 18.7711
1613 6 5.98584 11.1393 7.09306
1604 6 -0.265083 13.0158 9.60332
1979 6 1.96351 12.3102 12.2411
2441 7 6.3043 11.9958 14.1906
2456 7 4.34784 12.2473 15.8273
519 6 7.04772 7.51084 8.03449
679 7 7.24904 10.1408 10.1818
201 2 7.78096 9.84057 18.0786
350 7 7.45342 7.17595 20.4248
2481 7 -0.774335 10.4103 18.4069
2326 2 -0.387679 9.76526 20.281
2452 9 4.90087 13.661 12.9871
2404 9 -0.426277 6.3948 7.01446
2470 9 3.63618 13.7109 15.5059
678 7 7.1099 6.24534 6.27534
1185 6 12.5737 -19.6752 -5.8968
1387 7 16.1838 -19.5563 -3.06
1160 6 12.0257 -17.686 -1.49162
2310 6 8.36387 -16.5895 -2.6678
3741 21 12.6531 -23.7002 -7.95302
1302 6 13.3544 -23.2102 -3.39517
1386 7 16.6904 -18.8063 -4.53338
1220 16 9.5028 -20.4979 -8.57568
1159 6 11.1638 -17.9137 -0.425314
1133 6 15.8237 -22.2713 1.2195
1378 9 8.73349 -21.0208 -8.81043
1145 6 11.4845 -20.117 2.27354
1139 6 13.3154 -21.6369 1.53008
1361 7 10.6744 -18.9508 -4.95336
1147 4 8.38763 -21.1121 0.741602
1191 2 11.9482 -19.1127 -8.00456
1156 6 13.5512 -16.632 -0.0909354
1230 2 14.77 -20.6353 -6.69439
1450 7 11.383 -22.6357 -4.16457
1141 6 10.9951 -22.0798 1.02554
1186 6 11.7955 -19.0193 -4.9352
1158 12 13.2079 -17.0777 -1.33816
1142 6 12.3331 -22.5129 0.874626
1339 7 10.1634 -22.3664 -1.84302
1140 20 13.8175 -19.3585 3.04553
1154 2 10.5395 -17.7252 2.03637
1229 1 16.1884 -20.9883 -6.14596
1364 7 12.8618 -18.4859 -7.91346
1332 7 12.4176 -23.5495 0.543342
1331 7 10.2621 -22.7968 0.648077
1344 7 10.2367 -18.5368 -0.596101
1342 7 10.4154 -16.813 2.70383
1300 6 12.107 -23.4026 -4.01349
1162 5 16.5471 -19.0253 4.01807
1363 7 11.2058 -18.3488 -7.66758
1338 7 9.5802 -20.7582 -2.36803
1135 6 14.7035 -21.5748 1.76283
1341 7 10.1806 -19.1084 3.51423
1136 6 16.2942 -20.1226 3.03606
2095 7 8.64308 -21.3174 4.09616
2467 7 8.95612 -18.5321 -3.19118
1184 6 12.3751 -18.6606 -3.72029
1149 4 8.71973 -21.3638 -0.618928
1143 6 10.4692 -20.955 1.63939
2795 7 14.9807 -16.6597 -8.88771
1146 15 9.16178 -20.7094 1.77126
1165 15 11.5451 -18.1554 -2.74225
1155 6 11.4981 -17.4421 0.862
1388 7 15.7366 -21.7306 -4.23153
1227 2 15.9787 -19.5487 -4.15848
2462 7 8.42008 -21.9421 -5.57059
1420 7 13.0056 -23.2685 4.61958
1190 15 11.9925 -20.1598 -7.00842
1188 6 13.7216 -18.6736 -3.57139
1187 6 13.9438 -19.9007 -5.64034
1337 7 10.747 -20.693 -1.20395
1228 1 16.3662 -20.9511 -4.61001
1152 3 9.87985 -21.3458 -1.49038
254 7 8.72199 -17.3147 -6.7899
1164 16 16.3122 -17.68 3.57632
1144 6 12.7148 -20.624 2.16341
1138 16 15.634 -23.2826 0.295653
2461 7 8.39132 -19.4358 -5.31137
1390 7 14.364 -21.533 -7.04104
1189 6 14.512 -19.3525 -4.47906
1343 7 9.57399 -18.0327 1.79
1391 7 14.9573 -19.9897 -7.58116
1137 6 15.0359 -20.5043 2.48281
1362 7 14.2007 -18.4818 -2.61964
1397 7 15.6468 -23.1163 -6.01631
1345 7 13.8243 -16.8867 2.6467
1452 7 13.6568 -22.1978 -3.08809
1340 7 11.7139 -18.5548 3.70111
1153 2 11.0679 -18.8692 2.9274
1396 7 16.3231 -22.6935 -7.683
1931 6 7.97406 -21.1992 4.9529
1935 6 8.58702 -23.8476 4.54607
2309 6 8.12649 -17.8674 -3.14973
1234 2 16.3869 -22.5126 -6.56078
2793 7 16.37 -16.8365 -7.70659
1157 6 12.6661 -16.7175 0.965428
1419 7 14.5969 -23.6098 4.88099
1126 14 16.7438 -19.1987 -0.766591
2789 7 13.7488 -16.6188 -6.34222
1348 9 16.4262 -17.0133 4.24636
253 7 9.48647 -16.5087 -5.50107
248 7 8.13425 -16.8523 -8.86719
1451 7 15.2644 -24.0378 -2.72236
2273 16 9.13543 -17.651 8.73635
1270 6 15.5142 -22.118 8.92165
1366 7 15.4702 -17.5411 18.909
1265 6 13.8633 -22.918 7.34922
668 7 14.0414 -23.3757 12.3917
635 7 16.3553 -22.9377 16.9321
1367 7 12.9718 -19.2152 14.8232
1272 6 11.6336 -20.092 6.46301
663 7 14.2079 -22.8249 15.0274
1279 6 15.902 -18.5465 8.00985
3822 21 10.9494 -20.6797 14.0921
1204 6 14.6384 -18.058 15.5627
2448 9 10.0923 -17.493 8.5636
1206 15 15.0807 -17.8608 14.2766
1423 7 11.6456 -22.075 5.93494
633 7 15.1195 -23.304 19.723
1283 6 10.7194 -17.2703 6.23711
1266 6 14.0834 -20.5308 7.82489
1380 7 7.88064 -20.6603 17.7276
463 2 15.8166 -21.9866 16.7703
1383 7 8.23535 -22.6141 15.9193
1282 6 14.2494 -16.9469 7.1355
2096 9 8.01287 -23.2587 8.02213
1198 17 13.3485 -18.6707 19.3624
1932 6 8.02954 -22.0764 6.02477
1221 2 8.50551 -21.2262 18.4097
1193 6 11.9889 -19.7312 17.7759
1205 16 16.4088 -16.7874 16.373
1192 6 11.6182 -19.6445 20.2241
1274 6 12.4033 -19.0329 6.93047
2263 6 8.69241 -22.4463 11.5575
1271 6 12.2058 -21.3274 6.5415
2268 6 9.0592 -21.2068 10.9096
2450 7 11.9615 -21.7265 11.3694
1385 7 9.40629 -23.4677 20.0379
2265 6 9.37231 -23.6305 11.8802
3827 22 8.29159 -16.5742 12.4271
1195 6 10.6873 -20.2929 17.5201
2451 7 12.2847 -20.9509 9.8016
1207 6 14.1432 -17.3671 13.3631
2473 7 8.25891 -18.5234 16.0039
1197 6 9.87094 -20.5702 18.6038
636 7 15.7219 -21.7785 15.659
462 15 14.5403 -22.0595 17.4204
502 2 13.7026 -23.7812 15.213
1269 6 14.9456 -23.1451 8.19392
1211 6 14.3879 -17.5638 12.034
1202 6 15.356 -17.5826 16.6698
1200 6 13.0392 -19.1094 17.0997
458 6 14.6151 -23.9184 18.8871
1199 6 13.7984 -18.5479 18.0115
1273 6 13.7132 -19.2797 7.46808
1429 7 16.5575 -21.4794 10.7256
2449 7 11.6776 -22.559 9.90559
1934 15 8.67039 -23.2465 5.79824
2444 7 10.5171 -23.6923 11.7665
2087 7 10.1802 -17.2713 17.5391
1226 4 9.19942 -23.5948 18.9488
1194 6 12.2023 -19.4637 19.0537
1433 7 9.87356 -18.0325 6.11077
1209 6 13.0088 -16.6777 13.7425
1224 4 8.7041 -23.2092 16.7919
2270 6 9.07942 -18.8608 9.46147
1365 7 10.3249 -20.3893 16.517
1278 6 16.2138 -19.7443 8.60837
1280 6 11.9831 -17.6641 6.66338
2271 6 10.2387 -20.803 10.3059
2274 3 11.5727 -21.5745 10.3747
1428 7 16.3585 -23.2722 10.5733
457 6 14.3319 -23.379 17.6635
2272 6 10.2434 -19.6635 9.54337
650 9 15.6367 -21.7591 19.3806
1267 6 13.4192 -21.6272 7.21795
1268 6 15.1799 -20.7803 8.60823
1281 6 12.9638 -16.671 6.80044
2447 7 11.2164 -19.1975 9.24035
669 7 12.3495 -23.6673 13.0115
1222 4 8.74007 -22.6403 18.1033
662 7 12.6368 -23.6243 15.2915
1276 3 16.5919 -22.3786 9.97183
1201 6 14.8852 -17.8382 18.0024
1424 7 10.6812 -19.8941 6.08202
1371 7 15.3076 -18.0426 11.6342
492 16 16.2177 -20.9689 19.6724
1277 6 14.5618 -18.2288 7.60113
1203 6 13.4756 -18.8289 15.7325
1212 6 13.5487 -17.1567 11.0735
1372 7 13.9396 -17.0224 10.0545
1196 6 10.3423 -20.269 19.9362
1431 7 16.6494 -17.7803 7.89223
2086 7 10.4182 -16.5234 19.1679
464 6 16.6911 -20.9028 17.2725
1210 6 12.2902 -16.5286 11.3905
1053 7 16.6347 -16.4902 12.7065
1421 7 12.1023 -23.9567 6.60794
1166 15 14.8051 -16.1042 -0.0159542
71 13 10.3697 -12.8845 -7.42425
1292 1 11.6341 -11.4276 4.39757
1291 2 12.0572 -12.8597 4.78621
1161 3 13.2043 -16.1235 2.21278
1441 7 12.3046 -13.4334 3.91117
2606 2 13.6529 -14.4805 -5.48733
1183 16 16.3222 -13.8161 -3.11114
259 7 11.5525 -11.7854 -5.12542
1347 7 12.486 -15.8755 3.02931
87 6 15.3406 -11.2008 -1.32073
261 8 11.737 -12.9704 0.611486
86 6 15.6468 -11.5886 1.02501
1346 7 13.8752 -15.3082 2.07309
1288 1 9.62362 -13.559 4.82011
91 16 9.74328 -13.7838 -1.49917
88 6 16.0714 -11.0146 -0.210628
1168 6 16.6402 -15.2438 -1.26169
64 6 8.17247 -14.2744 -5.46058
69 3 8.97525 -16.3505 -6.40927
2791 7 12.5551 -14.4312 -5.57468
1442 7 13.0665 -12.6739 5.32885
3776 21 8.04586 -9.76791 -2.2552
2607 4 14.3905 -13.3036 -6.2456
229 7 10.5502 -9.67633 -7.97163
268 9 9.94224 -13.8523 -0.505423
2113 7 8.80624 -14.9209 2.01244
266 7 15.9359 -11.4711 -3.29949
81 6 12.8903 -11.769 -3.46764
1445 7 10.0893 -10.2797 3.61915
75 2 9.34272 -12.8382 -4.18147
2112 7 8.77709 -12.4835 1.14213
258 7 9.17296 -11.9933 -4.80751
256 9 12.4477 -13.9443 -7.76296
1293 2 10.2692 -11.3256 3.79389
2822 7 8.07098 -9.25188 0.529422
85 6 14.5461 -12.3644 1.14676
2615 6 14.1604 -9.57259 -8.24074
2790 7 13.9329 -14.5335 -4.46909
1448 9 13.4673 -11.0131 4.25751
1167 2 15.161 -15.5661 -1.30404
74 15 9.44744 -14.071 -4.90549
1439 7 8.57959 -16.2291 4.64152
2608 3 15.7165 -16.1066 -8.29864
3804 21 11.363 -10.0009 1.00932
257 7 8.57696 -12.9121 -3.42133
1295 16 12.6901 -10.7716 3.72189
2800 7 13.9093 -10.6831 -8.07415
1954 4 7.91122 -14.5088 1.56987
80 6 11.6643 -11.9453 -4.01826
70 5 10.8048 -13.1858 -8.4484
76 6 10.598 -12.5365 -3.37279
89 16 16.4666 -11.3692 2.07757
260 7 13.6676 -11.3073 -4.06408
2603 4 15.2223 -13.7919 -7.29052
82 11 12.4682 -13.0789 -0.0931411
1444 7 10.2301 -11.7727 2.75225
77 6 12.048 -12.8402 -1.42235
2792 7 14.3061 -12.2273 -5.94851
262 7 14.3079 -12.9414 2.04863
79 6 13.1092 -12.1628 -2.11867
1349 7 14.3754 -14.7305 -1.60135
84 6 14.1806 -12.0048 -1.20039
1953 4 7.94838 -13.1449 1.05571
264 9 16.1731 -11.8944 2.83759
265 7 15.2015 -9.80541 -2.94956
65 6 7.88399 -15.3876 -6.30049
2621 15 12.9894 -9.02197 -6.23902
255 7 9.73911 -15.9078 -7.04175
1436 7 9.95631 -14.1308 3.91594
1350 7 15.0428 -16.3075 -2.10935
1294 2 9.29057 -12.0623 4.66483
83 6 13.7723 -12.5306 0.02825
2604 4 14.1673 -15.562 -6.3399
90 3 15.8961 -10.5928 -2.61827
78 6 10.8468 -13.0677 -2.07514
2605 4 15.0764 -15.1931 -7.344
1443 7 11.5556 -10.8531 5.28495
2602 15 15.9761 -13.0006 -8.13565
1287 1 10.972 -13.468 5.62999
2468 7 9.43064 -16.3567 -2.21209
1446 7 8.37982 -11.8331 4.24802
3778 22 8.20034 -9.28985 -3.30065
2794 7 16.3547 -15.5636 -9.01023
228 7 9.03228 -9.30464 -8.80768
72 16 12.0794 -13.6439 -8.63645
1085 9 16.4758 -13.7914 3.40187
2817 7 11.2934 -9.11748 -4.30377
1290 2 8.87471 -15.7336 5.55982
1289 2 8.52291 -14.2667 5.52027
48 20 8.64625 -14.6739 -9.05074
1375 7 13.8479 -14.4827 10.1946
236 7 13.8594 -9.77402 16.8834
2081 8 12.0453 -12.6391 14.0764
40 6 10.322 -11.4081 19.2174
1208 6 12.0471 -16.3869 12.765
2668 6 9.13839 -9.40314 7.67632
1909 16 14.6844 -14.3877 18.4573
1904 6 11.1079 -14.6526 16.3891
2080 7 8.30906 -15.4946 16.4498
1910 3 10.2077 -16.3087 18.0886
1903 6 12.0977 -13.7444 15.9658
896 6 15.273 -12.7208 13.5269
1368 9 16.5572 -16.0332 16.9796
1906 6 13.4892 -14.4396 17.7731
1052 7 14.981 -14.4882 12.4475
41 6 8.25814 -11.5568 17.831
1435 7 10.8084 -12.9161 6.60099
1218 6 12.2115 -13.4074 9.35522
1063 7 15.4304 -13.2229 9.15579
1216 6 10.8246 -13.337 9.10556
2674 6 12.0349 -10.2417 10.7356
1284 6 10.342 -15.9519 5.95691
237 7 9.73871 -10.0591 17.6074
2829 7 13.0108 -9.24325 7.151
1373 7 9.91633 -16.0654 11.0094
26 6 12.1775 -9.07238 17.9544
2610 2 15.5151 -10.4295 19.4652
2671 6 12.7317 -9.44979 8.20648
1896 6 8.16013 -13.3666 13.6906
1213 6 11.8972 -15.4732 10.5377
1376 7 12.8414 -12.6237 8.90845
1214 6 9.99151 -14.2842 9.75126
2798 7 14.8696 -11.2942 19.5645
234 7 12.4166 -10.4317 16.287
893 6 15.7537 -10.5946 14.5212
45 6 8.83311 -13.1773 19.515
2830 7 14.0972 -10.6776 11.1034
1219 16 8.66284 -14.1637 9.42226
1899 6 9.88171 -14.3149 15.5905
891 6 16.0807 -11.9063 14.2595
1285 6 12.6071 -15.3833 6.37184
2085 7 9.33968 -15.6984 17.9038
3197 9 11.472 -9.10445 14.3606
2799 7 15.5408 -10.1499 18.4442
2833 9 15.5352 -9.72796 9.34874
43 6 7.9437 -12.7374 18.6587
1217 6 12.7552 -14.405 10.1017
1908 6 12.4397 -15.2209 18.2428
2670 6 13.6924 -9.85317 9.08614
1901 6 8.57624 -14.7938 15.5683
2831 7 10.0409 -9.58798 10.3293
42 6 9.46123 -10.9484 18.2124
2083 7 12.6384 -15.8845 19.0757
2673 6 11.0373 -9.72876 9.91513
2088 9 10.4322 -11.2355 13.3344
1377 9 8.56653 -13.764 8.586
39 3 12.9537 -10.1979 17.2036
235 7 13.1342 -11.102 17.8714
1432 7 15.0335 -16.2133 7.19157
1897 6 10.1967 -13.1841 14.7901
2832 7 11.7237 -10.5029 11.7809
2082 7 13.9405 -12.8231 16.245
1051 7 14.3623 -12.4206 13.0636
2669 6 11.3335 -9.21314 8.62447
1440 7 8.23484 -16.1105 6.38803
1369 7 11.0947 -15.8191 12.962
3039 16 10.6691 -9.11952 14.9745
897 6 15.7747 -13.9315 13.0053
2084 9 14.5439 -14.8048 19.324
1049 7 14.7985 -10.2237 14.1494
2675 16 14.9783 -9.83345 8.62812
1374 7 10.3472 -12.554 8.57441
1215 6 10.5069 -15.3118 10.4856
2672 6 13.3294 -10.3829 10.2975
1438 7 8.39652 -13.8684 6.63117
44 6 10.0387 -12.6811 19.913
1911 16 9.77816 -11.7922 12.8204
1065 7 15.6469 -12.4645 6.91373
35 15 11.4911 -10.697 19.5115
1905 6 13.2462 -13.6162 16.5904
1907 6 11.2751 -15.4533 17.5159
1898 6 9.43462 -12.7471 13.7684
1902 11 11.5752 -12.8321 14.957
2074 7 8.52095 -9.21776 12.9593
27 6 11.4238 -9.4205 19.0471
2611 6 14.9602 -9.1929 20.2539
1434 7 13.406 -14.7037 6.44209
2828 7 8.91959 -10.2441 8.41608
1058 7 16.4897 -16.1266 10.1576
1370 7 12.8173 -16.4524 14.7849
1286 6 11.2922 -14.9445 5.96894
1061 7 16.5294 -13.8188 10.5436
911 3 16.5298 -13.3643 9.54608
2667 6 8.16841 -9.16088 6.75545
1447 7 9.287 -11.5694 5.66826
150 6 11.6538 -1.78135 -4.66671
2641 6 12.4701 -8.08704 -2.6728
2806 7 13.3352 -5.07604 -7.47736
2846 7 13.8261 -6.37149 -0.670414
2760 2 16.3008 -4.40681 4.23953
143 2 8.29175 -5.97328 -7.44597
2622 15 14.7851 -5.58373 -8.88914
2754 6 15.6232 -6.67049 4.81992
2684 1 16.1667 -6.39515 -1.7101
2656 6 8.60785 -6.2375 1.9653
2616 6 13.6256 -8.59143 -7.38964
2678 4 12.9595 -2.21227 0.770692
2835 7 11.6555 -1.82442 -0.812973
2759 4 15.0198 -4.796 3.62565
2653 6 10.949 -3.79772 0.141108
2626 6 14.7481 -2.48611 -8.55404
158 6 14.3087 -2.22889 -3.32027
2677 2 11.5402 -2.35145 0.188055
2885 7 13.3827 -2.65375 5.31185
2650 6 9.79211 -6.17672 0.137245
2912 7 13.4554 -6.29343 4.14835
32 6 9.8699 -7.76733 -7.51862
315 7 13.8191 -3.20086 -3.49551
2847 7 13.4917 -8.01702 -0.272215
31 1 9.70145 -6.36769 -7.90907
2686 2 14.1039 -7.41418 -0.959853
2906 7 15.0274 -8.64173 5.2505
2910 7 16.1196 -3.48994 4.87625
2623 2 14.433 -4.94771 -7.64783
146 6 10.474 -1.61316 -5.42866
2852 7 15.6244 -8.48686 1.16174
2657 6 8.09035 -8.59367 1.37126
2654 17 9.17384 -7.37246 0.00147897
2651 6 10.1227 -4.16245 1.17273
2752 16 11.1678 -1.90405 4.24248
310 7 9.0882 -2.23089 -3.9503
34 14 10.0872 -8.17193 -6.17957
2655 6 8.56219 -7.36277 1.27426
2642 6 12.239 -8.64243 -3.98404
2645 6 14.6355 -7.39484 -3.41841
311 7 8.37053 -1.7512 -5.36342
2683 2 15.9592 -6.79587 -3.19987
2818 7 15.2159 -7.77118 -5.43651
2845 7 15.9757 -8.42506 -1.25789
2905 9 10.3374 -2.07877 3.9236
2821 7 10.0049 -3.45823 1.99303
2614 12 13.9178 -7.28532 -7.60524
33 2 10.0142 -8.90112 -8.52294
300 7 8.88121 -6.24189 -5.34437
2659 6 8.05862 -6.34869 3.27058
2643 6 13.7151 -7.60873 -2.41105
2755 6 16.6284 -5.63286 4.99406
313 7 11.5334 -2.66343 -3.98449
308 7 9.97658 -4.33094 -5.17242
2681 4 15.2037 -2.56159 1.19165
2836 7 10.7717 -1.77036 0.747858
227 7 10.3908 -5.65247 -7.3284
2820 7 9.7593 -7.17751 -2.58957
2644 6 14.3999 -7.75475 -4.71969
2652 6 11.0724 -4.65507 -0.965239
3001 16 8.4382 -1.53758 -1.17031
2841 7 13.8232 -4.16506 0.405223
302 7 8.30016 -4.40303 -3.54856
2649 6 9.4795 -5.44595 1.19417
2646 15 11.3935 -8.08722 -1.81582
145 2 9.2541 -2.31647 -5.05609
700 7 8.18333 -3.53062 4.71321
2647 2 10.6761 -6.92074 -2.09905
2756 6 15.7406 -7.89848 5.45311
2819 7 11.2813 -6.37777 -2.82341
2826 7 9.95146 -6.78332 4.98475
159 6 15.2602 -2.21209 -2.35975
2840 7 16.0901 -3.16445 1.33669
2843 7 16.1182 -5.93347 -3.86904
2685 1 15.62 -7.49393 -0.810441
2690 2 15.9683 -7.528 0.68574
2648 6 10.4936 -5.94128 -0.94887
2909 7 14.2627 -4.13447 3.16072
2612 6 14.6742 -6.92157 -8.64329
2676 16 11.7637 -4.17565 -2.05937
2682 4 13.9836 -3.16322 0.841044
3176 9 8.86346 -1.78502 -1.98784
2640 6 13.2034 -8.4386 -4.99813
2805 7 14.8951 -5.49343 -6.84402
2761 4 14.5787 -6.04724 4.04881
144 2 9.24284 -3.74988 -5.70852
309 7 9.57916 -3.54837 -6.73736
2834 9 12.2263 -3.36993 -1.89543
2853 7 15.422 -6.71866 1.17149
2624 6 15.0606 -3.51909 -7.6017
2628 6 16.0129 -3.28578 -6.64977
2844 7 15.599 -5.40808 -1.55861
316 7 15.4592 -3.10424 -1.80979
2807 7 16.2785 -4.20487 -6.04126
2629 6 16.6657 -2.12379 -6.54297
307 7 8.035 -4.94713 -7.76178
2842 7 16.7537 -7.59014 -3.50302
294 7 7.83178 -8.83446 -6.00142
139 1 8.03233 -5.92999 -5.92684
2823 7 8.10763 -5.5803 4.02507
702 7 9.44178 -4.15088 5.62157
3481 6 16.2455 -6.39648 10.9069
548 3 8.54403 -3.58418 5.72912
10 6 13.4561 -2.88423 14.8563
233 9 13.187 -7.82982 14.5229
29 6 10.7172 -8.44776 19.7817
3035 6 9.15416 -7.21331 15.3162
550 6 9.60989 -3.49048 8.51485
706 7 14.649 -2.75888 11.8668
557 6 14.3414 -1.67463 11.6805
361 7 11.6219 -1.58086 17.282
703 7 10.6831 -4.42838 10.0733
704 7 12.4423 -3.5915 11.1214
2663 6 8.39718 -8.20423 5.78019
12 6 15.0497 -4.26446 15.9674
3488 2 13.6771 -6.95098 11.1471
551 6 10.4213 -3.51829 9.57619
38 16 13.2597 -8.19165 15.3756
28 6 10.705 -7.19061 19.3401
3489 4 13.204 -5.36215 9.33447
30 2 9.78123 -6.27123 20.1132
3640 7 12.7183 -4.93189 8.46056
554 6 12.3245 -2.55706 10.7179
224 7 10.9605 -4.60653 18.3339
3637 7 11.5971 -6.65229 10.222
549 6 11.166 -2.39171 9.94059
553 6 13.1495 -1.50701 10.9929
225 7 8.74976 -6.46836 19.7327
2801 7 15.5815 -6.5726 18.4446
14 6 15.6346 -3.1832 16.6266
2664 6 10.7051 -8.02587 6.498
3593 7 16.5261 -6.12705 14.1981
25 6 11.4491 -5.39848 17.8404
2803 7 16.4424 -8.08111 18.096
3194 7 11.5757 -7.62399 12.9384
223 7 12.0587 -3.99808 16.558
217 7 15.4358 -5.21639 16.189
7 6 11.8064 -1.38017 13.9135
2883 7 15.2316 -1.6783 7.33497
3193 7 8.77557 -7.61199 16.2846
2613 6 15.2468 -7.85417 20.0175
23 6 11.4555 -6.75966 18.2532
540 6 9.50406 -2.29632 7.72102
3033 6 8.47393 -6.09696 14.8419
2732 3 13.0664 -2.05506 6.15774
3196 7 10.3552 -5.70129 11.9804
216 7 11.5944 -3.48414 13.9562
2886 7 11.99 -2.3677 6.44415
22 6 12.7891 -7.29313 16.321
721 9 9.14338 -5.39447 8.60019
3436 18 16.6015 -7.65775 12.0154
3037 6 8.9064 -5.65566 13.4912
19 2 13.5116 -5.48847 14.7257
221 7 14.331 -6.16639 14.3695
3482 6 14.5715 -5.23073 9.70998
8 6 12.2631 -2.68243 14.221
3487 4 12.6344 -6.2311 10.2981
13 6 15.2265 -1.88042 16.1815
21 6 12.1912 -7.7395 17.5296
3639 7 13.6459 -6.91158 12.2648
3038 6 10.0444 -6.1413 12.9261
3483 6 14.9027 -6.18184 10.6502
222 7 12.832 -5.40791 13.837
3034 6 10.1062 -7.86816 14.5823
9 6 14.1001 -1.74687 15.3594
2816 9 13.2525 -3.48094 20.2814
3638 7 13.8623 -7.99144 10.847
2825 7 11.7058 -7.63419 6.52466
11 6 13.9693 -4.15385 15.1367
2639 16 13.8306 -2.79637 20.0108
3036 6 10.6492 -7.30778 13.3991
24 6 12.1325 -5.07386 16.7421
2617 3 16.1718 -7.33616 18.9583
20 6 12.7596 -5.95179 15.9073
3195 7 8.46349 -4.73686 13.0802
568 16 8.75535 -4.55334 8.2581
219 10 10.1646 -2.5897 12.3782
226 7 10.0949 -5.2649 19.8808
542 6 8.80058 -2.30266 6.52152
2884 7 13.6685 -2.52722 6.98735
1048 7 16.4233 -8.68262 15.0807
3484 6 15.6072 -4.45505 9.06015
3189 7 8.22269 -5.64857 17.556
2666 6 10.4158 -8.78824 7.62611
3634 7 15.2395 -3.75202 8.26005
36 11 16.6809 -3.47203 17.5011
714 7 16.8026 -2.95554 11.6629
17 19 10.3144 -1.44029 13.0715
2665 6 9.69683 -7.65979 5.64264
337 7 11.2591 1.15702 -0.478078
152 6 13.7193 1.14933 -5.62428
174 6 11.6903 4.65007 -3.17796
336 7 12.1542 0.601647 -1.83078
2739 6 11.1419 5.72981 2.67062
175 6 12.4288 5.50811 -2.37524
327 7 15.4281 4.40654 0.251703
204 16 10.1152 1.30169 -2.89684
205 6 10.1322 1.08236 -8.64432
154 6 13.9166 -1.08179 -3.99694
2888 7 9.62103 1.53121 1.4829
602 9 12.5915 4.33636 -8.40621
153 6 14.5801 1.09154 -4.64438
357 9 9.31494 0.907789 -3.24498
340 7 8.49115 4.34247 -6.38425
2679 2 14.9714 -1.11682 1.65955
2733 6 10.846 1.51518 3.09827
2898 7 8.93792 4.97062 -1.87712
149 6 12.7209 0.182826 -5.67206
2734 6 11.3822 -0.574544 4.22581
173 6 12.9504 4.97795 -1.1632
185 6 10.052 4.3109 -4.80798
170 2 15.8944 5.01139 -1.88757
334 7 13.4875 3.88477 1.28239
312 7 9.58599 -0.607621 -7.03722
181 6 11.1895 5.05973 -4.37566
2874 7 15.4152 2.84271 3.97098
160 18 11.5182 1.4998 -7.7808
2741 6 9.76335 4.35355 0.802591
2631 6 16.1384 0.867374 -8.75666
2742 6 9.93718 5.70302 0.637357
2837 7 15.1416 -1.1553 2.77591
184 3 12.1116 1.38715 -1.09592
162 6 16.4552 1.21896 -2.31123
147 6 11.5765 0.257151 -6.59862
209 6 8.868 1.64013 -8.31666
339 7 8.77373 2.59456 -4.76206
2722 6 12.4762 1.45967 4.84806
318 7 13.7282 1.96171 -7.58958
2747 2 8.47957 5.81626 -1.34002
2839 7 12.9732 -0.0440987 1.31685
2718 2 16.3231 2.37291 4.40869
693 7 8.25987 1.21922 4.75679
314 7 15.3269 1.90137 -4.59505
2887 7 10.0259 -0.294378 2.49902
2735 6 10.7065 0.131608 3.24347
157 6 16.0085 -1.10662 -2.09691
186 6 10.3973 2.56476 -3.28475
2728 6 12.5254 4.28 4.9006
155 6 14.7282 0.0120899 -3.75072
161 3 13.8348 2.30282 -6.55713
405 6 14.0761 5.43325 -8.93387
2627 6 16.2706 -1.00342 -7.43503
319 7 13.1933 3.20026 -6.43648
359 7 8.75724 2.1549 -7.35894
189 6 9.95736 5.92924 -6.64866
151 6 12.7736 -0.921393 -4.79273
2736 6 11.0821 4.35306 2.85412
325 7 15.2 5.1404 -2.6939
335 7 12.6442 2.47204 1.00554
322 7 14.8731 2.63439 -2.65748
2724 6 12.3091 0.0926984 5.10579
166 6 15.9466 2.51457 -2.31726
156 6 15.7108 0.108013 -2.70909
2838 7 15.7221 -0.288735 1.26462
333 7 14.2409 2.55209 0.474825
171 2 15.3246 5.32783 -0.466083
176 6 11.4228 3.31533 -2.72865
317 7 14.8865 2.69421 -6.64217
2738 6 10.1021 2.23124 2.12285
187 6 9.61201 3.15081 -4.26823
2880 7 12.7141 5.38657 4.94753
2729 6 11.7477 2.21175 3.94685
2737 6 10.2811 3.63741 1.91138
2890 7 9.15751 3.82734 0.00682628
338 7 13.0172 1.18785 -0.572481
178 6 12.1144 2.79455 -1.58179
148 6 10.5136 -0.628687 -6.38792
190 6 9.42315 4.81628 -5.97704
183 3 13.3249 3.15297 0.538985
177 6 12.7848 3.67606 -0.800227
2730 6 11.8044 3.62816 3.86086
2680 4 13.5047 -0.979871 1.20769
2873 7 16.1339 1.28094 4.52008
172 2 13.9262 5.83472 -0.286213
342 7 8.56147 5.79134 -8.34627
410 16 13.2137 4.9886 -8.01325
329 7 13.6609 5.80532 0.797563
328 7 16.0247 5.95297 0.0280326
167 6 16.4915 3.66589 -1.79805
2625 6 15.3156 -1.22756 -8.47029
604 7 14.4489 5.81841 -5.93331
682 7 8.71869 6.05388 4.71075
2723 6 13.4316 2.1427 5.65584
562 2 15.5337 1.87651 12.2618
3 6 11.6546 1.00909 14.6121
558 6 15.1607 -0.640427 11.9584
2430 7 11.3038 4.23094 7.5198
2630 11 15.1371 -0.0712009 20.2938
707 7 16.589 -1.39991 13.7197
2727 6 13.3507 3.52299 5.78346
537 6 8.66797 0.0739329 6.60681
712 7 14.8111 2.54951 12.6872
2240 4 12.5773 4.68914 10.5848
2235 6 8.36531 3.08739 10.9127
362 7 12.222 0.515044 18.7113
2725 6 14.3595 0.0733285 6.33774
3202 7 10.7415 3.05713 19.3876
2881 7 16.4265 -0.494369 6.60987
2241 4 11.4866 4.57262 9.70475
404 6 14.9644 5.42405 18.379
2719 2 16.5409 2.79327 5.86758
696 7 11.8829 2.07652 9.10599
207 6 10.2688 0.303238 19.8416
2244 3 11.581 4.9904 8.27317
2 6 12.2797 -0.305813 14.6217
364 7 8.89087 -1.29125 17.1682
2877 7 16.2555 1.54827 7.51307
2429 7 10.8884 5.82581 8.23707
3045 4 10.881 4.83623 17.9805
2427 7 12.8833 3.15774 12.0403
2879 7 14.0504 4.06532 6.45465
215 7 13.921 2.80495 16.2693
559 1 16.5078 -0.992976 12.6657
552 6 12.8103 -0.197146 10.5302
711 7 15.853 2.46079 11.3795
543 6 10.2639 1.22594 8.14219
2238 15 9.1911 3.74676 9.98788
705 7 13.4153 1.73947 10.4356
213 4 9.58352 -0.811057 17.8757
3042 4 9.27859 3.79302 16.6414
3044 4 9.94602 2.85593 17.377
2810 7 15.9978 2.46507 19.2792
406 6 14.0413 4.96822 19.3422
2633 6 16.4039 2.12278 20.2991
601 7 13.2531 4.23136 19.131
2731 3 15.4479 -0.628008 7.07169
211 4 10.9728 -0.93633 17.9252
6 6 14.1149 0.626128 15.9627
556 6 14.7872 0.684273 11.7261
539 6 9.6158 0.09963 7.64961
695 7 10.0756 2.24326 7.72382
5 6 13.5444 1.897 15.7874
18 16 10.491 1.22654 13.9138
16 6 15.3684 0.470257 16.6655
2425 7 13.4876 5.08051 10.2067
2243 4 10.8997 3.85161 11.7784
3043 2 10.9813 3.36794 18.3315
592 7 12.6856 5.55381 16.0907
694 7 8.83934 2.20495 6.0518
399 15 14.8949 4.75575 17.1671
536 2 8.17591 1.33434 5.86108
538 6 9.96324 -1.10814 8.29334
2426 7 12.694 4.83306 12.7712
4 6 13.5426 -0.477523 15.3317
3203 7 9.6862 1.7274 17.3355
2233 6 8.63032 1.74679 11.2444
389 6 15.9317 5.87287 11.959
2720 2 15.646 2.15637 6.90512
214 7 11.7936 3.05175 15.1028
541 6 8.29603 -1.12474 6.07399
2431 7 12.5666 5.23567 8.08995
391 6 15.3483 5.27813 16.0066
3046 4 9.90017 5.01264 16.9834
2423 7 9.56008 1.29007 10.9159
212 2 11.5074 -0.24664 19.127
546 6 11.6885 -0.0588238 9.64992
544 6 11.3653 1.12414 8.97587
2242 2 12.3592 4.12897 11.9474
2721 6 14.4556 1.44417 6.32174
1 6 12.3366 2.10446 15.1297
555 6 13.7673 0.821974 10.8075
3199 7 8.43978 2.86371 14.8993
545 6 10.9412 -1.18871 9.29409
220 9 10.1601 2.05495 14.0819
710 7 16.253 1.28689 14.2204
2428 7 10.2143 3.70255 12.5409
561 2 16.615 1.43015 13.1985
15 6 15.8925 -0.764548 16.7908
206 6 9.18361 -0.0513552 19.0235
218 7 15.8067 1.28971 17.178
2878 7 15.364 2.96272 7.62567
3201 7 11.9966 2.97824 18.0546
2239 4 10.4123 4.04356 10.4807
2809 8 15.1304 -0.365089 19.3363
2726 6 13.2117 -0.566174 5.94698
363 7 12.0696 -0.925096 19.8052
3041 2 8.10513 3.5458 15.7269
387 6 15.8929 5.91833 13.3577
2434 7 8.18807 5.76473 12.4929
3204 7 11.4737 5.69797 18.3126
393 6 14.487 6.14844 15.3073
2882 7 15.5995 -0.31122 8.11652
390 6 16.4852 4.79242 15.4303
2424 7 8.20894 -0.0832828 12.2548
3205 7 9.58202 5.9066 16.449
2876 7 16.3779 3.89231 5.98314
1937 6 9.64833 13.2172 4.01396
2103 7 10.6153 12.1057 0.389849
2903 7 8.76778 9.13547 -1.45899
1252 18 14.9288 10.7888 -3.32002
2743 1 9.35503 6.57747 -0.375103
1941 6 8.45336 12.3879 0.531632
2746 2 10.7463 7.86455 1.46017
2891 7 10.1511 7.05721 -0.93389
2894 7 9.21595 9.55217 1.12502
2097 7 10.4949 12.0401 2.5896
1453 7 10.2345 10.6393 -6.23534
524 18 11.7492 8.44744 5.42951
1454 7 12.9908 10.5974 -5.98678
180 6 12.5395 7.05414 -4.2136
347 7 11.5656 10.1607 -8.46209
1299 6 12.8096 12.072 -4.4963
2744 1 8.53372 7.70509 0.27522
1253 3 14.6698 10.0013 -0.455547
1245 6 16.337 11.1076 0.920745
1239 6 16.5295 11.2898 -2.74812
193 6 9.39781 6.39378 -7.888
194 6 9.94727 7.43123 -8.63079
1418 7 13.3655 12.3464 3.4108
726 7 13.7297 7.14851 3.11728
603 7 15.8507 6.91684 -4.00738
2893 7 8.8829 8.37692 2.29575
2896 7 11.4202 8.17438 0.606317
1297 6 13.9917 12.2319 -3.74176
1410 7 14.2458 9.67607 0.598237
1305 4 10.74 12.6592 -5.37342
577 4 16.3534 6.88263 4.79778
2102 7 8.53566 11.8963 -3.39632
1263 2 13.6317 13.6652 5.15864
571 6 14.1998 7.54491 5.27227
2748 1 7.8936 6.60894 -2.47067
1777 7 8.35742 10.2473 4.86252
1304 2 12.3095 10.827 -5.15242
2895 7 11.2376 8.27089 2.38681
681 7 10.2828 6.23709 5.39104
2745 2 9.37243 8.48328 1.31473
2750 2 8.00735 8.60356 -0.810304
332 7 12.8665 8.08886 -4.6051
192 6 11.0842 8.05706 -8.1331
348 7 12.8272 8.94972 -8.90663
198 2 11.7675 9.15564 -8.90573
2899 7 8.75563 6.92476 -3.05643
414 6 15.3456 6.47099 -6.04909
1298 6 11.8341 13.0743 -4.56563
576 2 14.4233 7.69924 3.79082
1945 6 9.65094 12.1718 -0.111675
341 7 12.3375 8.20583 -6.50639
1259 6 14.8855 11.6571 4.69151
1258 6 15.8762 11.9857 3.782
1936 6 9.57271 12.6624 2.76005
575 4 15.7768 7.16805 3.6007
683 7 9.61238 7.52632 4.37123
1946 6 9.71685 12.1351 -1.48574
2740 6 10.6453 6.39034 1.56704
3738 22 8.02973 8.47333 -5.99186
1406 7 15.6382 10.6998 1.64041
1262 2 13.5186 12.286 4.50584
1414 7 15.6301 12.6093 2.93571
191 6 11.5865 7.67946 -6.92842
1244 6 15.9193 10.8151 -0.335412
727 7 14.2715 8.80137 3.59396
1944 6 8.50228 12.0673 -2.27078
411 6 15.7083 6.73962 -7.39123
188 6 11.0464 6.6778 -6.09123
1456 7 9.82167 13.1036 -5.79909
1411 7 13.8544 10.5187 -1.01781
1409 7 14.8431 9.08718 -1.05206
1455 7 12.2949 9.9354 -4.51652
1303 4 10.9771 11.3049 -5.74214
331 7 13.656 7.33851 -2.36846
413 6 16.1144 7.03521 -5.04697
2889 7 11.6942 6.26154 3.38376
2104 7 10.6546 11.942 -2.00943
330 7 13.8766 6.90947 -0.577845
1938 6 8.49572 12.7849 1.88594
182 6 11.6268 6.30065 -4.89694
616 7 16.3092 10.9434 -7.21047
525 3 9.38712 6.81785 5.12776
179 6 12.9562 6.72364 -2.9135
1417 7 12.7119 11.7318 4.93624
1301 6 14.3115 13.4895 -3.23766
2098 7 10.656 13.1632 4.49058
407 6 15.2427 6.27694 -8.63205
725 7 16.3126 6.95999 2.67535
1330 9 15.6561 13.5756 0.667125
349 7 7.67267 8.80137 -8.71734
2264 6 8.61423 13.0753 12.3191
589 7 13.2399 7.02879 12.6257
504 1 12.4136 11.3833 12.0493
500 1 13.1309 11.7338 14.4771
593 7 13.361 6.93132 16.9624
516 6 8.85107 7.51307 6.33111
675 7 10.7701 12.1169 10.2001
408 6 16.0482 6.3201 18.659
512 6 11.4724 9.9637 7.60033
677 7 9.18578 10.1916 10.0993
2443 7 9.25567 12.1893 12.5691
392 6 14.8003 6.53264 14.0312
355 7 9.24407 8.45951 17.2181
514 6 9.62736 9.83077 9.13581
664 7 14.1914 10.5886 13.03
509 2 11.4863 11.4208 9.68361
1416 7 14.4768 10.718 6.51416
574 6 14.6105 7.22206 8.05155
570 6 15.3906 7.10436 5.81137
344 7 9.76803 9.89255 19.9285
1384 7 10.1463 12.1992 18.702
354 7 9.70768 10.1921 17.096
507 2 12.3932 9.37425 13.7118
510 6 10.8721 10.4218 8.75293
590 7 14.66 8.11645 12.552
503 1 13.0751 10.7472 13.2857
569 6 13.1697 7.82242 6.13269
345 7 11.9637 9.92022 18.6801
1427 7 15.4927 12.6947 7.39151
397 2 13.1998 6.49545 15.9899
396 6 12.501 7.48116 15.0572
671 7 11.9106 8.87493 12.8667
674 7 12.0446 12.1386 9.15285
622 7 16.4256 10.856 17.0287
672 7 13.2382 10.3775 10.3238
343 7 9.45527 7.0856 18.7841
197 2 11.3704 9.10302 19.1685
1422 7 13.4602 12.729 7.08622
460 6 14.0578 11.6529 18.0899
395 1 13.3381 8.41615 14.2838
432 6 16.1418 11.362 20.244
661 7 15.0192 12.7325 13.9115
2438 7 9.07763 8.82099 14.0101
195 1 9.32878 7.83234 19.6378
659 7 13.2291 10.3291 16.258
196 1 9.87372 9.15159 19.1262
437 15 14.9108 11.9085 20.3357
676 7 12.4879 10.4134 7.49655
513 6 9.56416 8.41288 7.13981
2439 7 9.19682 7.45554 12.8102
398 14 11.2361 7.38663 14.804
2437 7 9.17283 9.1964 12.2229
456 6 14.5494 12.4579 19.1298
660 7 12.0966 11.9993 14.5884
461 6 13.9092 12.1692 16.8455
2253 3 8.7491 8.48223 13.0022
572 6 15.6157 6.81476 7.20106
1382 7 8.57563 12.3944 16.3657
665 7 11.4945 11.7817 12.2867
1275 3 15.6386 13.2824 8.32252
515 6 8.94824 8.87311 8.34582
511 6 10.837 8.97501 6.79695
573 6 13.3992 7.68678 7.53774
591 7 14.0533 8.90424 14.9573
673 7 11.6665 9.73508 11.006
1381 7 10.1327 13.1154 16.1017
723 7 12.5721 7.8219 8.18447
658 7 14.7791 10.9587 15.5864
505 2 13.2618 12.6676 11.6618
508 2 12.2233 10.6376 10.7098
666 7 14.208 12.34 11.2348
670 7 11.4995 9.62821 14.3381
346 7 11.7712 8.13766 18.8095
394 2 14.0049 7.53329 13.2298
202 2 9.21542 9.44037 17.7497
1225 4 9.63954 13.0308 18.2188
1260 6 16.4859 10.2734 5.83447
588 7 15.2218 6.29201 11.2994
634 7 14.0278 10.5591 18.1139
499 2 13.7257 11.1806 15.7657
629 7 16.4927 8.54017 11.0822
409 6 16.0445 6.60305 19.9616
459 6 13.9954 13.5014 16.5933
501 1 13.9042 13.0384 14.1035
1776 7 8.18854 11.0908 7.23752
1426 7 15.2312 12.6372 9.08278
1223 2 9.27443 13.1289 16.7706
667 7 12.7109 13.239 10.7548
1264 2 13.2017 13.736 6.64445
722 7 16.591 6.60352 7.56269
506 2 13.3591 13.6119 12.7708
724 7 14.714 7.00899 9.09608
1261 6 15.2778 10.9037 5.77672
ITEM: TIMESTEP
250000
ITEM: NUMBER OF ATOMS
3741
ITEM: BOX BOUNDS pp pp pp
-1.8694218934562841e+01 1.6875199155637404e+01
-2.3778857438600653e+01 1.3551449196513246e+01
-9.1516830527420723e+00 2.0524341878785872e+01
ITEM: ATOMS id type x y z
919 6 -16.9052 -21.4443 2.53475
926 2 -15.0725 -23.1175 2.20637
1698 7 -13.6891 -18.3264 -8.3379
3369 6 -13.5443 -19.6727 3.98364
3374 15 -13.6998 -20.8815 4.62935
744 6 -17.452 -16.3368 -1.60376
942 7 -13.6444 -18.5267 -0.645222
1708 7 -10.1772 -22.5128 -3.58263
1357 7 -17.2721 -20.2289 -3.62864
1318 7 -18.2412 -22.8847 -5.81772
1071 7 -15.8577 -23.4901 -1.18603
1359 7 -15.8112 -19.2916 -3.41853
927 2 -14.7272 -21.7565 -1.77796
3548 7 -11.6192 -21.2798 4.41414
1177 6 -17.694 -16.5755 -6.89429
1070 7 -17.3004 -20.899 -1.26162
3572 7 -17.1885 -17.4557 4.4113
1809 7 -13.7618 -21.9628 -7.68917
3375 2 -12.5506 -21.793 4.77176
1179 6 -17.2724 -18.3321 -4.67305
1515 4 -11.8503 -19.3711 -8.01512
1516 3 -9.7988 -16.6592 -6.39362
1077 7 -14.0158 -20.9448 -1.46576
1659 16 -15.1173 -23.5227 -5.94966
924 1 -14.23 -23.3449 -0.0198534
1358 7 -17.4121 -18.7869 -2.58061
3349 15 -12.0069 -18.2199 1.14338
3342 12 -10.3579 -17.5523 2.61882
731 6 -13.4421 -17.0445 -2.13353
1176 6 -18.5752 -18.0809 -5.12602
3368 6 -12.8335 -18.3964 2.19402
3545 7 -12.1986 -20.4173 2.63979
1513 4 -10.8153 -17.6726 -6.86564
3547 7 -12.6457 -22.6279 4.03672
928 1 -13.965 -22.659 -2.79486
1069 7 -16.6308 -21.6068 3.5783
1700 7 -11.9797 -20.2419 -8.62424
1355 7 -15.3232 -17.5632 -4.76534
746 16 -12.1633 -17.5767 -2.38608
1080 7 -12.0159 -22.858 -1.63002
946 7 -18.0599 -17.0383 -0.992289
3370 6 -12.7346 -19.578 2.94337
1808 7 -12.7495 -22.4114 -6.30784
921 6 -17.1377 -20.979 -0.162611
922 6 -16.2044 -21.902 0.307133
1078 7 -15.5228 -21.3006 -2.45553
3373 6 -14.5105 -17.496 3.68435
1072 7 -13.4628 -22.6771 0.479889
1178 6 -16.4068 -16.8704 -6.41957
729 6 -14.1388 -17.6892 -1.15985
1511 4 -10.6011 -18.818 -7.71239
1699 7 -13.682 -19.1134 -6.80721
733 6 -15.5172 -17.5562 -1.02296
1514 2 -13.0168 -18.6003 -7.56647
1512 4 -12.2117 -17.5123 -6.80833
3534 7 -10.953 -17.2718 4.66993
1075 7 -14.1117 -22.7879 2.48818
3528 7 -10.7157 -16.3817 -0.49532
1060 7 -18.2542 -21.3975 4.6618
1706 7 -10.9066 -20.1815 -4.85655
917 6 -18.1052 -20.2648 0.726699
1079 7 -14.681 -23.3773 -3.2298
3344 6 -10.8932 -17.4656 1.36214
923 1 -15.3363 -22.656 -0.702102
1086 7 -15.5964 -20.1563 -8.60701
929 2 -12.7681 -23.4697 -2.07362
920 6 -16.0299 -22.0725 1.66217
3343 6 -10.3459 -16.591 0.492873
1084 9 -14.1266 -21.0099 -3.95108
1182 3 -16.9232 -19.209 -3.48995
916 6 -17.9242 -20.5652 2.09605
3351 2 -9.93239 -17.5989 5.0017
3371 6 -14.3309 -18.5795 4.44931
3372 6 -13.746 -17.4285 2.55572
1092 7 -18.1128 -20.6618 -6.94731
1812 9 -14.7175 -23.2824 -5.09502
3574 7 -16.1679 -19.2459 5.42904
931 16 -13.5472 -21.7709 -3.89756
1180 6 -16.3189 -17.5321 -5.24359
943 7 -16.0217 -18.2275 -0.279614
1658 2 -12.3114 -23.4104 -8.34106
1657 2 -13.211 -22.8059 -7.2223
3533 7 -9.89764 -18.6454 4.65528
1697 7 -12.6313 -16.5601 -6.32277
3412 1 -16.589 -16.6521 4.85182
941 4 -18.3477 -20.3133 -7.96656
1810 7 -11.6297 -22.6494 -8.68976
1518 2 -9.87448 -19.9636 -4.49644
3546 7 -13.8613 -16.5388 1.88251
948 9 -11.8301 -17.1455 -3.18684
734 6 -16.089 -16.4562 -1.63269
1076 7 -15.5783 -23.5866 3.11246
1356 9 -14.5955 -16.3023 -6.5194
1811 7 -12.9177 -23.6753 -9.25671
934 6 -17.5951 -19.9219 -9.13839
3580 7 -16.2192 -17.8789 8.078
954 7 -13.2122 -16.5166 19.7567
491 16 -14.1963 -18.0682 15.1493
3353 6 -10.6007 -17.4034 8.74608
935 6 -18.492 -19.3948 19.6368
3864 21 -15.3791 -23.28 11.6831
933 6 -18.0176 -18.8466 18.4564
3380 6 -11.478 -21.6991 7.11826
490 6 -12.7027 -20.7662 13.137
479 6 -17.3374 -21.0298 9.23338
936 6 -16.2306 -19.865 20.2438
760 6 -10.9295 -16.631 18.7717
647 7 -13.1854 -21.4172 11.1595
1088 7 -14.7064 -19.2141 18.9706
2172 7 -14.908 -22.303 17.9193
480 6 -15.0001 -20.6046 9.6212
2166 7 -10.6221 -23.4601 16.3262
645 7 -15.5727 -18.157 12.8104
3381 6 -11.3832 -22.0983 8.4598
3377 6 -13.3902 -23.4749 8.08222
3865 22 -16.3945 -22.7825 11.9412
481 6 -15.9724 -21.2225 8.87015
644 7 -17.0814 -18.6432 11.5131
2173 7 -14.3348 -20.653 17.3605
639 7 -18.1982 -21.6188 11.4248
762 14 -10.7211 -17.9437 18.6277
2175 7 -12.1123 -21.5355 16.5115
3537 8 -12.447 -17.447 9.78592
482 6 -15.3649 -19.7939 10.7098
3581 7 -17.6595 -18.1432 6.88742
488 6 -12.9229 -19.842 14.1284
648 7 -11.8697 -21.4974 13.0568
2021 2 -14.2685 -21.7795 17.1304
2020 1 -14.8773 -22.0803 15.8175
642 7 -15.8168 -21.9347 8.04246
2050 8 -9.80877 -22.221 20.0203
646 7 -12.2679 -19.8286 15.0416
3418 2 -16.7872 -17.4359 7.22451
2051 8 -10.3949 -21.7968 18.5449
3379 6 -12.3729 -22.9417 8.95339
485 6 -14.5122 -19.7126 11.8401
938 6 -15.763 -19.2784 19.0687
937 6 -16.6619 -18.7603 18.1122
2171 7 -14.4752 -21.506 14.9493
2016 1 -12.6258 -23.6947 16.9148
3365 16 -10.6199 -17.0272 14.557
489 6 -13.4933 -20.6649 11.9734
478 15 -18.2333 -21.8419 8.70536
3359 6 -10.7631 -17.2712 10.9674
486 6 -14.0189 -18.8972 14.0884
2163 7 -12.6248 -23.2626 14.7859
641 7 -13.9532 -20.8755 9.46368
3382 17 -14.1235 -23.5124 5.80413
3549 7 -12.2185 -23.3431 9.91591
649 9 -13.3939 -18.1695 15.5577
1087 7 -16.1763 -18.4803 17.1944
3378 6 -13.2084 -23.0205 6.83015
2176 9 -16.5642 -21.366 15.1912
3573 7 -14.945 -16.5646 6.26252
483 6 -17.6603 -19.9537 10.0048
3564 7 -10.6421 -21.4918 10.4511
3544 9 -11.9897 -18.3412 6.0187
3358 11 -11.4692 -17.711 9.81755
2023 16 -16.2773 -21.8785 15.905
3376 6 -12.4391 -22.1816 6.18326
3575 7 -14.7438 -19.1618 6.49943
3367 16 -11.9141 -18.2909 6.95826
3413 1 -15.8223 -17.2071 6.06976
487 6 -14.7466 -18.8467 12.9126
2174 7 -12.4919 -21.8652 18.2007
3361 6 -11.1796 -17.2824 12.2697
3405 2 -10.2952 -21.5558 9.40682
2022 2 -12.7733 -22.1713 17.1974
3404 16 -10.4889 -20.8595 6.69635
3354 6 -10.7498 -17.6595 7.39483
484 6 -16.7124 -19.3841 10.7507
3362 6 -10.2896 -16.846 13.2556
3538 7 -12.1538 -17.628 12.5667
955 7 -12.4812 -16.5856 17.2694
3563 7 -10.2132 -20.5412 9.06558
3540 9 -11.5316 -17.3789 14.5847
875 6 -18.4058 -16.7043 16.4948
2019 2 -14.6644 -23.5913 15.5044
3562 9 -10.5403 -20.69 5.76074
3414 2 -15.2618 -18.6627 5.60636
3500 7 -18.2505 -10.5516 5.07261
3513 7 -15.3751 -10.2277 -2.85444
2785 7 -17.2023 -11.5507 -8.54039
2786 9 -18.4971 -12.873 -7.23414
1354 7 -17.8805 -15.968 -7.76737
3582 7 -18.2736 -16.0644 3.19059
1181 16 -15.3734 -16.3286 -7.08582
3300 6 -17.0601 -8.84916 4.99172
3326 6 -9.78613 -10.7043 -2.78827
3415 1 -17.4838 -15.383 5.01658
3306 2 -18.2027 -12.6248 3.3845
3311 15 -16.176 -11.2925 -0.74409
3348 16 -13.8182 -12.347 2.11191
3324 20 -11.5797 -12.6287 0.274214
945 7 -17.7722 -12.1625 -5.66427
3516 7 -9.92214 -9.98033 -3.58963
3317 6 -13.2289 -10.2613 -2.54573
3346 5 -14.1066 -12.7905 0.843009
3328 6 -10.4482 -11.9438 -0.954881
3505 7 -17.1117 -13.4639 -0.0982451
737 6 -15.9746 -14.5887 -3.17993
3297 6 -16.5383 -9.30909 2.30221
3319 6 -12.1913 -10.9313 -1.82246
3088 6 -10.4292 -9.59105 2.55482
3301 6 -17.6021 -9.94807 4.39437
747 2 -15.2681 -11.6906 -5.62339
735 6 -13.2129 -14.8036 -3.29045
3322 16 -12.8573 -9.35799 -3.5381
3093 6 -10.557 -10.79 4.6766
1701 7 -10.3699 -15.7803 -6.02468
3308 6 -18.4682 -13.9837 1.51668
944 7 -13.333 -13.0412 -4.58308
3097 6 -11.8921 -10.4355 4.78899
3316 6 -14.9113 -11.1761 -1.11106
753 6 -14.4568 -13.8527 -8.62819
3514 9 -11.9064 -9.22261 -3.48481
750 6 -13.2707 -12.0723 -7.0088
3304 6 -17.5319 -11.5694 2.61028
3302 6 -16.2474 -9.55534 0.934604
743 6 -18.1017 -15.4673 -2.38001
3321 6 -12.6496 -11.5962 -0.790448
3803 22 -12.0878 -14.9022 5.09665
3570 7 -14.8735 -15.4336 3.99285
3099 6 -12.4251 -9.64587 3.74539
730 6 -13.9818 -15.8357 -2.67016
745 19 -11.5388 -14.8073 -3.33659
3307 1 -17.7973 -13.9998 2.82973
951 7 -16.2848 -13.2909 -7.68079
947 10 -11.1678 -13.6757 -3.91879
3248 7 -10.9295 -9.13206 -0.263584
3503 7 -16.6799 -13.9198 2.68425
739 6 -15.9446 -12.8255 -4.8084
3309 2 -17.8992 -13.0251 0.499347
963 7 -10.6418 -12.2323 -5.6224
3347 13 -14.1872 -13.9383 0.620252
3303 6 -16.5681 -10.8342 0.49616
3299 6 -17.1983 -10.3195 3.07806
748 6 -14.615 -12.3321 -6.78174
749 6 -12.4188 -12.8808 -7.78689
3504 7 -18.681 -12.7586 -0.210466
3305 6 -17.3142 -11.7746 1.23767
3532 9 -13.7845 -13.1456 2.68335
740 6 -17.2918 -12.8749 -4.93448
2858 7 -17.9543 -10.374 -2.32663
3098 6 -11.7829 -9.34184 2.60791
3502 7 -17.854 -12.6062 4.3897
752 6 -15.1954 -13.1676 -7.65727
741 6 -17.3448 -14.598 -3.2275
950 7 -16.1425 -11.0453 -5.97637
738 6 -15.2876 -13.6429 -3.91009
3318 6 -14.5435 -10.5921 -2.27589
732 6 -15.3304 -15.6009 -2.5085
736 6 -13.8679 -13.7205 -3.92623
961 9 -13.4272 -10.4315 -6.16891
742 6 -18.0008 -13.7636 -4.16945
3086 6 -9.84368 -10.3358 3.56737
3320 6 -13.8817 -11.7825 -0.291467
949 7 -14.7198 -11.0603 -4.92337
754 6 -11.0413 -12.9769 -7.59911
766 16 -12.7434 -11.1074 -6.09862
3801 21 -11.8468 -14.1847 4.21757
751 6 -13.0356 -13.7507 -8.7424
3802 22 -11.6057 -13.4672 3.33848
3323 6 -10.8068 -11.1117 -1.88917
755 6 -10.3872 -13.8373 -8.42661
964 7 -9.9339 -11.1191 -6.95159
767 3 -10.1737 -12.1913 -6.61079
3251 7 -13.4685 -9.36166 3.87464
3576 7 -16.8407 -14.5286 5.13398
3571 7 -15.9584 -16.1082 2.80662
3419 2 -18.2963 -15.1403 3.71577
2574 6 -15.1734 -9.17958 -9.00486
3512 7 -16.2824 -8.80582 -1.21906
3411 2 -15.4884 -16.3082 3.80681
2575 6 -16.4964 -9.25204 20.2243
774 16 -10.2419 -9.71386 18.7161
2618 5 -18.4578 -10.7125 16.5534
3266 7 -12.3045 -14.9728 13.0785
2783 7 -13.3345 -10.1603 20.1273
3508 9 -12.3803 -9.74208 9.40566
3256 7 -11.9231 -14.6769 10.5943
3110 2 -10.062 -13.0794 10.2757
3312 11 -14.0918 -8.77818 9.1427
3587 7 -16.7807 -13.4748 8.18634
3263 7 -15.7489 -13.7766 11.4173
3100 6 -10.7306 -11.9032 6.81282
1031 7 -14.794 -11.5603 16.9905
3589 7 -16.4172 -11.3542 8.97446
863 2 -10.0892 -13.0274 15.0669
1034 7 -10.5264 -15.2022 16.5348
1036 7 -14.759 -14.2288 15.3514
3435 6 -15.3564 -10.1638 12.4647
3261 7 -13.8204 -14.6779 9.25479
3416 1 -18.193 -15.3966 6.37086
3111 2 -14.3099 -13.9356 9.90531
1043 7 -18.8087 -12.3815 13.9221
1025 7 -12.241 -11.5044 14.6111
3114 2 -12.9598 -14.3391 12.4276
3426 6 -17.5162 -11.1387 9.07801
3255 7 -13.4297 -12.0878 10.8588
3417 2 -17.3973 -16.0159 7.53598
759 1 -11.9469 -15.9232 17.9523
3592 7 -14.712 -10.9392 12.8796
3427 6 -17.9574 -10.102 9.89348
3507 8 -13.2772 -8.89096 9.72523
1029 7 -13.5737 -13.0878 18.0091
3434 6 -16.0126 -10.4461 11.3282
873 2 -15.9209 -13.9951 17.1839
966 9 -10.0502 -9.15541 17.9461
3421 2 -17.6201 -13.0834 7.52713
867 1 -12.1179 -13.7522 16.4271
878 6 -17.5418 -14.4154 15.3322
3254 7 -13.9973 -12.2473 8.0084
2587 3 -14.1325 -9.65137 19.6707
2782 7 -14.6249 -10.4075 18.9462
3268 9 -15.9766 -16.331 11.054
761 2 -10.1169 -15.7528 19.7548
1039 7 -15.8009 -14.3282 18.265
1027 7 -11.5622 -9.28082 15.1753
870 2 -12.8365 -10.8721 16.6072
3267 7 -13.3432 -13.4513 13.0024
3430 6 -17.1281 -9.64038 10.9267
874 6 -16.9894 -14.8458 16.5349
3107 1 -13.1264 -13.0394 10.3508
2583 15 -16.852 -9.90963 19.0868
3106 6 -12.3059 -12.6984 9.08602
953 7 -13.7875 -15.171 18.757
1041 7 -17.1139 -13.4715 14.8702
3115 16 -16.0013 -15.535 10.5219
869 2 -13.9294 -11.8787 16.436
1030 7 -14.1022 -12.0495 15.2953
3094 6 -10.0031 -11.6123 5.63804
3265 7 -14.7561 -15.5266 12.9099
1035 7 -10.6433 -14.2571 17.9061
3113 2 -14.1753 -15.2088 11.993
2619 13 -17.4216 -10.6861 16.0921
3591 7 -15.5761 -11.3614 10.8347
1028 7 -12.2569 -14.1961 15.3943
3105 6 -12.8937 -12.2236 7.94948
3262 7 -14.9692 -13.426 9.18276
3578 7 -16.482 -15.3953 7.64711
1037 7 -14.2672 -15.2842 16.782
3108 1 -12.2158 -13.7897 11.1908
872 2 -14.6098 -14.2529 16.4586
866 2 -10.8803 -10.1013 15.4098
3103 6 -10.1496 -12.2989 7.98949
3257 7 -10.3436 -13.649 12.2545
868 1 -13.5095 -13.2543 16.9575
871 2 -11.2851 -14.7459 17.244
3104 6 -10.9151 -12.6159 9.11571
3586 7 -17.1145 -12.6148 6.68192
3264 7 -13.7279 -16.1701 11.6065
3422 6 -18.2687 -11.8978 8.25889
3112 1 -15.12 -14.5965 11.0211
3596 7 -14.3356 -9.70591 14.7908
1032 7 -13.2567 -9.84124 16.3928
865 1 -11.7858 -11.2863 15.5839
1022 7 -10.3829 -13.8445 14.3629
758 2 -12.8708 -15.5975 19.1757
2592 6 -18.6036 -11.3225 17.9181
3101 6 -12.2089 -11.7456 6.86005
823 6 -9.83028 -10.5215 14.4679
1024 7 -10.5222 -12.3216 17.003
1038 7 -16.2659 -12.972 17.2992
3109 2 -10.901 -13.1005 11.4743
1033 7 -12.4547 -10.9876 17.6543
2588 6 -17.7314 -10.9756 19.0713
3258 7 -11.1633 -12.11 11.8063
864 1 -11.1315 -12.5806 16.0625
1026 7 -10.4544 -9.85447 16.406
965 7 -10.4565 -11.571 20.4208
3433 6 -15.76 -9.11577 13.3066
2590 6 -17.8896 -11.6201 20.2827
3102 6 -12.7196 -10.9446 5.8193
876 6 -17.5154 -15.9604 17.1317
756 6 -12.3235 -14.6209 20.1527
879 6 -18.5773 -15.037 14.6844
3420 2 -18.6227 -14.0877 7.00674
3313 16 -11.5699 -9.29945 9.46424
3252 7 -13.8245 -10.6447 5.67377
3440 6 -15.2187 -9.0466 14.6057
952 7 -15.0904 -14.4768 20.3895
3579 7 -18.0004 -16.0177 8.47458
757 6 -11.0337 -14.758 20.4248
1040 7 -17.1055 -16.0765 18.1297
2780 9 -11.9763 -2.0188 0.0854343
2555 6 -13.2091 -2.60488 -6.71234
2559 6 -12.2137 -5.58465 -4.85994
2568 6 -13.4201 -7.29013 -6.27105
2560 6 -11.8603 -5.79824 -3.53031
3492 7 -13.2916 -6.11254 3.47738
2557 6 -12.6154 -3.28613 -4.10347
3284 6 -12.6039 -6.26128 4.35251
2584 11 -11.1963 -5.32861 -1.25379
2864 7 -16.0014 -3.88093 -3.772
3298 6 -16.1391 -8.10723 2.90476
3250 7 -10.6451 -7.57305 0.321298
2861 7 -18.3896 -7.72681 -3.11498
3854 22 -14.8293 -5.42906 -2.32474
382 16 -16.8158 -3.82396 3.69303
2765 7 -11.8091 -6.84103 -3.10477
2567 2 -12.0692 -6.72886 -5.8131
2562 6 -11.6625 -4.81432 -2.48888
2576 6 -17.2882 -8.28189 -7.39457
1008 7 -12.6768 -3.39257 4.96061
2585 16 -12.0739 -2.86608 -0.384057
3278 6 -10.3108 -6.18986 5.06628
2769 7 -11.5381 -7.55911 -5.38419
367 6 -17.2387 -2.71066 3.11878
3315 3 -15.8619 -8.5444 -0.175775
2569 6 -14.9343 -8.49141 -7.85024
3853 22 -14.8302 -5.21969 -0.0141237
2550 6 -13.4653 -1.62316 -5.6584
2772 7 -16.585 -7.39563 -5.00143
2706 6 -17.5239 -5.11849 -2.93907
2863 7 -16.9484 -5.97473 -3.26888
3286 6 -13.0023 -6.86845 5.54335
2572 6 -14.4691 -7.17898 -5.37708
3509 9 -15.2582 -6.38024 2.73527
2771 7 -14.4312 -6.61236 -4.42331
3675 22 -16.4921 -1.42708 -6.575
2552 6 -13.2833 -2.11459 -4.34493
3800 22 -15.2973 -4.77662 -8.86573
2564 6 -13.1798 -1.59298 -1.9814
3676 22 -17.1983 -3.51151 -7.30923
2571 6 -15.9745 -8.23158 -6.97249
3295 2 -15.5176 -6.77723 4.92286
2565 19 -13.4283 -2.26017 -8.35478
3674 21 -16.8451 -2.46936 -6.94207
2774 7 -18.2446 -7.8967 -5.47419
3314 16 -15.4927 -7.13267 2.17519
3293 19 -10.8985 -5.12803 2.62391
2707 6 -16.9759 -3.92646 -3.30618
3296 6 -16.2119 -7.97739 4.27759
365 6 -17.1382 -2.42674 1.74891
3511 7 -16.2559 -7.5166 -0.022633
2561 6 -12.1151 -3.54512 -2.80121
2778 8 -10.9771 -4.63724 -0.55706
2558 6 -12.4907 -4.22464 -5.11707
2570 6 -13.6089 -8.00734 -7.48878
2563 6 -12.421 -2.68709 -1.7173
2586 16 -12.5398 -8.16854 -8.30686
2764 7 -12.7004 -4.60712 -7.29101
366 6 -17.8928 -1.69849 3.9035
371 6 -18.2785 -1.84054 5.26847
3495 10 -11.8049 -4.79923 1.71995
3096 3 -10.1353 -8.50753 0.106197
2770 7 -11.5289 -6.48611 -6.73065
846 6 -13.9223 -1.58804 4.95263
584 9 -16.6249 -4.53486 3.07696
2779 8 -10.3788 -5.77193 -1.4951
1011 7 -11.5926 -1.97939 3.91341
3852 21 -14.8297 -5.32434 -1.16938
2556 6 -12.8407 -3.90824 -6.4501
3497 7 -15.4409 -5.96491 4.20997
2577 6 -17.5198 -8.67586 -8.70383
3283 6 -11.2891 -5.94785 4.10015
578 7 -16.8071 -3.17483 1.04154
2705 6 -17.8002 -2.83361 -3.01687
2578 2 -18.526 -8.0501 -6.52834
2573 6 -15.7343 -7.7297 -5.65444
2712 6 -17.4063 -1.48262 -3.37637
3510 7 -14.7687 -8.41217 -0.201345
848 6 -13.4836 -2.854 5.48557
2702 6 -18.7218 -5.22728 -2.11968
3116 16 -12.5402 -8.73966 1.65848
2767 10 -13.2151 -3.19404 -9.30661
3269 9 -13.4187 -8.60225 2.02347
2781 9 -12.8913 -8.42597 -9.20313
3498 7 -16.1614 -6.30746 5.66967
2340 6 -12.9943 -1.82844 15.6263
1001 7 -10.1197 -2.47519 11.0898
3597 7 -15.3417 -8.18166 16.5731
3820 22 -16.4414 -2.5667 16.3149
3280 6 -10.7079 -6.74841 6.27419
840 6 -14.5816 -3.94055 9.28961
2508 7 -12.4717 -6.70564 17.8799
842 15 -15.4203 -3.22812 8.45445
2355 2 -10.2674 -5.56325 18.8927
834 17 -12.46 -6.23412 11.7641
2354 2 -11.4525 -4.7232 19.3751
847 6 -13.9129 -3.36054 6.64582
381 19 -17.8222 -3.30866 6.10108
839 6 -13.2954 -3.4084 9.64412
2350 6 -12.2516 -3.2196 17.5454
2506 7 -11.8471 -2.41857 18.1607
3438 6 -17.1683 -7.24135 13.7394
1020 7 -9.78475 -1.92031 17.1307
3292 6 -10.1358 -7.86774 8.30531
3432 6 -16.8486 -8.24561 12.9072
2349 6 -13.9368 -4.08152 14.3577
835 6 -13.1326 -5.33045 10.9099
843 6 -14.8761 -2.67674 7.36605
1000 7 -11.4542 -7.84356 13.4122
841 16 -16.4041 -5.46276 9.62482
2341 6 -13.2795 -1.75885 14.2778
2352 6 -13.2337 -5.45781 16.152
3288 6 -14.6855 -7.72784 7.0779
828 6 -10.4123 -6.10458 12.7372
2401 7 -10.5127 -1.49281 8.29758
3445 6 -17.8811 -5.15569 15.4037
1007 7 -13.5342 -4.39059 6.83101
829 6 -11.3416 -4.32694 11.2974
3610 7 -16.6628 -2.3418 10.7825
3603 7 -16.824 -2.85915 13.5557
1003 7 -12.9569 -2.46421 9.23757
3431 6 -17.6171 -8.73775 11.844
831 6 -10.1964 -3.49043 11.5113
3444 6 -17.2791 -6.2773 15.9246
2507 7 -13.4644 -6.3575 15.608
3600 7 -18.0282 -4.2394 16.1042
836 6 -12.5031 -4.23484 10.5608
2504 7 -14.1326 -2.79597 12.552
1002 7 -14.7696 -6.84341 11.2664
3287 6 -14.3765 -7.17014 5.82663
3442 6 -17.808 -6.01496 13.2354
3447 2 -17.7008 -3.00319 12.9223
3285 6 -12.0246 -7.16555 6.4923
2509 7 -12.1151 -5.3314 20.0693
3798 21 -15.5867 -5.04096 19.7185
3441 6 -15.6801 -8.1743 15.4987
838 6 -15.1398 -5.07152 9.90649
3439 6 -16.764 -7.28809 15.0615
837 6 -14.3822 -5.85555 10.7769
3599 7 -17.0756 -6.33121 16.9499
2784 7 -13.6031 -8.79552 19.0916
3443 6 -18.0683 -4.99607 14.0895
2351 6 -12.1218 -4.50462 18.1028
583 10 -18.434 -3.45538 7.33752
3799 22 -15.8761 -5.30532 18.6267
3604 7 -17.2499 -3.54206 12.09
2505 7 -14.2941 -5.02752 13.9375
1004 9 -16.5713 -6.38291 9.96021
2346 6 -13.0033 -3.04659 16.3521
3289 6 -12.4024 -7.95329 7.57856
3821 22 -15.4517 -2.33324 18.4002
3598 7 -18.1037 -5.91876 12.0908
830 6 -11.2585 -5.47958 11.8951
999 7 -10.2523 -8.22141 12.1016
2511 7 -10.4854 -6.58966 19.0266
2353 6 -12.5745 -5.62868 17.3777
2510 7 -11.0596 -3.79308 19.7863
2348 6 -13.9672 -2.8478 13.6667
845 6 -15.4612 -1.45616 6.82733
2347 6 -13.4964 -4.18448 15.6473
827 2 -10.4224 -7.64125 13.0729
3819 21 -15.9465 -2.44997 17.3575
3291 6 -11.3855 -8.47835 8.40685
1021 7 -10.4642 -3.09396 14.8542
3448 2 -18.4166 -1.71107 12.5579
3290 6 -13.7265 -8.19777 7.95077
3493 7 -15.7145 -8.08354 7.26633
2815 7 -18.5188 -2.86836 19.8655
2813 7 -18.6422 -4.11966 18.58
3506 8 -14.8035 -8.22307 9.59387
3499 7 -17.2937 -8.76149 6.05065
2512 7 -10.3906 -5.46841 17.7372
2381 2 -12.1595 3.38273 -5.24267
2416 9 -12.6709 2.51868 4.53886
1009 7 -15.3643 0.100281 3.10058
1012 7 -10.5001 -0.75899 2.12561
3620 7 -17.6664 4.02637 -7.93854
2530 7 -13.0844 2.86791 -4.96864
3471 1 -15.7109 4.53276 -8.7851
3474 2 -16.8652 1.81948 -8.83553
1005 7 -15.5946 -0.0583892 5.21536
400 11 -18.7326 4.36614 4.00819
2221 16 -12.1838 2.16865 5.30777
2380 1 -11.5284 3.68795 -3.87798
3473 2 -16.2541 2.41073 -7.58911
1093 6 -13.6954 4.71794 3.6697
2768 9 -15.0531 0.372205 -7.29925
1105 6 -15.8596 5.43636 -0.85996
1108 6 -15.8944 3.74996 0.883102
2551 6 -14.0365 -0.376913 -5.86045
2382 2 -11.291 2.51853 -6.16309
2387 16 -11.7923 3.5274 0.480756
2566 16 -14.1328 0.0475524 -7.15825
2763 7 -14.5956 0.658889 -2.64539
2402 7 -10.7402 3.23173 3.32538
2385 2 -11.9081 4.74946 -1.7043
2869 7 -17.546 0.642519 -3.11224
3631 7 -15.1263 4.75712 -6.27381
2553 6 -14.3427 -0.0285093 -3.47919
2526 7 -10.2903 -0.0392827 -2.33614
1129 16 -17.0252 3.26828 -1.06411
2200 6 -10.248 2.48874 3.98154
2525 7 -9.91748 0.50659 -7.18768
3621 7 -16.5766 2.02413 -6.62341
2539 7 -13.3902 4.34657 -3.14956
2386 2 -12.3504 4.72982 -3.1872
370 6 -18.0611 -0.273708 1.92558
369 6 -17.608 -1.323 1.13461
851 6 -14.3054 -0.106405 2.86675
1013 9 -15.1927 1.48118 1.58461
2766 7 -13.2484 -0.822744 -1.1887
1098 6 -15.1209 4.62291 1.69152
2199 6 -10.9277 1.75568 4.92028
2538 7 -12.28 5.73939 -3.67889
3478 2 -16.2099 4.74076 -6.46245
2535 7 -13.0094 2.9865 -1.06338
1322 8 -18.0433 5.54834 -2.73729
1107 6 -16.2426 4.14147 -0.418215
850 6 -13.6587 0.560499 1.81822
3619 7 -14.7141 4.34612 -8.34621
2375 6 -10.0208 0.395185 -6.11108
2762 7 -14.8125 1.40661 -5.01145
2546 7 -12.1845 5.22827 -8.05638
1324 9 -17.3076 2.62841 -0.386518
3630 7 -16.5978 4.23043 -5.62731
3472 1 -16.5705 3.93526 -7.72478
2527 7 -12.5062 1.93281 -3.03525
2713 6 -18.005 -0.392225 -2.82753
2384 1 -11.9741 3.40916 -0.954562
1323 8 -17.0728 4.27078 -2.83163
1128 11 -17.1029 5.24066 -2.97636
2549 6 -14.4433 0.42799 -4.77218
2532 7 -11.8738 2.24384 -7.05076
3624 7 -16.8817 0.728277 -8.99239
1310 7 -16.3654 2.84159 1.30687
368 6 -18.1748 -0.454679 3.31376
2528 7 -10.5546 4.05104 -4.08647
1095 6 -13.1242 5.91754 3.17185
594 8 -18.4894 4.9136 4.82146
3623 7 -17.8828 2.04439 -8.76214
2383 2 -10.9597 2.5314 -1.72889
852 6 -12.2535 0.293855 1.54934
2534 7 -10.9036 1.58744 -1.23866
3622 7 -15.118 2.45212 -7.59367
2531 7 -10.4531 3.12017 -6.53772
1097 6 -14.7118 4.08918 2.9287
2379 1 -11.5001 2.33011 -3.11802
2529 7 -12.519 4.16047 -5.85218
854 6 -11.5252 -0.554519 2.36658
855 16 -14.4026 1.42319 1.07803
1106 6 -16.2917 5.95261 -2.10149
1307 7 -15.0838 3.14292 3.38128
2540 9 -12.6285 3.79111 0.908167
2376 6 -10.7762 1.34791 -5.40311
1010 7 -11.7979 0.810648 0.74203
2537 7 -12.5854 5.40281 -1.12785
2378 6 -10.7356 1.30848 -3.99381
2536 7 -10.812 5.06911 -1.73245
2547 7 -10.6551 6.03381 -8.15915
2377 6 -10.2394 0.12898 -3.42608
380 6 -18.2859 1.0093 1.37247
579 7 -17.4119 -1.1403 0.153829
1734 7 -16.0651 4.7571 5.1783
2533 7 -9.93291 2.98991 -1.79255
1306 7 -13.294 4.26714 4.55462
853 6 -12.2214 -1.30816 3.28091
849 6 -13.5154 -0.910721 3.71476
2554 6 -13.6022 -1.26807 -3.27253
595 8 -17.9588 4.54625 3.38335
1096 6 -14.5645 5.75229 1.15705
373 6 -18.6815 0.588167 4.08047
2868 7 -16.5478 -1.33446 -4.05252
606 7 -18.5858 2.95602 -5.2083
582 7 -18.3564 1.12864 0.233268
2197 6 -10.2273 0.763977 5.59919
844 6 -14.9915 -0.923309 5.61907
3455 6 -17.7459 -0.158221 14.8584
2344 18 -11.2652 3.5087 19.286
1574 6 -17.2082 5.46129 8.25236
1578 6 -16.6694 4.89557 11.8869
2338 6 -11.5863 0.0817959 15.4243
3469 6 -15.3326 4.25287 18.3469
2196 6 -10.1088 -0.989701 7.32938
2153 7 -10.884 2.22323 10.0134
3450 6 -16.0196 1.15434 13.7406
585 7 -18.5351 2.27567 8.18844
1573 6 -16.7324 5.245 5.89112
1738 7 -17.8302 3.78361 13.3938
2543 7 -11.9752 4.47587 16.6095
3614 7 -15.1843 2.01441 9.86566
2156 7 -12.6243 5.64093 7.35335
1579 6 -16.4757 5.10656 10.5536
1995 6 -11.2334 5.75484 11.9788
2333 6 -11.2832 1.58228 17.425
3461 6 -14.79 2.87176 14.8722
2502 7 -13.7105 0.483632 19.7206
3453 6 -16.6629 -0.260732 11.4657
2501 7 -13.0773 2.00617 19.9963
2004 3 -12.8321 4.83892 8.1136
3470 6 -15.7666 3.80222 19.5355
3609 7 -15.9314 -1.30407 9.67502
2499 7 -11.1253 0.748232 13.4824
3460 3 -15.1288 0.950458 10.0461
3608 7 -18.0401 0.305509 16.8258
1993 6 -10.8852 4.59036 11.2954
3633 9 -12.88 3.26518 11.6789
2498 7 -13.6566 -0.728932 18.0046
3617 7 -17.0436 0.90013 18.529
2337 6 -12.8763 -0.157111 17.4747
2393 6 -12.1022 5.21456 17.3967
3458 6 -16.3847 1.51571 16.0239
2503 7 -11.9592 0.565431 20.223
2336 6 -12.3194 0.869456 18.1258
1997 6 -11.4902 4.33368 10.0995
3462 6 -14.1464 2.19856 12.5314
3465 6 -15.3455 3.48916 17.1884
3456 6 -17.3939 0.513299 16.0033
2155 7 -10.4931 3.03695 8.54305
3463 6 -13.9611 3.01333 13.6701
3457 6 -15.7117 1.83331 14.8886
1998 6 -12.4629 5.14238 9.49777
3451 6 -17.0658 0.23521 13.6989
3449 6 -17.4076 -0.532908 12.6076
2198 6 -10.8379 0.0385906 6.68663
2157 7 -13.8192 4.41388 8.01598
3618 7 -14.7782 5.25175 18.2537
3452 6 -15.3029 1.39965 12.5672
1581 6 -18.6662 4.27304 10.0617
2220 11 -12.0782 0.332141 7.27265
3464 6 -16.0464 2.2365 17.1824
2500 7 -12.8108 -0.899847 12.4143
1572 6 -16.5772 4.79234 7.22015
3466 6 -14.7653 3.79195 15.9288
3467 6 -16.4806 1.82899 18.4279
3468 6 -16.35 2.51022 19.5876
2389 6 -11.7736 5.0663 18.7538
2335 6 -10.8539 1.0749 16.1285
2003 3 -11.2215 2.9676 9.31161
1580 6 -17.7781 4.15142 12.333
2339 6 -12.491 -0.67483 16.2111
3615 7 -13.2782 3.88449 13.6333
3613 7 -14.1071 0.593894 9.99744
2345 3 -12.7364 1.00805 19.6184
2154 7 -12.1656 2.52332 8.99816
3612 7 -15.4734 0.441046 9.13017
1583 16 -15.6222 5.3553 12.6599
3454 6 -15.6857 0.688262 11.4018
3480 16 -13.2842 2.3629 11.5183
2415 8 -12.5229 1.18672 7.06572
2342 6 -11.7484 0.0463823 14.0369
3616 7 -14.1096 4.68981 15.8058
586 7 -18.6967 0.669499 8.34636
1733 7 -16.1374 3.85949 7.50602
2414 8 -12.7216 -0.433607 7.42648
2158 7 -12.207 4.08788 7.65396
2331 6 -10.6012 2.68071 17.9261
2343 6 -12.7449 -0.724863 13.4724
1577 6 -17.465 4.92059 9.54457
1006 7 -16.3025 -0.968332 7.4483
1741 9 -14.8058 5.32463 12.1535
619 7 -18.2091 5.8616 16.571
3459 3 -16.7892 -1.29623 10.3143
3611 7 -17.688 -1.25156 9.73369
1737 7 -15.5871 5.68645 10.2312
2391 6 -11.7922 6.13503 19.6354
2151 7 -9.97496 5.4925 13.7659
2149 7 -9.95592 2.60722 11.6608
3607 7 -18.6736 -0.683067 14.7326
1798 7 -12.5803 10.0532 -4.74354
1315 7 -15.6353 9.72738 -5.03696
1111 2 -14.6697 9.27501 -2.43003
1113 6 -17.6945 11.5311 -2.29497
1312 9 -11.8612 7.297 3.6975
1556 6 -11.7735 11.6165 4.51202
1316 7 -17.2513 11.3493 -5.66819
1799 7 -13.0451 11.0216 -8.04491
1074 7 -15.8973 12.8435 0.729187
1655 2 -13.3863 12.179 -6.23327
1650 6 -11.4294 10.6871 -6.57883
1120 6 -18.5192 12.9817 -4.09406
3550 7 -15.9365 12.4103 4.89616
1643 6 -10.0152 7.43234 -1.58676
1656 1 -14.1592 13.3887 -6.83883
1115 6 -17.8456 11.8706 -3.67726
3629 7 -16.4403 6.68886 -5.69449
3632 9 -16.4126 8.43229 -7.18966
1325 9 -15.6806 9.85222 -0.491345
1112 6 -15.7993 10.1617 -2.91162
1102 6 -14.4473 7.39805 -0.584068
3479 16 -15.7876 8.08748 -7.80928
1732 9 -16.4749 7.98459 1.04926
1082 7 -12.7844 12.4023 -0.468621
1104 6 -15.9489 7.24372 -2.46485
1317 7 -18.3744 12.822 -6.36552
1645 6 -10.5871 9.24762 -4.79232
1114 6 -16.6148 10.6579 -1.96003
1654 2 -9.84645 10.9331 -8.64757
1558 6 -12.7089 10.6699 4.5606
1651 1 -12.4591 11.5319 -7.28387
1550 6 -9.9348 13.287 0.957202
1313 7 -14.0843 8.95349 -3.26086
1308 7 -12.7888 8.81776 -0.312021
1109 19 -11.5017 8.21501 2.09232
3552 9 -18.1594 11.0276 5.71876
1309 7 -16.3703 7.55965 -3.4423
1641 6 -9.76663 7.93574 -2.88473
1083 7 -14.17 12.4193 -1.37203
1649 6 -11.6503 10.0101 -5.34362
930 2 -13.4846 13.0913 -0.976131
1073 7 -14.2745 12.3508 1.2643
1100 6 -13.41 8.05391 0.139438
1653 2 -10.744 12.0395 -9.07574
1110 16 -12.212 6.47087 4.03251
1314 7 -14.0005 9.9397 -1.82399
1727 7 -12.4214 12.9278 2.8591
925 2 -14.9165 13.1982 1.08098
1807 7 -14.5495 13.008 -7.77399
3477 2 -16.6885 6.17587 -6.57035
1652 1 -11.5527 12.6488 -7.87543
3476 1 -15.6959 6.71653 -7.61919
2545 7 -12.4268 7.8445 -7.192
1813 9 -10.2413 6.81353 0.615457
1116 6 -16.0696 10.3438 -4.22703
1800 7 -10.8345 12.9161 -7.09074
1555 2 -11.4896 12.3836 3.25337
1565 6 -15.1407 9.58559 2.51985
1569 16 -17.0583 8.52828 1.65074
3627 7 -14.6645 6.39197 -7.29986
1311 10 -10.8282 9.07051 1.24686
2395 4 -12.3082 7.42159 -8.20945
1099 6 -12.9289 7.47652 1.2886
1562 17 -13.3882 10.7083 3.24926
1563 6 -14.3145 9.6604 3.57961
1094 6 -13.5208 6.37579 1.89712
1805 7 -12.8072 12.6719 -5.41154
1328 7 -18.3807 12.2611 0.680214
1568 6 -16.2396 8.04648 4.02189
1728 7 -11.225 11.661 2.48085
1796 7 -11.903 8.57586 -3.30579
1806 7 -14.0898 11.3822 -5.92459
1795 7 -11.0701 7.36837 -1.09793
1570 15 -17.1592 7.04398 4.27478
1646 6 -10.8597 8.49335 -3.59725
1101 6 -14.9678 6.19072 -0.0598936
1564 6 -14.2342 9.13888 4.78372
1103 6 -15.0018 7.95989 -1.72955
1130 16 -16.48 10.3355 -0.613799
1566 6 -16.2459 8.71891 2.75887
1730 7 -14.929 10.0788 1.5793
1117 6 -17.1245 11.1558 -4.59235
1648 6 -10.1667 10.4248 -7.24033
1557 6 -13.2392 9.81667 5.43076
1554 15 -10.472 13.3283 3.33591
1567 6 -15.2712 8.15177 4.9367
1408 7 -18.6995 7.19718 -1.13796
3628 7 -17.7413 6.2464 -6.92932
1571 6 -17.1945 6.54154 5.56678
3475 2 -15.7903 6.0551 -9.00744
1118 6 -18.5835 12.1208 -1.3607
1725 7 -10.9641 13.5415 0.819414
1081 7 -12.314 13.1706 -2.76441
2396 2 -11.6817 6.06599 -8.50038
2002 6 -12.1888 7.97682 13.4067
3553 7 -17.0354 7.8329 12.5729
3383 6 -14.8586 12.845 6.64704
614 7 -18.7705 6.4181 18.3967
498 4 -18.3189 12.9756 17.2547
2014 6 -12.9252 11.9716 14.95
2000 6 -11.2501 7.12388 13.9227
2009 6 -13.3655 10.1596 13.3854
2024 16 -14.3128 7.02426 8.24239
3556 7 -17.9209 12.0336 13.0232
1576 6 -17.9634 6.57564 7.86614
2392 6 -12.8335 7.46316 17.8476
1735 7 -18.3223 8.16995 6.55824
3385 6 -15.841 12.3231 5.96164
3833 22 -14.3737 10.7035 17.5679
2013 6 -13.5668 11.4347 13.8802
3400 6 -18.1339 9.11206 17.0351
2397 4 -12.7382 8.16462 20.2982
657 7 -18.3207 12.43 16.3223
3390 15 -17.1731 10.2933 8.82529
3394 6 -17.5059 9.89879 12.9971
1729 7 -12.8478 9.37678 7.59206
3626 7 -14.8974 6.37088 20.0491
2159 7 -14.4243 9.23492 9.61381
2544 7 -12.8459 6.50038 15.8661
3831 21 -14.5168 10.7389 18.7184
2162 7 -14.2734 11.9485 13.2927
2168 7 -9.96415 11.4231 16.3134
2394 6 -12.7187 6.3746 16.9984
2001 6 -12.6267 7.72312 12.1202
3554 7 -16.6803 8.13612 10.2486
1590 4 -10.0165 8.76229 9.04602
1744 7 -11.6764 10.9246 8.95144
3395 6 -17.6043 11.2874 10.9948
3402 6 -16.9199 8.81447 16.5131
2542 7 -13.2182 8.37395 17.4576
3397 6 -17.66 9.72102 14.3992
2011 6 -11.9553 9.82416 15.1297
1575 6 -17.8321 7.20343 6.61982
3387 6 -15.3087 12.027 8.77949
2152 7 -10.742 7.45065 14.7946
3391 6 -17.2463 10.1949 10.2001
2160 7 -14.1295 10.76 11.5482
1999 6 -10.7001 6.05193 13.2095
3558 7 -18.3649 8.72027 18.0082
2170 7 -15.0941 13.5597 14.5033
1731 7 -15.2426 7.81247 5.92876
1743 7 -10.4463 11.9608 8.17433
2167 7 -11.3289 11.0718 17.511
1584 16 -10.2305 12.7327 6.03357
3551 7 -15.1638 12.0287 9.83743
3393 6 -17.0538 8.97071 10.8038
1586 4 -9.86133 10.0067 8.43952
3392 6 -17.0958 8.79375 12.1276
1561 6 -11.4856 10.8482 6.80978
3832 22 -14.66 10.7743 19.8691
618 7 -18.3554 6.32462 14.8178
2177 9 -14.7697 7.7876 8.04957
3386 6 -16.5303 11.3642 6.76276
2010 6 -13.7844 9.87774 12.1409
2164 7 -13.2364 13.201 17.6581
2390 6 -12.3876 7.35281 19.1797
2007 6 -13.8418 8.42528 10.1102
2005 6 -13.4401 8.68734 11.4602
3396 6 -17.7236 11.153 12.352
3559 7 -15.635 8.71556 14.8245
1749 7 -10.9295 8.44308 9.46951
3560 7 -16.2507 8.24228 17.1736
2006 6 -13.67 7.26904 9.47052
1804 7 -9.80607 10.1705 20.2894
1994 6 -12.2272 6.62302 11.3875
1801 7 -10.1813 12.7866 20.111
3389 16 -17.5524 10.585 6.24808
1559 6 -12.5114 9.96068 6.73623
3388 6 -16.3255 11.3204 8.16604
3555 7 -17.6004 12.3213 10.5975
1996 6 -12.8488 6.3251 10.1189
3401 6 -16.6344 9.03145 15.2098
3384 6 -14.4679 12.8843 7.90895
2008 6 -12.5799 9.248 14.0569
2012 6 -11.9705 11.1583 15.4974
495 2 -18.0275 13.0918 19.6331
1585 2 -10.8725 10.9965 8.17104
656 7 -17.0312 11.5764 18.3675
2165 7 -10.8413 13.4192 17.9914
2018 2 -11.0418 11.676 16.6245
2169 7 -15.2661 13.069 16.1806
1802 7 -11.51 11.5313 19.9752
3774 22 -10.0821 10.5354 12.3674
2017 2 -11.1928 13.1603 16.9991
2015 1 -13.2216 13.338 15.4667
2161 7 -11.194 9.24044 15.69
497 4 -17.6647 12.4391 18.3416
3866 22 -14.3635 13.5525 11.4251
1742 9 -9.97445 12.7805 6.96374
2548 7 -13.1742 9.15603 20.4482
653 7 -18.5569 12.41 20.3054
654 7 -17.278 13.6109 20.2637
2181 7 -9.9946 13.7396 13.5312
1820 7 -10.1059 7.92503 5.74884
1560 6 -11.1036 11.7253 5.77262
3625 7 -16.746 6.35971 20.2019
1713 7 -7.20967 -21.0324 0.507121
1506 6 -6.36885 -17.6418 -7.30343
1498 6 -2.91581 -18.0077 -4.02935
1838 16 -1.86304 -18.3847 -8.54355
1754 7 -7.75033 -23.1715 4.39296
1715 7 -5.7306 -18.6988 0.975726
1707 7 -9.8695 -18.8341 -4.62419
1502 16 -3.5398 -16.4133 -5.85015
1494 16 -1.02209 -23.5744 -4.95846
1525 3 -8.66807 -18.3223 -2.31047
1501 6 -5.08941 -19.307 -4.3009
1528 16 -4.6513 -22.1372 -2.50157
1691 7 -2.41418 -20.9085 -4.75507
1479 6 -1.0222 -23.2047 -1.33671
1526 5 -4.90323 -20.8428 -2.23447
1534 6 -7.56271 -19.9337 3.58453
1517 2 -8.99178 -20.6353 -5.57556
1477 6 -0.988995 -22.7971 -2.68432
1510 15 -9.47116 -19.3983 -8.15595
1520 6 -8.91471 -20.333 -0.909226
1532 6 -7.16061 -19.7281 2.28051
1705 7 -9.64291 -21.1924 -6.26056
1533 6 -6.81757 -19.4626 4.59792
1696 7 -5.7338 -16.8555 -7.66967
1521 6 -9.05514 -19.75 -2.14523
1762 7 -3.70197 -21.8232 3.58855
1499 6 -4.98504 -18.2867 -5.16038
1712 9 -4.87054 -22.6237 -1.72083
1695 7 -7.76902 -17.6214 -8.9425
1530 15 -8.36273 -19.4598 0.0867352
1519 6 -9.60503 -20.5237 -3.11436
1540 6 -5.05747 -18.3568 5.58999
1826 6 -4.99478 -21.2095 -8.31737
1535 6 -5.66594 -18.6882 4.34622
1491 15 -2.10081 -19.2421 -2.17992
1503 6 -6.06359 -18.3167 -6.06301
1497 6 -3.78667 -17.5368 -5.04427
1751 7 -5.41158 -23.5259 1.04226
1710 7 -8.8747 -17.7294 -1.37771
1507 6 -8.34164 -19.0273 -7.42685
1483 6 -1.87104 -20.6365 -1.95309
1522 12 -9.13097 -21.6104 -0.648523
1489 2 -2.31749 -20.0565 0.372471
1683 7 -3.68292 -22.5319 1.10214
1825 6 -3.72402 -21.4224 -7.6903
1711 7 -7.54767 -18.261 -2.31896
2035 7 -3.5976 -22.242 -7.0284
1704 7 -8.49205 -21.4434 -5.05072
1824 6 -5.11919 -20.1441 -9.2024
1722 7 -2.61695 -18.0528 4.2469
1693 7 -1.97198 -17.4755 -3.79229
1821 6 -2.70233 -20.5076 -7.94279
1508 6 -6.87263 -19.2801 -5.72509
1509 6 -8.0291 -19.7287 -6.1992
1536 6 -6.10549 -18.8744 1.99786
2038 7 -5.86793 -22.941 -7.29306
2040 9 -1.33959 -18.4068 -7.73987
1836 6 -6.00467 -22.1192 -8.06677
1504 20 -6.51635 -20.3611 -4.28956
1857 16 -8.10809 -23.0864 -8.55915
1527 13 -5.27616 -20.6264 -1.14961
1724 9 -8.97442 -20.436 4.88613
1524 6 -9.4121 -22.4539 -1.64943
1763 7 -2.22667 -22.6746 3.8362
1531 2 -7.8664 -20.3606 1.08109
1537 6 -5.40024 -18.3054 3.0142
1547 16 -8.65773 -20.7017 3.98072
1487 1 -2.78803 -22.2071 1.76184
1714 7 -8.65332 -21.016 1.48172
1709 7 -9.07585 -17.798 -3.25727
1500 6 -4.37647 -19.7424 -3.24976
1716 7 -4.51619 -17.6697 2.8539
1484 6 -1.50687 -22.372 -0.319209
1485 6 -1.95402 -21.084 -0.63563
1546 3 -2.87409 -17.2018 4.91406
1599 2 -3.16893 -22.6304 3.16539
2034 7 -1.69121 -20.6325 -7.41053
1496 6 -3.15242 -19.0143 -3.06948
1684 7 -1.53413 -19.1968 0.388473
1752 7 -5.73251 -22.9212 3.42213
1505 6 -7.49626 -18.0621 -7.9656
1488 6 -2.43361 -20.7393 1.68945
1523 6 -9.67932 -21.9212 -2.87079
1823 6 -2.87543 -19.305 -8.54874
1685 7 -3.27648 -19.5583 0.0546613
1486 2 -1.55248 -22.8053 1.09681
1490 14 -1.75432 -20.204 2.69296
1835 6 -7.11682 -22.1392 -8.83236
3340 6 -9.35067 -16.7913 3.04219
2052 9 -7.82608 -23.5832 -7.7731
1703 7 -9.06718 -17.0987 -5.68211
293 7 -2.72663 -16.7945 1.26519
3350 15 -8.91712 -16.8316 4.34522
1482 6 -1.39711 -21.4923 -2.97628
1721 7 -3.18047 -16.2721 4.35102
1690 7 -0.930999 -19.8764 -4.44329
1495 3 -1.39224 -20.8611 -4.38633
1723 7 -1.96489 -16.8956 5.40288
59 4 -1.65843 -21.6919 14.6392
1851 1 -2.45484 -19.9459 11.1059
3352 6 -9.73565 -17.3534 6.50375
1839 2 -7.94072 -18.0596 16.7981
2125 7 -1.18097 -23.27 6.3963
2044 7 -5.87916 -20.366 13.4069
2028 6 -6.43726 -22.8702 16.4314
2184 7 -9.176 -21.9788 15.3203
241 7 -3.70084 -19.3992 15.7517
1539 6 -5.92468 -18.8324 6.58625
1849 6 -3.03918 -17.4397 12.5775
2037 7 -9.45931 -20.1328 17.475
3408 4 -8.83986 -23.5871 9.95415
2033 4 -8.64495 -22.8912 14.9446
3535 7 -7.67174 -16.6883 6.27882
242 7 -3.66997 -21.5009 14.0318
1844 6 -6.79038 -19.3337 14.8669
2131 7 -3.71903 -22.7075 11.7486
57 4 -1.52443 -19.7401 15.7972
3783 21 -8.07971 -19.5356 11.1331
60 3 -1.20715 -18.4807 16.428
2046 7 -4.43425 -20.4054 12.0185
1965 2 -3.54897 -23.4538 10.9793
3410 4 -7.78109 -22.0416 8.71847
1964 2 -2.12014 -23.3806 10.512
1831 6 -7.58539 -19.1305 17.894
1542 6 -4.61369 -17.5748 8.2117
1717 8 -7.8885 -19.6645 6.46443
3784 22 -8.41327 -20.4452 11.771
1840 6 -7.01688 -18.1649 15.584
1850 2 -3.94665 -19.5198 11.5614
2178 7 -6.62836 -21.8549 16.9473
1828 6 -5.45453 -18.1229 18.6363
1543 6 -3.9181 -17.649 5.90238
3568 7 -5.83462 -22.9472 8.62054
247 7 -2.22418 -18.1659 16.8393
3569 7 -7.60642 -21.0805 8.19973
2036 7 -5.61395 -17.343 17.85
3406 4 -9.01058 -22.3269 9.31563
1960 1 -1.79365 -22.9188 9.02113
2049 7 -1.01177 -16.9794 11.9686
2026 6 -7.34242 -23.3555 15.4414
1538 11 -6.96037 -19.5803 5.99891
2116 7 -1.44252 -20.8795 7.15856
1848 6 -4.0576 -18.3609 12.5464
1829 6 -6.26878 -20.21 19.6594
1856 11 -9.54842 -22.014 19.0891
56 4 -2.8743 -20.0064 15.4862
1718 7 -6.47114 -18.7143 8.74388
1843 6 -5.13252 -18.2859 13.4259
3154 7 -1.00765 -23.4895 16.5534
3541 7 -6.55024 -16.5027 10.9146
1845 6 -5.93188 -19.3886 13.8329
2121 7 -2.69226 -22.9962 8.37341
2047 7 -2.22836 -20.7439 11.7938
3785 22 -7.74601 -18.6261 10.4951
2048 7 -2.11676 -16.821 10.6688
1827 6 -4.30354 -18.1212 19.4328
1853 2 -1.88009 -17.4991 11.592
1541 6 -5.77454 -18.3845 7.94532
1834 6 -8.48862 -21.1027 19.0577
3409 4 -6.82514 -22.9937 9.0547
2180 7 -4.66614 -23.396 17.6095
1830 6 -6.45796 -19.1531 18.7181
2043 7 -7.33016 -20.2373 15.2506
2045 7 -4.51322 -19.2579 10.7056
1852 6 -1.4614 -18.9225 11.2827
243 7 -3.40933 -22.1219 15.6987
2126 7 -2.56298 -19.6168 9.02772
58 2 -3.09193 -21.3823 14.9472
2127 7 -3.32148 -21.1244 9.52737
1963 2 -2.37858 -20.491 9.64172
2042 7 -8.95902 -18.2513 16.4986
2130 7 -4.12323 -23.1035 10.1473
1832 6 -8.55143 -20.0883 18.0896
3356 6 -8.53416 -16.8225 6.96542
2129 7 -1.63158 -22.7091 11.2416
1841 6 -5.28079 -17.1372 14.2518
1833 6 -7.30173 -21.1707 19.8546
3876 21 -2.48438 -21.8559 18.6967
3357 6 -8.37355 -16.5624 8.31095
2030 6 -5.32203 -23.6381 16.7731
1719 7 -2.96918 -16.6428 7.39916
1720 9 -3.58524 -16.7296 9.51196
1959 1 -1.21471 -21.4132 9.15802
1759 7 -4.17168 -23.0203 5.68055
3566 7 -6.93344 -23.739 11.0267
1842 6 -6.34136 -17.0641 15.1693
3360 6 -9.50164 -16.7569 10.6538
3355 6 -9.40918 -16.9087 9.21773
244 7 -1.26182 -22.4748 14.039
1837 19 -3.14229 -16.8849 19.2319
1545 16 -4.50301 -16.9899 9.4264
1544 6 -3.73992 -17.2945 7.18628
2041 7 -7.94371 -17.0275 17.2877
3536 7 -7.40749 -16.0231 8.52216
957 7 -9.57028 -16.3415 20.4821
1822 6 -4.11081 -19.1749 20.3564
3083 2 -5.57016 -10.9237 1.75039
3339 6 -9.30381 -15.8091 0.917562
3084 2 -6.08759 -9.7863 2.71244
3825 22 -5.48234 -13.7141 5.43231
3327 6 -8.27388 -12.1215 -1.64393
3241 7 -5.76288 -10.1042 3.69855
3525 7 -7.79926 -13.0864 0.93182
3331 4 -6.75141 -13.3466 -2.70065
3245 7 -7.39511 -9.08491 -0.484079
3230 7 -1.93586 -10.1442 -5.52405
3337 2 -8.73504 -13.3341 0.525665
3073 3 -2.00488 -9.76901 -4.46748
3085 6 -7.63352 -9.82715 2.64662
3325 6 -8.58533 -11.2982 -2.70903
3242 7 -5.6814 -8.77165 2.58058
3336 3 -4.29909 -12.7532 -3.04053
3236 7 -2.33657 -9.42496 3.0039
3521 7 -4.28769 -11.7127 -3.42153
3522 7 -3.36629 -13.1481 -3.38987
984 9 -5.95565 -13.2353 -7.74082
3234 7 -4.779 -9.29145 -0.625108
3796 22 -4.65942 -11.0987 -5.70668
3687 22 -3.65607 -13.1521 -7.18402
3345 3 -7.67725 -15.016 2.77561
3519 7 -7.60486 -14.2475 -5.59905
3795 21 -5.80859 -10.9985 -5.82857
103 6 -1.1539 -12.5107 -1.04697
3334 2 -7.25119 -14.7247 -4.66384
3341 6 -8.73447 -15.9185 2.18408
3243 7 -6.87867 -11.5944 4.63948
3520 7 -8.83172 -14.0277 -3.13771
3523 7 -4.20087 -12.7325 -1.9914
3517 7 -4.97101 -14.4975 -5.22952
3333 4 -5.50321 -13.5315 -3.40963
3797 22 -6.95782 -10.8983 -5.9505
3238 7 -3.86936 -11.7396 0.74458
3087 6 -8.39607 -10.469 3.6129
273 7 -1.64011 -12.2341 -0.131112
130 4 -1.34021 -15.4083 0.174051
3529 7 -7.22765 -15.4111 3.68528
3515 7 -7.75601 -11.0462 -3.41097
763 15 -8.98848 -13.7481 -8.53477
134 4 -1.77984 -16.3117 1.13765
3329 6 -9.22208 -12.4316 -0.619519
129 2 -2.14309 -14.7313 -0.926991
800 16 -5.83118 -13.9704 -8.36757
3530 7 -6.84709 -14.8643 2.05245
3090 6 -9.59742 -9.13763 1.44453
3686 22 -2.67028 -11.9971 -8.93809
3527 7 -9.30903 -14.8201 -0.994828
3518 7 -7.42698 -15.8321 -4.70601
3240 7 -5.99027 -11.9362 2.06101
288 7 -2.62493 -15.5397 -1.58005
3229 7 -2.42594 -10.5001 -3.74712
962 7 -9.10342 -12.5019 -6.54701
287 7 -2.9454 -14.1065 -0.352549
3330 15 -6.97375 -12.6226 -1.5748
3531 7 -8.09199 -14.0105 3.0678
3335 4 -7.76939 -14.1287 -3.37049
3091 6 -7.88752 -11.3231 4.66284
3079 6 -3.56215 -9.53487 1.19483
3239 7 -5.98789 -10.7155 0.712134
3237 7 -3.63224 -11.3578 2.44684
3685 21 -3.16305 -12.5746 -8.06095
3526 7 -7.79976 -15.0926 -0.303071
3082 2 -4.10837 -10.9758 1.56068
3338 2 -8.81064 -14.7724 -0.0446901
128 16 -1.07891 -15.1447 -3.57753
3332 4 -5.79818 -14.3264 -4.50083
2063 7 -0.964542 -13.2671 2.4343
3089 6 -8.17801 -9.17553 1.5816
3524 7 -9.45365 -13.4648 1.28505
286 9 -1.46799 -15.7313 -2.9796
105 6 -1.28112 -13.7065 -1.67158
3081 6 -2.66716 -8.94621 2.06778
3092 6 -8.66849 -11.9771 5.53295
3226 7 -2.87347 -8.96128 -2.17224
1702 7 -9.12849 -16.3716 -7.21543
1694 9 -2.90958 -15.8854 -5.42686
3231 7 -1.00283 -9.58736 -4.16703
2522 7 -8.18298 -8.84599 -6.58668
3078 6 -3.99825 -8.85707 0.0332201
3868 21 -4.74312 -9.13071 -8.97037
3823 21 -5.55296 -14.2806 6.44217
822 6 -8.10793 -9.75552 13.0005
789 2 -3.57066 -10.3579 16.5749
3259 7 -9.55726 -14.0587 10.0516
981 7 -0.873179 -11.3628 13.3916
2060 7 -3.8671 -12.1044 7.55881
825 6 -9.39877 -11.8285 14.2852
3363 6 -8.62315 -16.2419 11.6087
2059 7 -2.71334 -10.8076 5.75647
3719 22 -3.01015 -13.8395 18.0607
1870 6 -2.81133 -11.944 7.53185
775 6 -7.26011 -9.81797 17.5657
821 6 -9.17893 -9.4667 13.7891
3253 7 -9.05764 -12.3428 8.19604
3718 21 -2.16968 -13.0635 18.2535
1858 16 -6.63816 -15.8372 15.7086
3539 7 -8.40834 -15.676 13.6166
802 15 -2.58463 -9.73542 10.9723
770 6 -9.49108 -11.6533 19.9649
824 6 -8.40296 -12.1142 13.3772
3873 21 -6.50677 -10.772 8.19134
1023 7 -9.28151 -13.6552 15.5948
798 5 -6.31697 -13.7618 20.0518
956 7 -9.32547 -15.2784 19.1731
795 6 -5.15789 -11.1829 13.6521
1864 6 -1.11192 -13.8611 11.8689
3542 7 -6.76429 -15.1778 12.0224
772 6 -7.30153 -12.6476 19.8425
997 7 -7.48987 -8.99558 12.5388
2056 7 -4.38782 -15.3444 16.3768
2039 10 -3.42166 -16.0901 18.1617
1867 6 -2.0147 -12.479 8.63536
1866 16 -4.80011 -13.6248 9.7008
3271 7 -1.41834 -9.72749 20.4911
773 6 -7.09746 -11.5818 18.9242
983 7 -1.27234 -10.0366 14.3296
781 6 -4.99305 -9.85383 16.618
796 6 -5.48056 -11.11 12.3446
776 20 -5.3876 -11.8072 18.3151
3875 22 -6.46419 -11.925 8.07036
2054 7 -4.76046 -14.2324 15.1092
1855 15 -2.267 -15.3268 13.4839
2057 7 -4.50181 -14.6545 12.0531
1846 6 -4.22522 -16.2282 14.2906
1860 6 -2.36806 -14.4326 12.386
3720 22 -1.32916 -12.2876 18.4463
1861 6 -3.57962 -13.6837 10.3817
801 15 -6.71956 -11.3096 11.8347
1863 6 -2.30064 -13.1614 9.83651
1859 3 -4.12452 -15.1352 15.3579
2058 9 -5.47353 -13.7416 10.3807
980 7 -5.91904 -11.4911 14.4037
793 6 -2.93416 -10.625 13.0974
979 7 -2.29156 -11.681 15.4025
1869 6 -2.09073 -11.2276 6.5812
998 7 -8.03795 -13.1279 13.2213
769 6 -9.26213 -10.6016 18.9965
3364 6 -9.04188 -16.218 12.9027
976 7 -3.2167 -10.7448 17.5724
799 13 -6.08089 -14.5276 19.2753
986 7 -3.66831 -10.0584 9.25248
780 6 -6.05652 -10.3141 17.3811
978 7 -3.90344 -12.3853 15.7117
3244 7 -8.2956 -12.6998 6.21128
797 3 -1.48781 -10.4507 13.3743
1865 6 -1.29989 -13.2721 10.6722
791 6 -3.83915 -11.105 14.0422
794 12 -4.63488 -10.6187 11.4886
3366 3 -7.29237 -15.7339 11.2545
3824 22 -5.62356 -14.847 7.45201
771 6 -7.93932 -10.6378 18.4638
820 6 -7.71986 -11.0577 12.7478
803 2 -3.36754 -9.22708 9.89552
2053 9 -7.36841 -15.9308 16.286
790 2 -3.38061 -11.4766 15.4127
1862 6 -3.53557 -14.2586 11.6486
792 6 -3.43261 -10.2799 11.8706
3874 22 -6.54934 -9.61917 8.31221
3543 7 -7.51694 -15.0336 10.41
768 6 -8.65457 -12.715 20.3234
1847 6 -3.16387 -16.3525 13.4017
2055 7 -3.11644 -14.6798 15.3992
977 7 -2.7834 -9.57678 16.3788
3260 7 -9.24251 -12.3328 10.4544
3793 22 -5.7429 -5.68743 1.79984
3220 7 -3.97136 -3.99867 -7.70255
3836 22 -8.31327 -5.16301 0.0771059
3837 22 -6.95076 -3.29541 0.272048
2360 6 -8.79622 -5.50372 -5.87429
3693 21 -7.51453 -2.55369 3.31324
813 6 -1.4567 -4.77241 4.33251
3246 7 -7.7752 -7.42045 0.206089
3496 9 -8.18316 -6.61447 2.98872
3059 6 -2.75831 -7.57998 -6.5724
2371 6 -8.70717 -4.38703 -3.76197
2524 7 -9.07531 -2.16415 -2.47598
3070 6 -4.85452 -5.03763 -3.22646
3095 3 -7.39836 -8.49827 0.418909
2365 6 -9.07997 -3.14036 -5.73856
2374 6 -9.11415 -2.01669 -3.53287
3065 6 -3.3738 -8.38058 -2.97187
3228 7 -4.4909 -3.46539 -1.79973
280 7 -1.74329 -5.08609 -4.09476
3144 9 -1.54873 -2.5486 1.87912
122 6 -1.91867 -1.67958 -5.9513
3076 6 -3.14734 -4.77269 -0.0175405
3247 7 -6.36576 -8.24709 0.633522
3058 6 -4.5603 -6.21894 -7.31233
3057 2 -5.27131 -5.57708 -8.47593
3066 6 -4.58264 -6.37978 -3.57059
3075 6 -2.63946 -6.94094 0.763171
3080 6 -2.25781 -7.6904 1.82253
121 6 -1.38488 -2.3491 -3.65889
3227 7 -5.05523 -4.36383 -4.11911
2518 7 -7.56033 -8.32343 -8.72111
3071 6 -4.46935 -4.53834 -2.06486
3835 21 -7.63192 -4.22934 0.174606
3056 2 -4.83612 -4.13347 -8.39622
3074 6 -3.55692 -7.53739 -0.159307
2519 7 -9.31094 -8.53874 -8.57344
3223 7 -6.34448 -5.65518 -8.37602
3060 6 -3.42098 -6.90404 -7.56696
3294 16 -8.51379 -5.85398 3.48044
3791 21 -5.13632 -5.62049 2.78633
3235 7 -1.73044 -7.08185 2.57656
3221 7 -5.72636 -3.64788 -8.13236
2370 6 -8.77078 -5.55984 -4.4495
3063 6 -4.23185 -6.62638 -4.93694
3249 7 -9.44238 -8.49609 -0.793816
3694 22 -6.36253 -2.52239 3.18235
3225 7 -5.93668 -5.54339 -5.70881
2523 7 -8.59403 -4.41217 -2.66098
3212 7 -3.52088 -1.9246 -8.91699
2949 16 -2.28586 -1.91267 1.84998
2541 9 -8.78583 -6.37339 -2.83479
3072 18 -1.15431 -8.15753 -6.88762
3069 6 -3.85727 -5.35867 -1.05924
2362 6 -8.63037 -6.69483 -6.63503
2361 6 -8.64848 -6.57887 -8.05435
3233 7 -1.7631 -5.04003 1.49131
2357 6 -8.85121 -5.35976 -8.6648
2388 16 -8.56248 -6.66613 -3.71444
990 7 -2.34811 -4.34592 3.74893
3067 6 -4.15618 -7.30462 -2.58581
3232 7 -2.98128 -3.68617 -0.160864
811 6 -1.46468 -5.37671 5.5623
3792 22 -4.52981 -5.55351 3.77295
2358 6 -8.89593 -4.22279 -6.49247
3077 6 -2.36383 -5.54907 0.745379
123 6 -1.31745 -2.4841 -5.0351
3064 6 -2.94029 -8.51839 -4.26193
3062 6 -4.97519 -6.07524 -5.99163
3068 6 -3.9157 -6.81869 -1.28585
3061 6 -3.2773 -7.60797 -5.24628
120 6 -1.14017 -4.82082 -3.20409
2367 3 -8.51729 -7.83097 -8.8785
2521 7 -7.29779 -7.97488 -5.40175
285 9 -1.72499 -2.70341 -7.56724
2948 11 -4.85942 -1.85462 0.978999
2364 6 -9.40495 -1.85059 -7.76904
2369 6 -8.87797 -3.16045 -4.34524
3143 8 -5.78766 -2.17929 0.779004
2368 3 -8.31223 -8.00016 -5.91162
3695 22 -8.66669 -2.58513 3.44409
127 16 -1.86229 -1.80914 -7.29671
2359 6 -8.91115 -4.19281 -7.89129
3142 8 -4.59776 -1.81657 1.91071
2363 6 -9.10545 -2.93132 -8.54113
3279 6 -8.9386 -6.14735 4.74897
2366 6 -9.42405 -1.96035 -6.37703
3224 7 -2.90444 -6.88038 -8.58062
3214 7 -2.31382 -4.17092 -8.81
118 6 -0.943335 -3.44272 -2.91849
2520 7 -9.14093 -8.28549 -5.24835
3490 7 -6.93696 -5.9864 5.55961
989 8 -3.36558 -6.18592 5.66558
2219 15 -1.96288 -3.27585 11.5348
975 7 -4.31074 -7.42177 12.3544
2223 3 -3.7192 -4.32299 9.5288
3054 2 -1.71269 -3.70442 18.8272
819 16 -4.52863 -7.15626 8.19056
970 7 -5.97835 -4.03685 15.9158
783 4 -4.55767 -6.74181 15.0085
2418 7 -4.46818 -5.05971 9.71344
3186 7 -1.00189 -4.53678 15.8456
3215 7 -2.80064 -5.41213 19.6529
3209 7 -1.30704 -1.87399 19.8979
3217 7 -1.90111 -4.03044 17.8845
3049 1 -1.67627 -2.19738 18.8877
968 7 -8.65122 -8.36531 16.6955
785 4 -4.47958 -5.91737 13.8812
1016 7 -8.26603 -2.09264 12.0693
784 4 -4.55216 -4.59991 14.3603
832 6 -9.36353 -5.21459 13.0355
2203 2 -8.2371 -2.40156 7.90123
3222 7 -4.96358 -6.12623 20.2923
973 7 -3.27533 -6.15869 12.0824
857 2 -8.24576 -2.90095 12.7995
2417 9 -6.89595 -4.05561 8.07617
2210 6 -4.01074 -3.06572 10.2903
2515 7 -9.06789 -2.71626 20.0602
808 6 -1.09565 -8.44409 9.05775
3053 2 -2.75207 -4.29935 19.8516
2513 7 -8.12004 -5.94612 19.008
788 3 -4.23396 -6.39345 12.5353
2419 7 -2.79229 -4.80442 9.91045
805 6 -2.32142 -6.68445 7.19839
804 6 -2.51368 -8.33634 9.00457
2211 6 -3.13786 -2.6439 11.3194
972 7 -5.08226 -6.30391 17.0511
971 7 -4.25759 -3.75654 16.3608
833 6 -9.31878 -3.91515 12.4592
967 7 -6.95523 -7.59714 15.0735
858 4 -8.57991 -2.28984 14.1224
1014 9 -7.59988 -5.5893 13.413
985 7 -4.31724 -8.75198 10.322
2205 6 -5.11195 -2.25269 10.0758
806 6 -3.11005 -7.38412 8.13928
777 6 -6.6704 -8.25605 15.886
2222 16 -6.18582 -4.04825 8.69344
810 11 -2.66141 -5.74155 6.23783
782 15 -4.45897 -8.08512 15.0596
969 7 -4.45341 -3.753 13.6986
779 6 -5.37444 -8.72316 15.864
2405 7 -7.77499 -3.14099 7.3007
996 9 -4.91664 -7.80134 8.78016
1015 7 -7.24358 -3.37092 12.9517
3210 7 -1.61648 -1.98855 16.8032
787 4 -4.7443 -5.87366 16.089
2517 7 -8.64187 -7.71732 19.7041
786 2 -4.9561 -4.43227 15.7891
3219 7 -6.08116 -2.29315 20.1713
2406 7 -9.1409 -2.85477 8.43031
860 4 -7.5247 -1.53903 14.7621
3052 1 -4.20108 -3.63242 19.9191
3491 7 -7.69833 -6.78599 7.82061
974 7 -5.03811 -6.04628 11.8588
856 16 -8.3942 -5.61952 13.9087
2206 6 -6.16832 -2.71232 9.24715
2356 2 -8.80151 -5.28362 19.4615
3213 7 -4.86704 -3.93996 18.9927
3277 6 -7.95266 -6.24837 5.74602
3121 6 -0.990881 -8.76032 20.1587
2412 7 -2.44202 -2.24833 13.9328
2420 7 -3.69853 -4.18955 8.44373
2514 7 -8.41654 -4.26987 19.1416
778 6 -7.62528 -8.64197 16.8059
861 4 -9.17463 -1.80783 16.2297
2204 6 -7.24665 -1.88094 8.90556
3048 1 -3.07078 -1.64278 18.6646
826 15 -9.47509 -8.11802 14.0503
2213 6 -3.50588 -1.60734 12.1602
862 4 -9.56856 -2.419 15.036
3055 2 -5.42655 -1.54228 19.7081
3208 7 -3.49088 -1.87387 17.6926
3051 1 -4.01659 -2.1378 19.787
3281 6 -8.36742 -6.63584 6.98655
3218 7 -5.59402 -1.45794 18.6355
3282 6 -9.70951 -7.02534 7.23622
3494 7 -9.39423 -8.15239 9.11856
1018 7 -7.12134 -1.81042 16.8151
807 6 -0.943068 -6.77029 7.26349
3025 16 -0.96722 -7.41227 15.7469
1775 7 -2.56132 3.77568 1.64284
3167 7 -0.964315 5.26361 -6.51262
2372 6 -9.65928 -0.813706 -5.56495
2186 6 -6.8262 1.01524 4.16391
2983 13 -4.63674 4.12348 -7.1526
2185 6 -7.02913 2.34931 2.1426
2191 6 -6.08031 0.314689 5.09296
1792 7 -7.3873 4.88446 0.658914
2201 19 -4.3329 0.349784 5.10958
2926 6 -4.38808 -0.695872 0.30346
2950 16 -7.26127 3.87564 -3.34366
282 7 -3.1703 0.135042 -5.96369
2404 9 -4.93358 2.12649 1.96267
2927 6 -2.08103 -0.883838 1.02438
2187 6 -6.22875 1.63662 3.05315
2188 6 -8.20825 1.16189 4.39188
685 7 -1.64408 2.6424 5.00162
1616 18 -4.64925 5.96812 4.23788
2939 6 -7.55691 3.02535 -7.55891
2947 15 -8.08827 3.92033 -8.48779
2982 5 -4.97561 4.04275 -8.26608
3148 7 -7.75548 5.51367 -6.7901
2929 19 -1.7924 3.55924 -3.89304
2190 6 -8.89881 2.05285 3.6223
2202 16 -4.94716 1.53206 2.71626
2941 6 -7.20041 1.77076 -8.07169
125 6 -2.04558 -1.22091 -3.1275
3129 7 -6.42949 -0.275018 -0.226523
2956 6 -5.92844 5.10954 -8.79914
2914 6 -1.11192 2.28242 -1.53688
2922 6 -3.79515 1.62831 -1.11315
2916 6 -1.49658 1.32335 -0.562517
2921 6 -2.7583 1.01553 -0.370309
2925 6 -3.09953 -0.177432 0.28677
2399 7 -8.97791 3.23637 1.84487
3135 7 -5.89902 -0.371455 -3.04099
2933 6 -7.07783 2.47612 -5.39237
3138 7 -5.04337 -0.699146 -7.15895
2938 6 -7.45464 3.38161 -6.27908
2920 6 -3.44478 2.49443 -2.15456
2936 6 -6.22596 0.438669 -3.66776
2940 6 -6.57353 0.890218 -7.27036
1791 7 -4.34778 4.51324 -0.303177
3133 7 -6.06572 3.12428 -1.609
1770 7 -0.885108 4.8629 0.757984
2924 6 -5.37132 0.0574802 -0.29938
2193 6 -8.87494 0.39333 5.31938
1774 7 -3.99586 4.73918 2.25526
2403 10 -3.56116 1.32531 4.6074
2923 6 -5.12234 1.25595 -1.00321
284 7 -3.17759 0.572135 -3.70681
2937 6 -6.25887 0.156891 -5.00034
2932 6 -6.49181 1.71791 -3.1657
1789 7 -3.08991 5.7584 -0.78235
3147 7 -8.99825 4.79264 -5.62135
1609 6 -0.999645 5.61493 1.52677
124 6 -2.62351 -0.63595 -5.36225
2934 6 -6.93355 2.69951 -3.97414
2942 2 -5.9637 -0.377145 -7.81523
3145 9 -7.12889 3.74261 -2.38977
3128 7 -4.07706 2.87382 -2.96566
3170 7 -1.77415 1.76975 -8.12445
3847 21 -8.88119 0.319938 0.298803
2189 6 -8.30599 2.64402 2.49729
2398 7 -6.6065 2.60981 1.09488
1617 3 -2.97343 4.46465 2.37113
2919 6 -2.14885 2.71191 -2.41233
1608 6 -2.04766 5.63513 2.43471
1639 3 -4.15456 5.58622 -0.500949
2935 6 -6.58314 1.18221 -5.94153
1786 7 -3.38926 5.36241 -2.92544
3134 7 -7.23708 1.98004 -1.07287
3131 10 -2.95718 3.71244 -4.60942
2931 2 -6.27475 2.05635 -1.65837
1773 7 -3.0057 3.98747 3.31219
2951 3 -7.90187 4.78334 -5.9692
3136 7 -6.07422 -0.896569 -5.24809
126 6 -2.67814 -0.380395 -4.01906
3146 7 -7.18169 5.10455 -5.2513
2373 6 -9.61815 -0.850623 -4.18107
3137 7 -6.68059 -1.18579 -7.5724
1818 7 -7.642 4.72258 5.38494
2984 16 -4.2163 3.26495 -9.08894
687 7 -1.04573 0.317715 4.16314
2952 6 -7.35825 4.96148 -8.9403
283 7 -2.37938 -1.1916 -2.11305
1794 7 -5.77339 5.58374 1.27627
684 7 -0.894427 4.83201 5.64361
1640 3 -6.73774 5.72719 0.674275
2516 7 -9.58279 -0.921375 -8.30268
1781 7 -1.47455 6.15463 -4.33497
1785 7 -3.79935 6.14698 -4.26073
2484 7 -5.45683 3.54598 14.111
3168 9 -4.49567 3.5081 19.6649
2144 7 -6.65435 2.16622 8.52185
1982 6 -4.88229 5.61444 9.08114
2148 7 -8.10834 5.01394 11.6729
2319 2 -3.46254 4.25185 12.8148
3008 6 -1.88651 1.93119 17.925
859 2 -7.8162 -1.17559 16.1829
2143 7 -4.51573 2.65807 7.3535
1819 7 -6.58427 5.47934 6.53779
2411 7 -2.83469 1.25794 13.0203
2485 7 -4.31987 3.19609 16.904
2328 2 -6.39409 2.95631 16.5548
2400 7 -6.12347 -1.08149 6.69048
2329 2 -7.55813 3.19233 15.5714
1985 6 -3.17923 4.8144 7.46537
2141 7 -2.73145 3.90908 7.01162
2490 7 -3.39791 1.87405 15.5995
3009 6 -1.9013 0.512897 18.0459
2327 2 -4.13211 1.91388 14.7491
2324 1 -5.05869 3.64383 16.1665
3139 7 -5.0312 0.501108 20.2179
2321 1 -3.64857 5.93466 14.6576
2215 1 -3.63096 0.941714 13.7013
2408 7 -6.7795 0.540482 11.1419
2256 16 -2.26557 -0.344443 8.90157
2478 7 -4.47101 4.28157 12.3114
2491 7 -5.02593 1.35331 15.0412
1989 6 -6.16522 3.12547 8.59323
2495 7 -7.51774 4.28947 15.323
2486 7 -5.92234 5.67385 16.0912
1984 6 -2.69722 6.05024 7.27372
2330 6 -8.86128 2.56972 16.2174
3141 7 -6.77644 2.15487 19.5562
2407 7 -8.22788 -0.0973932 9.39328
1992 2 -9.75031 3.66017 11.8236
2496 7 -8.89315 4.07803 17.6983
2946 14 -7.91652 -0.640249 19.1216
1983 6 -4.32476 4.59332 8.24078
2413 7 -1.63744 -0.938777 12.9415
2218 14 -3.29048 -0.639249 15.5018
2954 6 -8.06014 5.92649 20.0458
2489 7 -2.9924 5.5357 16.659
2325 2 -5.10492 5.1576 16.5943
2492 7 -6.19881 1.82892 16.5403
2145 7 -8.62393 3.12944 9.264
2945 2 -7.51503 1.52596 20.1368
3149 7 -9.15289 5.82852 19.8155
1986 6 -6.1584 5.35595 9.57588
2944 6 -7.09451 0.153645 19.8843
2487 7 -5.15271 5.17679 17.7479
3047 2 -3.08494 -0.145405 18.7385
2479 7 -2.99943 3.23919 12.7578
1990 2 -8.23022 4.05313 9.7
1017 7 -7.62478 -0.14822 16.5113
2208 6 -7.34213 -0.719742 9.56088
2254 5 -1.43009 -0.632344 9.97218
2207 6 -5.33523 -1.10214 10.8121
1668 2 -7.3672 5.72404 5.80218
2334 6 -9.54308 1.50165 15.7242
2192 6 -6.68679 -0.456456 6.0182
2146 7 -8.84569 4.78717 9.10298
2216 6 -3.16046 -0.287575 14.3113
2332 6 -9.42431 3.14845 17.3671
3182 7 -2.62801 2.55661 18.4333
2320 1 -3.55216 4.46401 14.2765
2214 2 -4.81037 0.503412 12.7292
2209 6 -6.5392 -0.403823 10.6201
1988 6 -4.93925 3.35855 8.10898
1991 2 -8.39032 4.03646 11.2181
3206 7 -3.08334 0.184553 19.854
2195 6 -8.75322 -1.32406 7.10216
2280 6 -1.93317 4.78914 10.8925
2217 2 -2.61532 -1.32626 13.3616
2194 6 -8.12336 -0.488237 6.12698
2497 7 -9.10934 0.929804 14.8688
2454 7 -2.32885 3.88283 10.3962
2409 7 -5.81361 0.450288 13.3221
2323 1 -4.55708 3.40921 14.7761
2494 7 -7.43151 2.77809 14.6024
2281 6 -2.40514 5.18375 12.1156
2410 7 -4.87898 1.27943 11.9511
2493 7 -6.73441 3.12677 17.6
2212 6 -4.55455 -0.753928 11.9286
2147 7 -7.75217 3.20619 11.502
2440 9 -2.32171 -1.17973 8.4363
3207 7 -4.00901 0.308617 18.2429
2150 7 -9.75806 3.6884 12.8971
2480 7 -2.60489 4.17396 14.7873
3140 7 -8.49325 1.83076 19.7502
1987 6 -6.76403 4.13564 9.35261
2943 1 -5.75973 -0.261414 20.3806
2255 13 -1.29554 0.239825 10.7092
1817 7 -9.30949 5.84361 7.14213
2326 2 -3.8619 5.90855 16.1823
1019 7 -6.61722 -1.29814 14.1716
2276 6 -0.882374 5.47715 10.2741
1797 7 -8.16072 9.61327 -7.16385
1784 7 -3.01603 8.18113 -3.58238
1551 6 -8.17645 13.096 2.56799
1783 7 -2.63476 7.68094 -1.98838
1631 6 -6.18561 7.0729 -3.28525
1549 6 -9.51583 13.1607 2.2789
1778 7 -1.02103 6.59822 -0.725217
1553 6 -7.31384 13.0559 1.52115
1632 6 -7.71534 6.68237 -1.43619
1753 7 -6.30082 11.5749 3.75176
1637 6 -8.47338 7.892 -3.479
1466 6 -3.38366 10.9468 -3.69019
1474 16 -6.84113 9.5688 -0.1491
1670 7 -8.96691 10.4023 -1.22586
1673 7 -1.5463 11.0732 -6.47044
1469 6 -4.91163 11.2592 -5.59192
1671 7 -9.22165 11.4939 -3.441
1600 2 -3.37068 11.1262 4.42369
1460 6 -5.77853 11.1588 -3.30763
1629 6 -5.07327 6.56033 -2.59438
1676 9 -7.38059 8.80802 -0.239146
1663 6 -7.09894 6.79141 4.79047
1644 6 -9.25816 9.196 -5.33271
1660 16 -9.36163 6.4503 0.418674
3160 7 -2.02402 7.91826 -7.51446
1642 6 -9.01634 6.80419 -0.869571
1463 6 -4.35266 10.2726 -1.54444
1787 7 -4.97393 7.6504 -4.99312
1764 7 -4.32184 10.6655 4.33899
1815 7 -5.10578 8.38372 2.63338
1593 1 -6.28917 12.6125 4.13746
1675 10 -2.87232 9.18614 0.0965841
1682 7 -1.74022 13.4598 1.24548
1636 6 -7.01153 8.2512 -5.23156
1548 6 -9.04344 13.3346 -0.073767
1790 7 -4.13109 6.08275 0.474598
1768 7 -4.38246 8.53315 5.37502
1467 6 -2.29379 10.9627 -4.56869
1594 2 -7.70519 13.1822 3.95491
1472 6 -7.19011 11.9505 -5.13326
1816 7 -6.90611 10.0028 2.49364
1755 7 -8.34179 12.5347 4.55603
1672 7 -2.19585 10.3828 -1.99617
1461 6 -8.22397 11.2815 -2.98542
1633 6 -5.26895 6.15351 -1.32073
1666 6 -6.91979 9.11021 3.09835
1814 7 -8.87964 9.57704 3.88619
1606 6 -1.16447 8.57702 4.39212
2960 20 -3.72966 6.38637 -8.70488
1788 7 -6.86074 8.67149 -6.27649
1492 11 -3.86739 11.3924 -7.79615
1458 6 -5.64923 10.4549 -2.04812
1686 8 -4.82451 11.2279 -8.08607
1757 7 -2.37089 12.8017 4.82217
1468 6 -2.49381 11.0698 -5.88696
1462 6 -7.07372 11.5761 -3.78565
1591 2 -5.79981 13.0178 1.68285
1604 6 -3.43166 8.18703 4.84681
1596 1 -3.38888 12.653 4.57972
1627 2 -2.65132 7.3475 -3.00255
1465 6 -4.71927 11.1889 -4.20751
1687 8 -3.19839 10.6805 -8.22968
1457 6 -8.01098 10.7532 -1.76344
1493 16 -6.57345 11.9485 -7.3702
1471 6 -6.19975 11.6636 -6.05907
1635 6 -6.0056 7.54795 -4.6321
1647 6 -9.1047 9.75539 -6.67738
1803 7 -8.86904 11.3479 -8.53127
1661 6 -5.9778 7.08206 4.06758
1750 7 -5.31886 12.092 1.36818
1664 6 -8.12189 8.88802 3.83483
1626 2 -1.27611 6.94509 -3.58672
2973 2 -1.7381 8.41914 -8.42283
1603 6 -3.28079 7.01901 4.15391
1473 19 -4.03751 9.64693 0.0665037
1607 6 -1.03394 7.42396 3.64366
1595 1 -3.8458 13.3532 3.2919
1470 6 -3.75661 11.2127 -6.41618
1726 7 -6.96477 13.1001 -0.547183
1662 6 -8.09973 7.71675 4.67959
1630 6 -7.49473 7.20478 -2.75344
1765 7 -2.81107 10.9173 3.4471
1638 6 -8.23679 8.45896 -4.71226
1674 7 -8.2022 12.1554 -5.57031
1602 6 -2.34751 9.07582 4.95363
1459 6 -6.78503 10.298 -1.26349
1464 6 -3.28832 10.7021 -2.30414
1605 6 -2.15111 6.61158 3.47611
1665 6 -5.91902 8.18055 3.21289
1756 7 -3.53518 12.8576 2.30922
1688 9 -5.90182 11.6263 -8.00216
1793 7 -7.30334 6.42645 1.36798
1634 6 -6.55112 6.24388 -0.714924
1669 4 -9.14217 7.3941 5.6299
3161 7 -1.29603 9.33691 -7.96822
1628 2 -3.74985 6.2969 -3.22269
1552 6 -7.71029 13.146 0.222721
1601 2 -2.38932 10.4581 5.43841
1598 2 -5.80078 12.8459 5.58029
1478 6 -0.8845 13.4457 -3.57422
1592 1 -5.45498 13.398 3.15358
1529 15 -9.50724 13.5559 -1.32887
1767 7 -1.37549 10.8615 5.44086
2140 7 -1.70591 6.18227 6.79083
2955 6 -6.09112 7.29673 19.7219
2142 7 -6.83686 6.07625 10.0023
1980 18 -5.62584 10.6214 14.3071
3158 7 -3.09781 9.5381 16.1952
2481 7 -4.65585 6.42469 14.2629
2965 6 -2.90545 8.6921 20.3545
1758 7 -3.87855 12.8836 6.77508
2183 7 -8.54132 11.3284 14.3398
1981 3 -6.14641 7.99207 13.3517
1967 6 -4.95065 10.8573 12.7949
1977 6 -3.19832 7.0463 8.10321
3150 9 -9.09755 7.88983 18.9037
1589 4 -8.74995 8.17576 9.16841
1766 7 -2.72138 10.623 6.45789
1974 6 -3.83979 9.08981 9.9127
1588 4 -8.49402 10.1409 8.20924
2032 2 -8.14305 12.2989 13.9087
1747 7 -8.07445 11.1192 7.85381
3773 22 -8.97735 8.49773 12.4661
1748 7 -8.67867 7.27143 9.78031
3567 7 -9.62793 13.1673 10.4158
1972 6 -5.36152 8.46572 12.2103
3877 21 -8.00639 11.7075 18.4919
1973 6 -5.07066 7.545 11.2956
2136 7 -1.69606 8.34585 7.33823
2182 7 -7.88448 12.2563 12.7916
2958 16 -8.13996 7.89294 18.6909
1975 6 -4.43648 7.8069 10.086
3151 7 -4.0639 11.3833 18.6155
1667 4 -8.69275 6.26967 6.358
2139 7 -6.3831 6.98822 13.3098
3159 7 -2.10017 8.57952 17.4328
1969 6 -4.94601 9.75902 11.9531
2029 6 -5.10274 12.4459 16.1496
1976 6 -4.16802 6.81273 9.07353
1968 6 -4.38605 12.0753 12.547
2962 6 -5.27073 9.65334 19.0148
3152 7 -6.22038 10.0961 18.6494
2953 6 -7.44674 7.07678 19.5026
2027 6 -7.03353 12.7712 14.7767
2135 7 -2.24508 10.1571 8.98649
2967 4 -1.4177 11.2816 18.4669
2025 6 -5.97691 12.0663 15.1345
1971 6 -4.29694 10.0986 10.7566
2961 6 -4.071 10.3984 19.0075
1978 6 -2.75505 9.22631 9.01404
1597 2 -4.26415 13.221 5.73092
3157 7 -1.25752 9.0812 16.0224
1587 2 -7.6229 9.06952 8.72085
2133 7 -3.90464 11.695 9.33243
2134 7 -5.36156 6.47968 11.551
2964 6 -4.03835 8.04359 20.141
2959 6 -5.20408 8.33943 19.5186
2966 15 -1.72282 10.6949 19.618
1746 7 -7.03181 8.6705 7.89067
2277 6 -0.958704 7.1008 12.0735
2132 7 -4.38577 12.8096 13.3921
1760 7 -6.05636 11.9688 6.18282
2488 7 -3.99836 6.95437 16.5786
2138 7 -7.1438 8.44596 13.4961
1745 7 -6.86671 9.32249 9.45045
1970 6 -4.12915 11.4517 10.3551
2957 6 -5.48611 6.36049 20.4453
2137 7 -5.59466 8.11027 14.2304
2969 4 -1.55549 10.7091 17.1742
2322 2 -2.41789 6.75115 14.1286
2483 7 -2.68108 7.83633 14.2253
2179 7 -4.25307 11.7342 16.4017
2972 3 -2.07885 9.41048 16.7163
2279 6 -1.93157 6.36158 12.732
1979 6 -2.44902 8.24718 8.10016
1966 6 -3.92562 12.4395 11.3154
3772 21 -9.52968 9.5166 12.4167
3565 7 -7.03451 12.3325 9.78598
2963 6 -2.90636 9.96712 19.6796
2128 7 -1.6478 12.9451 10.7007
2968 4 -1.06581 11.676 16.3189
3407 2 -7.37449 13.3465 10.0517
3153 7 -1.21673 11.6641 15.238
2482 7 -1.57234 6.54051 14.757
1761 7 -6.37824 13.7339 6.03134
2123 7 -1.16869 12.3878 8.48639
3164 7 -1.06247 6.37056 17.9945
2031 4 -9.10573 13.4505 14.1163
292 7 -0.866645 -17.4841 2.75095
268 9 5.1066 -17.2726 -5.56118
1925 6 2.1289 -21.3333 -1.00892
75 2 5.48424 -16.6529 -7.71097
2302 6 2.69396 -23.6525 -8.19398
2091 7 0.75142 -21.6428 3.25506
1923 6 3.03237 -22.4422 -1.04942
1951 2 2.54685 -16.7957 -2.53034
2305 6 2.69255 -22.4018 -7.52178
2113 7 4.77427 -19.3978 -2.43921
1913 6 1.98087 -19.8268 4.59641
2092 7 0.892558 -19.9804 2.64862
1159 6 7.40718 -21.7114 -4.47984
2106 9 0.723949 -19.4004 -0.703262
1692 7 -0.80388 -21.4266 -5.13301
1949 2 1.86081 -20.6203 -2.34517
1342 7 6.50564 -20.8697 -1.41457
1284 6 6.74292 -18.0616 1.19419
1926 17 3.07874 -23.0715 2.49621
1216 6 6.8786 -17.4688 5.0661
1953 4 3.90541 -17.4012 -2.23591
1290 2 5.3249 -17.7624 0.879881
2307 6 1.54135 -21.5811 -7.47435
2119 7 1.48749 -22.3745 5.3743
1948 16 0.772818 -19.6955 0.171044
1343 7 5.84637 -22.086 -2.57559
1922 6 2.79952 -22.4347 1.1379
1914 6 2.30759 -18.5066 4.40667
2311 16 0.729927 -19.2448 -7.20611
1921 6 3.41868 -23.0593 0.189121
2465 7 0.656212 -21.9052 -7.98963
1424 7 6.682 -22.0737 1.53096
66 12 3.4135 -17.0305 -9.01495
1952 4 1.71226 -18.0625 -2.59762
1681 7 -0.594308 -22.5863 1.59841
2448 9 6.97797 -21.218 4.43272
2309 6 3.81165 -21.9651 -6.88588
1374 7 6.33661 -16.9827 4.23452
1920 6 1.96898 -21.4228 1.46041
2270 6 5.99565 -22.4978 5.46665
1912 6 1.9617 -17.5594 5.38738
1440 7 4.68787 -18.2175 1.60405
133 4 -0.710791 -16.7368 1.95185
290 7 1.23467 -16.9419 0.9935
2273 16 6.06631 -21.4362 4.61343
1436 7 6.43217 -16.2885 -1.11578
1954 4 3.85746 -18.7971 -2.31579
74 15 5.51911 -17.906 -8.31395
2468 7 4.75855 -20.5935 -5.51007
2467 7 4.70578 -22.6365 -6.76177
2108 7 0.770057 -20.3343 -2.32652
1344 7 6.50345 -22.2751 -4.7525
2469 9 0.0695011 -19.4891 -7.8503
255 7 5.22347 -20.7618 -8.92988
2118 7 -0.214174 -21.9402 5.17803
1919 2 1.50612 -20.9444 2.80607
1433 7 6.16475 -20.0235 1.68348
78 6 6.97182 -16.6193 -5.77214
1341 7 6.56783 -23.5555 -0.905803
2089 7 2.97385 -18.2567 3.57331
2093 7 3.2297 -22.8662 -1.99311
2466 7 2.7397 -19.0056 -5.66384
1283 6 7.06194 -19.4239 1.45414
1153 2 7.42392 -23.0379 -1.39193
2107 7 1.94364 -21.2662 -3.29818
91 16 5.93184 -17.0863 -4.9984
2308 6 2.82134 -19.8829 -6.31584
1286 6 7.81015 -17.1967 0.970358
2310 6 3.81801 -20.7938 -6.13125
1918 15 2.59377 -20.6268 3.68478
2446 7 3.80016 -22.6699 5.44229
2111 7 0.639969 -17.9937 -2.82354
1154 2 6.78823 -21.7107 -2.10042
1439 7 5.15033 -18.269 -0.0330597
1950 4 2.53316 -19.224 -2.41669
2306 6 1.67014 -20.2528 -7.02825
1924 6 1.59085 -20.8127 0.219591
2269 6 4.78308 -23.0593 5.73881
2112 7 4.86939 -16.9881 -2.1225
1165 15 7.89166 -21.7606 -6.80912
64 6 4.31369 -18.0003 -9.08286
2461 7 4.87356 -23.564 -8.82146
1155 6 7.72591 -21.359 -3.14567
1272 6 7.71514 -22.3148 1.99188
257 7 4.67921 -16.4589 -6.98087
1915 6 1.12846 -20.2445 5.57879
1340 7 8.05589 -22.728 -0.475985
1958 2 0.690349 -21.6633 5.75817
245 7 -0.813556 -17.7431 15.7222
2080 7 5.11649 -19.741 13.3749
52 6 3.09124 -18.3957 15.8599
1962 2 -0.339712 -23.3339 7.10565
3828 22 2.61516 -20.6243 8.26786
249 7 2.881 -21.6371 16.5947
2315 2 5.07826 -23.1017 10.5512
1957 1 0.362331 -21.9956 7.1701
48 20 4.60649 -18.1997 17.0396
1917 6 0.74628 -19.3042 6.56421
1854 14 -0.163515 -19.2498 11.2503
2090 7 0.690672 -17.2588 7.05074
2473 7 5.35533 -22.5836 9.60712
2086 7 6.20367 -19.4383 15.605
2471 7 0.815335 -23.1994 11.4628
1219 16 5.04083 -17.6854 6.50737
2120 7 -0.511024 -21.4134 9.95006
2078 7 2.33785 -17.2822 10.6614
62 2 2.42944 -20.6175 18.6006
55 4 -0.713478 -20.8206 15.2395
2087 7 7.52263 -20.4925 16.0669
1955 2 -0.0520848 -19.5265 7.8124
1377 9 4.71847 -18.3393 7.12425
2077 7 3.14948 -17.4452 9.13051
2314 4 3.00597 -23.0336 11.8341
1895 2 3.25016 -17.0036 10.1274
51 6 1.37923 -19.8336 15.2508
253 7 5.1228 -20.7908 18.957
65 6 4.04327 -19.1821 19.8665
63 6 2.75874 -19.3601 19.3568
1373 7 6.59755 -19.0592 8.12051
1901 6 5.31559 -18.8534 12.7725
239 7 0.0663109 -18.982 13.7244
254 7 6.11376 -19.5672 19.6165
61 2 3.01341 -20.595 17.167
1896 6 4.46249 -17.3801 10.9302
2316 4 3.67978 -23.5685 10.7012
1898 6 5.71676 -16.7222 10.942
2474 7 5.75789 -23.9494 10.6382
2085 7 6.78818 -20.7224 14.5029
1899 6 6.53362 -18.1831 12.6554
53 6 2.50277 -19.6108 16.1636
248 7 4.08741 -20.3594 17.3467
45 6 4.71507 -16.7449 15.9868
2272 6 7.10198 -23.001 6.16251
240 7 1.36687 -16.9669 13.325
70 5 6.84596 -16.7741 17.4284
50 6 1.72198 -17.7246 14.0155
49 6 1.00905 -18.8635 14.2807
252 7 0.822716 -18.5177 19.0407
68 6 2.20275 -17.1723 20.2006
2318 4 3.90109 -22.2049 12.5003
250 7 2.99392 -21.5256 19.0383
246 7 -0.430097 -18.5124 17.2743
2114 7 0.543912 -19.3159 8.73616
2079 7 3.24647 -18.8539 11.984
1904 6 7.70808 -18.2778 13.4477
1916 6 1.1512 -17.9829 6.39832
1910 3 7.11681 -19.9956 15.2112
2472 7 1.16614 -22.7133 13.0926
67 6 1.83586 -18.3679 19.4904
251 7 1.29553 -20.8446 18.641
54 15 0.595391 -21.006 15.2935
2476 7 5.86189 -21.3869 11.7303
1214 6 6.30561 -18.0295 6.21875
73 15 1.08772 -16.3712 20.4513
1215 6 7.09702 -18.5576 7.21108
1897 6 6.73216 -17.1929 11.6955
47 6 2.81104 -17.4158 14.9371
2477 7 3.51088 -21.4728 13.3202
69 3 5.21797 -20.129 19.8347
2117 7 1.2939 -22.0494 7.75591
3827 22 4.80304 -19.8606 8.37377
2313 2 1.58858 -23.3955 12.3071
2317 4 5.01634 -22.1269 11.6832
71 13 6.8269 -16.3007 18.4664
1900 6 4.28721 -18.3971 11.9493
3826 21 3.70906 -20.2425 8.32074
2115 7 -0.975412 -18.8756 7.85674
1956 1 -0.626425 -20.9447 7.81645
43 6 3.81421 -16.4538 15.1251
1361 7 7.23418 -22.7805 20.4258
101 6 -0.354964 -11.483 -1.67572
2819 7 6.97691 -10.4311 -6.95369
2648 6 6.79127 -9.61522 -4.89435
1879 4 -0.389699 -12.2974 4.22762
2657 6 4.1036 -11.5394 -1.96085
2666 6 6.5057 -12.5585 3.88302
1438 7 5.41958 -15.8194 1.80553
3776 21 4.2849 -13.8855 -6.00305
2668 6 5.20047 -12.2495 4.34018
1445 7 7.14118 -12.7459 -1.94342
111 6 0.0789654 -8.97303 -0.709133
1444 7 7.43547 -14.3264 -2.37414
258 7 5.19262 -15.9174 -8.48732
2828 7 4.8231 -12.5762 5.33999
2646 15 7.67974 -11.7735 -5.5894
2650 6 6.2219 -9.64099 -3.68375
3777 22 4.08602 -14.3994 -4.98223
94 6 0.375867 -14.5785 -7.69375
2663 6 4.7052 -11.1018 2.25281
1878 2 -0.0763768 -12.8242 2.84362
2824 9 2.58847 -12.2274 0.763649
1287 1 7.59803 -15.709 0.651922
269 7 -0.244495 -15.3186 -7.20809
138 2 1.51531 -11.084 -7.12651
2064 7 -0.81197 -12.9419 5.04407
2827 7 3.28409 -11.4824 3.90867
2822 7 3.96893 -12.3807 -2.63726
2660 6 4.02469 -10.3369 0.191308
1437 7 4.17044 -15.9617 0.45204
2664 6 6.86926 -12.0914 2.62476
80 6 7.78415 -15.7971 -7.88554
1293 2 7.31162 -13.7395 -1.44962
2825 7 7.89585 -12.4014 2.32483
97 6 2.23905 -12.9672 -8.67515
1446 7 5.17083 -14.2077 -1.35418
92 6 1.20727 -15.0989 -8.70553
99 2 0.913697 -13.3686 -4.84361
274 7 2.37447 -9.12988 -3.88984
271 7 1.12026 -14.4435 -4.88056
98 15 -0.0989773 -13.1403 -5.87201
289 7 1.27742 -15.6988 2.21045
1875 4 -0.088074 -10.9367 4.38217
108 6 0.167916 -10.1814 -1.45085
2661 16 2.98784 -12.4871 -0.0797886
2665 6 6.04096 -11.3933 1.82521
1893 15 2.24715 -16.2397 5.32171
272 7 1.70602 -12.7387 -5.19298
93 6 0.630388 -13.4305 -7.06252
1877 4 0.266652 -10.419 3.13884
2826 7 6.44289 -11.1321 0.850059
95 6 1.46415 -12.4956 -7.59551
102 6 0.225358 -11.9431 -2.78736
1880 3 0.672925 -9.02226 2.96934
2667 6 4.32604 -11.5489 3.55317
297 7 3.62065 -11.0901 -6.83752
100 6 0.211007 -13.0772 -3.5344
1447 7 6.0504 -13.4796 0.187
1876 4 0.216036 -11.4806 2.2235
291 7 0.78025 -14.6897 -0.278551
2659 6 4.83652 -9.3468 -0.372326
2820 7 5.74928 -11.2693 -5.97542
2062 7 0.842153 -13.4667 2.80378
259 7 7.61735 -15.6077 -8.91766
106 17 1.15589 -11.0753 -3.4448
104 6 -0.724299 -13.9696 -2.92417
2658 6 3.64343 -11.4352 -0.611941
132 4 0.0699191 -15.2527 0.393679
2647 2 6.68305 -10.7425 -5.92008
109 6 1.79915 -9.0535 -2.97163
2817 7 7.52988 -12.8397 -7.99552
2669 6 7.4542 -13.1102 4.80609
3778 22 4.48373 -13.3716 -7.02375
2656 6 5.43498 -9.43052 -1.66741
2654 17 5.46792 -10.7692 -3.57523
300 7 5.17454 -10.1621 -8.95635
1435 7 7.43247 -15.0264 1.53947
2655 6 4.89389 -10.519 -2.20864
1289 2 5.20269 -16.2702 0.765224
1874 15 -0.156199 -10.316 5.58748
137 1 2.87144 -10.5287 -7.4306
1294 2 6.08517 -14.2342 -0.710355
2662 15 3.75279 -10.4264 1.5573
2061 7 0.391629 -11.4649 1.15952
299 7 1.08046 -10.9156 -6.08711
107 6 1.00479 -9.97529 -2.4547
298 7 0.810988 -10.5032 -7.76293
136 1 3.16616 -10.5123 -8.91487
2072 7 1.84645 -13.8602 5.2599
1288 1 6.30933 -15.6948 -0.195852
142 2 2.86425 -9.11844 -6.88731
131 2 0.612476 -16.1499 1.48375
2065 7 1.43994 -8.94103 2.18343
304 7 2.77936 -9.26606 -5.74234
2110 7 2.41889 -16.1722 -3.4377
294 7 4.26162 -12.29 -8.9236
2109 7 2.23554 -16.2163 -1.70774
76 6 6.78991 -16.3082 -7.09366
1890 5 0.214945 -14.2298 12.5527
30 2 5.64966 -9.8355 16.5837
3194 7 7.16528 -11.3456 7.44175
143 2 4.4625 -9.37886 18.7433
28 6 6.59048 -10.7048 15.8192
1894 15 3.17347 -15.61 9.93135
32 6 5.82634 -11.4233 18.2945
1885 6 3.04161 -13.7601 8.47392
3669 22 2.23957 -11.3133 16.5942
228 7 4.47786 -12.2619 16.7646
3667 21 1.20258 -11.83 16.5359
2076 9 -0.36779 -13.759 14.3853
3030 6 3.881 -9.56353 11.245
229 7 5.67734 -13.4087 17.4457
306 7 3.59993 -9.7845 18.2978
139 1 4.35407 -9.61191 20.2503
296 7 2.28443 -10.1553 20.2998
2070 7 3.37349 -11.417 7.1267
1872 6 -0.765571 -12.0818 8.7153
2673 6 7.09767 -13.8492 5.94227
2832 7 7.52611 -14.9836 7.65475
227 7 6.62724 -9.45692 18.5781
1888 6 2.34775 -15.4867 6.44118
46 16 3.32849 -14.8178 13.3187
1881 2 1.42996 -11.0182 7.98817
1891 13 0.961881 -14.7584 11.8649
3872 21 -0.829386 -15.4424 7.78494
3035 6 5.92486 -10.8674 10.6137
1873 6 0.0252422 -11.3838 7.85622
1884 6 2.98224 -15.1093 8.65435
1887 6 2.14652 -14.1058 6.31041
2074 7 4.56872 -13.3168 9.93785
31 1 5.77234 -9.94484 18.0786
2069 7 1.49995 -9.98617 7.64854
3028 6 3.97538 -9.80625 12.637
42 6 5.26933 -14.6327 14.5867
135 2 3.3018 -12.0435 20.3524
237 7 5.47612 -13.7918 13.878
1889 3 3.52759 -13.0814 9.73186
3029 6 2.91854 -9.55138 13.5213
3814 22 1.04327 -14.3671 17.2137
2068 7 1.84816 -11.0026 9.02238
1883 6 2.47263 -13.2259 7.36249
35 15 7.26824 -14.3215 15.9222
2075 7 3.67198 -12.0529 9.46496
295 7 3.22683 -12.1634 19.2325
3272 7 -0.486224 -9.44815 18.1536
3034 6 6.69407 -11.4235 9.58646
3813 21 0.169542 -15.0966 17.4374
3033 6 4.91652 -9.91759 10.3034
3193 7 5.96705 -11.2331 11.5929
1886 12 2.75727 -15.918 7.65074
3196 7 5.39243 -9.65706 6.93193
44 6 5.88334 -16.159 16.3891
1868 20 0.319848 -12.6177 10.1501
225 7 4.6237 -10.1005 16.3171
2071 7 2.09962 -11.6829 6.0145
23 6 7.72436 -10.3213 15.1194
1892 16 0.443002 -14.0449 13.9223
2073 7 2.91746 -13.1141 10.6438
270 7 2.86093 -14.4753 19.6388
2088 9 6.9552 -15.5109 10.1387
3190 7 3.13522 -9.75347 14.5726
3036 6 6.54745 -10.9658 8.27702
3038 6 5.5296 -10.0516 7.98503
41 6 4.0425 -15.2331 14.383
27 6 7.28475 -13.0066 15.4301
3668 22 0.165521 -12.3464 16.4774
238 9 3.86912 -14.218 12.8223
33 2 5.48722 -12.3865 17.1573
29 6 6.48121 -12.0459 16.0901
1882 2 2.34455 -11.792 7.09083
40 6 6.20078 -15.0328 15.6141
34 14 6.4126 -11.8528 19.4187
3189 7 4.82708 -10.3435 13.0687
3037 6 4.73626 -9.51318 8.95239
1871 6 -0.721953 -10.9998 6.67877
1911 16 6.05659 -15.7682 9.9918
2831 7 6.09365 -14.2734 5.94207
3815 22 -0.704258 -15.826 17.6611
96 6 2.20046 -14.2612 20.5066
987 7 -0.573849 -9.09189 9.72188
3039 16 7.61537 -12.3608 9.90748
982 7 -0.956185 -9.82297 12.6167
2081 8 8.10835 -15.5703 11.8163
3197 9 7.25294 -13.0272 10.5215
3032 6 2.65361 -9.04089 10.8252
116 6 -0.350438 -3.21615 -1.71553
699 7 2.33937 -4.92707 1.32251
2905 9 6.56443 -5.67679 -0.38248
702 7 3.67635 -7.08957 1.15548
117 6 0.237709 -4.11895 -0.914154
814 6 -0.0925828 -4.53222 3.8738
115 6 0.0619895 -5.48159 -1.28744
2733 6 6.9131 -1.95207 -0.914081
2998 6 3.51935 -4.03581 -4.08433
3119 6 0.113077 -6.85472 -8.80228
281 7 -0.728663 -3.32313 -5.38542
3124 2 0.628118 -5.90545 -7.77621
3000 6 3.26106 -3.0264 -3.09993
2067 7 -0.243458 -8.4612 2.79127
3123 4 1.65446 -5.16903 -8.6776
536 2 4.66082 -2.14002 1.49765
991 7 2.01774 -4.72479 4.25846
311 7 4.63924 -5.39814 -8.55022
816 6 1.01822 -4.97624 4.6608
3176 9 4.37627 -5.65355 -4.57603
2997 6 3.08462 -3.8204 -5.39815
308 7 6.40512 -7.93339 -8.79143
3174 7 3.5031 -4.28768 -6.31899
2996 6 2.05332 -1.79416 -4.65907
3117 6 -0.752047 -7.87943 -8.54441
992 9 1.08092 -3.89289 2.49898
2652 6 7.47286 -8.38749 -5.10646
568 16 4.74729 -7.98784 4.66975
276 9 2.82614 -6.97339 -3.42523
538 6 6.25815 -4.60147 4.00697
544 6 7.72564 -2.3425 4.53129
303 7 4.05204 -7.31226 -6.76305
140 1 4.26224 -8.21378 -8.74479
3273 7 2.4472 -4.44237 -8.30799
817 16 0.124953 -3.92392 2.69162
2823 7 5.17534 -8.62078 0.325522
357 9 6.08935 -2.82898 -5.86601
2734 6 7.62173 -4.09093 0.0225138
689 7 2.95348 -2.01006 4.0612
278 7 0.809886 -3.84153 0.0414422
543 6 6.6442 -2.18693 3.72696
2821 7 6.93756 -6.69669 -2.15067
3173 8 1.91858 -2.72445 -7.73515
114 15 0.457163 -6.5567 -0.461413
310 7 5.73009 -5.93185 -7.22486
141 2 4.11834 -8.3144 -7.23989
145 2 5.56253 -5.94543 -8.35738
2995 6 2.39675 -2.68697 -5.64794
3275 7 1.00307 -6.17858 -6.77616
541 6 4.27116 -4.50675 2.00206
545 6 7.23376 -4.6055 4.96326
539 6 5.88881 -3.36896 3.31926
2653 6 7.47501 -7.38992 -4.11619
112 6 0.712918 -7.76004 -1.15784
540 6 5.42552 -5.69787 3.78577
701 7 4.27603 -7.84823 2.48721
2999 6 2.43713 -1.91655 -3.31629
698 7 3.65311 -5.18871 0.0526503
550 6 5.52989 -6.83008 4.69809
2651 6 6.90787 -7.53944 -2.86501
119 6 -0.592356 -5.80566 -2.43365
2836 7 7.53438 -5.27722 -3.94988
2887 7 6.30977 -3.89838 -1.58645
3175 7 3.61539 -3.26042 -2.09533
2735 6 6.94768 -3.34465 -0.898666
2888 7 5.55875 -1.85644 -2.61813
186 6 6.31761 -1.51963 -7.2571
700 7 2.73247 -6.95706 2.74424
2994 11 1.94816 -2.19107 -6.93213
548 3 3.69082 -6.90031 2.25634
547 3 3.26887 -4.52756 0.92257
204 16 5.83282 -2.72508 -6.78075
113 16 2.3995 -6.72455 -2.57373
279 7 -0.757862 -6.87388 -2.72498
693 7 4.57953 -2.33476 0.425736
721 9 5.22036 -8.80357 4.91422
110 6 1.6356 -7.84567 -2.23523
542 6 4.50363 -5.67623 2.71991
3274 7 -0.262948 -5.16698 -7.67643
337 7 7.19627 -2.8928 -4.58958
691 7 2.6866 -1.55511 1.39685
537 6 4.91536 -3.34934 2.30717
302 7 5.01869 -8.87484 -6.9229
3001 16 4.41925 -5.05251 -3.82119
697 7 3.05967 -3.51364 0.565936
2649 6 6.23622 -8.805 -2.63393
144 2 5.52194 -7.30302 -9.03357
2066 7 1.06142 -8.65983 3.97952
305 7 1.92388 -8.56788 -7.20441
336 7 8.06133 -3.34388 -6.02131
2752 16 7.47504 -5.47585 -0.103286
150 6 7.97922 -5.27486 -8.36267
694 7 5.56223 -1.47796 1.60618
146 6 6.70814 -5.11794 -8.84224
277 7 -0.20001 -2.18533 -1.34138
2834 9 7.93692 -8.90306 -6.98011
2886 7 7.8686 -5.63765 2.2346
275 7 -0.514823 -9.16896 0.181266
339 7 4.74122 -1.56233 -8.67081
551 6 6.54171 -6.80144 5.69485
815 6 0.938712 -5.7606 5.73795
3122 6 -0.35098 -8.66837 18.9177
3845 22 5.95478 -7.35099 12.4048
2229 6 0.540711 -2.08501 9.34702
17 19 7.15762 -7.15184 9.70871
205 6 6.07109 -2.92401 17.3473
2226 6 -0.0028126 -4.14286 10.5304
360 7 3.01194 -3.29782 16.2145
809 6 -0.378835 -7.58535 8.23787
3191 7 0.797918 -8.01002 11.374
2421 7 -0.30813 -5.04185 11.106
3846 22 4.56894 -5.89112 11.2512
2227 6 1.53933 -2.94429 9.15306
3203 7 5.96966 -2.50715 13.4683
3192 7 2.41221 -8.88045 9.79152
210 6 4.06346 -3.42478 16.1945
988 7 0.755153 -7.7107 8.30632
812 6 -0.375868 -5.96999 6.21921
2230 16 2.14748 -5.18428 10.0818
3817 22 2.9924 -7.38333 16.7836
1 6 7.43567 -2.71913 10.3229
3031 6 1.69145 -8.57 11.7224
3027 6 1.91733 -8.78058 13.0833
3816 21 3.66406 -7.17646 15.8608
3020 6 1.63857 -4.68668 13.712
3 6 7.51118 -4.04103 10.0239
364 7 6.89997 -5.93275 13.9574
3023 6 1.69232 -6.11443 13.5205
995 7 3.03966 -5.59495 6.22292
3019 6 0.652165 -4.50278 14.5451
3120 6 0.517067 -7.64702 18.57
2233 6 4.66837 -2.05925 7.23771
2224 6 -0.874482 -3.12399 10.7138
3270 7 1.04014 -7.66336 17.6433
219 10 7.37897 -8.43566 9.64286
3021 6 -0.289485 -5.08266 15.2293
3015 6 3.28613 -3.03169 12.4745
3125 4 1.57018 -5.55011 19.62
2423 7 5.53546 -2.39175 6.81927
2225 6 1.18313 -4.13984 9.85905
3844 21 5.26183 -6.62106 11.828
3871 21 -0.621681 -2.24913 6.27705
312 7 5.46807 -3.97432 19.6401
3026 15 0.951288 -8.33376 14.0123
2231 6 2.62259 -2.34866 8.40277
3195 7 3.89578 -8.88047 8.54024
2234 6 3.86997 -2.97242 7.90752
207 6 6.79058 -3.7763 16.4923
18 16 6.58988 -4.56483 9.14422
3187 7 2.49241 -6.51876 12.9421
220 9 5.82193 -3.9088 9.0283
3211 7 -0.00309851 -2.26462 17.5072
3022 6 -0.194937 -6.51848 15.0666
213 4 7.07295 -5.13294 14.6749
147 6 7.47296 -3.27104 19.5864
226 7 5.76644 -8.80968 16.2241
2422 9 3.05764 -4.88485 9.9748
206 6 6.11779 -4.33836 15.4454
160 18 7.01168 -2.01105 18.5208
358 7 4.31629 -4.58166 14.3302
994 7 2.03149 -6.55748 7.37672
3118 6 0.635289 -6.61792 19.56
301 7 3.30796 -7.74087 20.5592
818 3 2.20701 -6.29738 6.35466
148 6 6.45618 -4.0806 19.9935
3276 7 2.33899 -5.27767 18.9193
3024 6 0.812672 -7.00674 14.1469
208 6 4.76073 -4.12187 15.2045
3014 6 1.514 -2.58825 13.9925
2424 7 4.02913 -4.10803 7.99464
3818 22 4.33571 -6.96974 14.9378
2228 6 -0.631351 -1.87431 10.0352
3018 17 0.425606 -3.0327 14.8003
3185 7 3.95337 -3.70203 11.9229
3013 6 2.23289 -3.4995 13.3369
309 7 5.57864 -7.0401 19.5378
209 6 4.7293 -2.78152 17.1972
3199 7 4.94745 -1.86785 11.0092
3017 6 3.33777 -1.6485 12.4025
214 7 6.66689 -2.12265 9.78269
703 7 6.72457 -7.63162 6.41634
993 7 2.62996 -7.16788 5.88501
3188 9 -0.526046 -8.28635 15.6987
549 6 7.40379 -5.72665 5.80885
359 7 4.08932 -2.12459 17.7525
224 7 7.73199 -8.40292 16.1291
307 7 4.43385 -8.31005 18.4541
3050 2 -0.891601 -1.72171 17.6139
3044 4 6.23795 -1.45967 13.4603
3216 7 -0.660412 -3.99072 18.9674
1779 7 3.29881 5.83669 -3.16317
1621 6 3.55694 6.07607 -0.534806
2729 6 7.74338 -1.34784 -0.00933119
2993 6 0.607466 0.403964 -4.80833
2904 9 2.8152 1.18107 -7.23748
2244 3 7.59169 1.22923 4.81973
2891 7 6.30746 2.65898 -5.59269
3002 3 2.14546 -0.943511 -2.23634
2741 6 5.81679 0.710137 -3.27302
681 7 6.82834 3.28026 1.66092
530 6 2.6026 1.29707 3.92897
518 6 3.93175 5.10024 5.06502
2740 6 6.71022 2.7488 -2.56902
3177 7 1.08868 -0.592904 -2.14315
682 7 5.20531 3.16099 0.898251
2986 15 -0.407979 3.19537 -7.73703
3172 7 0.449231 0.623836 -3.80381
2991 6 1.35344 -0.658368 -5.29985
2730 6 7.78785 0.0658251 -0.089163
1777 7 4.52683 5.91303 -1.10547
2742 6 6.01175 2.02864 -3.53353
2988 6 -0.0339393 0.953771 -7.04717
528 6 -0.185253 4.13671 5.28982
513 6 5.89039 5.09151 3.67465
678 7 3.50506 3.12877 2.28508
2746 2 6.78656 4.28771 -2.71225
2899 7 4.58501 2.83258 -7.49049
2743 1 5.46371 2.64794 -4.84775
2889 7 7.94815 2.81743 -0.846482
2990 6 0.714014 -0.179297 -7.51389
2902 7 4.72204 5.90892 -5.71459
2989 6 1.34262 -0.992037 -6.66015
690 7 4.3126 -0.82693 3.94846
526 6 1.72815 2.35029 4.26272
3169 7 -0.16917 1.61404 -9.02056
521 6 1.18474 4.53644 5.19945
2751 16 2.62536 2.15768 -7.34978
3132 9 1.50438 3.97305 -1.99529
683 7 6.07466 4.64213 0.740643
2903 7 5.44557 4.64119 -6.71907
517 6 4.05019 3.73732 3.05943
520 6 2.13455 3.64755 4.60505
692 7 3.95353 -0.370293 1.58615
2744 1 5.28539 4.13363 -4.59669
2749 2 3.46059 4.34811 -6.3639
516 6 5.28722 4.20307 2.77796
2747 2 4.18932 2.05128 -5.48382
534 2 3.27491 -1.1005 3.50321
2930 16 0.818128 3.53193 -2.49131
2890 7 5.33036 0.0034753 -4.02083
2430 7 7.2062 2.24562 4.68279
515 6 5.22884 5.533 4.78923
176 6 7.39169 -0.751834 -6.68908
2987 2 -0.668132 1.86612 -8.12514
2748 1 3.73872 2.81643 -6.74694
2737 6 6.25415 0.119095 -2.08
2897 7 3.33605 2.12563 -4.86915
3126 7 2.16203 2.46824 -0.781047
1624 6 2.3167 5.96036 -2.65543
531 6 2.2295 -0.0209023 3.65392
2992 6 -0.0521885 1.23459 -5.70837
2745 2 6.57558 4.74026 -4.13555
3171 7 -0.399048 2.17259 -5.30557
533 6 0.905137 -0.271466 3.68962
2915 6 0.24737 2.61788 -1.67115
1619 6 2.33274 6.09149 -1.24532
686 7 3.65936 1.58173 4.01262
174 6 7.57477 0.509132 -7.21659
2898 7 4.38378 1.07592 -5.8057
2913 6 1.12242 2.10263 -0.727297
527 6 0.336327 2.05193 4.28504
2928 6 -0.813376 -0.535528 0.863631
3127 7 1.59767 0.529679 0.718312
2917 6 0.807388 1.04246 0.161336
532 6 -0.00973233 0.678897 4.05557
2431 7 6.95772 0.50173 4.28976
525 3 5.90988 3.82625 1.47594
2750 2 4.78716 4.83242 -5.91715
187 6 5.6532 -1.03065 -8.33118
2892 7 4.45383 4.27254 -3.93256
2736 6 7.03587 0.795383 -1.08618
3178 7 2.70083 0.0590625 -2.56263
529 6 -0.585459 2.95211 4.84003
185 6 6.01636 0.170012 -8.99022
181 6 7.09115 0.897713 -8.44981
2893 7 6.5275 5.81167 -4.13517
519 6 3.41548 4.09519 4.25339
511 6 7.13344 5.67131 3.45338
2895 7 6.03963 4.8203 -2.15142
3165 7 0.725347 5.42046 -6.70515
2739 6 7.27364 2.13926 -1.46172
2977 6 -0.498608 5.39177 -8.53024
2901 7 2.92303 4.87212 -7.12343
2900 7 2.78312 4.29796 -5.4822
695 7 6.50138 -1.2132 3.28103
2894 7 7.33514 4.37348 -4.87407
2896 7 7.74166 4.67883 -2.34242
3003 16 0.69418 -0.46305 -8.81967
2918 6 -0.486324 0.593792 0.128702
2976 6 -0.444099 4.031 -8.80769
2738 6 6.11433 -1.25025 -1.85942
3130 7 0.0467189 -1.10379 1.30788
182 6 7.42521 2.14888 -9.07773
535 2 3.51843 -1.26898 1.99419
2981 3 -0.240323 5.81828 -7.10781
688 7 0.629081 -1.34348 3.61776
3179 7 2.55904 -1.38119 -1.34901
3786 21 0.486354 2.67835 11.8074
3788 22 -0.66631 2.55099 11.7814
347 7 7.26735 5.90077 16.7017
190 6 5.34865 0.651711 19.5541
2239 4 6.18743 0.498767 6.85948
3045 4 6.9967 0.592711 13.8249
2252 6 0.847531 4.77568 9.0631
3004 6 -0.808477 2.56344 17.3873
3006 6 0.15058 1.81966 16.7762
3739 22 2.48975 4.31468 20.0599
202 2 5.69571 4.71351 13.2655
353 7 3.77663 4.79991 12.0656
203 16 2.01928 4.56419 14.1439
3737 21 2.57887 3.85203 18.9999
2439 7 5.39055 5.053 7.97428
3198 9 3.7943 0.478038 13.2201
3011 2 0.796828 -0.23157 14.8801
2435 7 2.78211 1.19766 9.50787
2237 6 3.06494 -0.146215 7.47546
3040 16 2.85818 0.477533 13.1938
349 7 3.78366 4.85601 15.9239
3010 15 1.13036 -0.325737 16.24
3205 7 5.93063 1.56497 12.2444
195 1 5.42554 3.42119 15.4442
2434 7 4.2166 1.77833 8.80963
3200 7 4.12276 -0.27381 10.9852
2245 2 2.78168 1.25968 7.28104
3042 4 5.57986 -0.60555 12.5098
2253 3 4.97635 4.23873 8.53759
3016 6 2.51918 -0.85343 13.1729
355 7 6.1041 3.85109 12.7097
344 7 5.81645 5.46933 15.3309
3184 7 1.05947 0.709572 14.4635
352 7 3.96901 5.94805 13.4705
342 7 4.45781 1.5711 17.0776
3787 22 1.63902 2.8056 11.8333
3043 2 7.19718 -0.70313 14.3581
3738 22 2.66801 3.38941 17.9399
3041 2 4.47476 -1.06458 11.6181
2428 7 5.7985 -0.238328 8.97723
2243 4 6.47759 0.325399 8.26226
351 7 3.12202 3.01288 13.4966
2436 7 0.567687 2.67568 8.88121
2235 6 4.26818 -0.756874 6.9728
398 14 7.75625 3.24786 11.1003
3046 4 6.03335 0.641568 12.7835
2437 7 5.43451 4.26971 9.5611
191 6 7.38222 3.54631 18.6027
2248 6 3.02113 5.64914 8.91994
3012 6 1.47571 -1.29736 14.0586
2433 7 3.47057 1.66676 6.52325
2238 15 5.13461 -0.071586 6.19774
2978 12 -0.755604 3.52174 19.6788
194 6 5.90242 3.09839 16.783
350 7 3.30339 3.154 15.9462
3202 7 7.07901 -0.75962 15.4383
2249 6 3.48789 4.36324 8.72441
200 1 3.31456 3.99067 14.0041
2236 6 2.34391 -1.0934 8.10778
2241 4 7.31676 1.02005 6.30223
2985 15 -0.769319 3.90609 17.3528
2432 7 1.69118 1.40054 6.96307
201 2 4.18198 4.91365 13.1058
193 6 5.31934 2.12825 17.5345
2250 12 1.68355 5.81906 9.07686
189 6 5.81009 1.76944 18.8211
2247 6 2.69112 3.26571 8.72651
199 2 3.93783 3.87383 15.4037
3183 7 -0.306212 -0.240935 14.7199
2979 6 -0.93257 5.75453 18.8753
343 7 5.43722 2.55021 14.7131
2251 6 1.32949 3.45481 8.91399
2246 2 3.15435 1.79368 8.69884
3005 6 0.185087 0.427482 16.9223
3181 7 1.05167 2.28752 16.2368
354 7 6.25857 5.60361 12.7827
2232 20 0.798014 -0.269385 8.59757
196 1 6.15604 4.60788 14.7549
2257 15 -0.473728 5.00718 9.08127
340 7 4.59906 0.0864682 19.1468
3180 9 0.479798 0.29236 20.2937
2438 7 5.43209 3.35983 8.07661
197 2 7.62794 4.44683 15.0543
188 6 6.83731 2.52353 19.4025
192 6 6.83546 3.87059 17.3815
356 9 1.73046 5.10433 13.4165
2980 6 -0.781136 4.37674 18.6523
198 2 7.6372 4.89932 16.5984
3007 6 -0.809102 -0.241939 17.5816
2242 2 7.81372 0.836838 8.64179
3204 7 7.44687 1.47566 14.2714
2426 7 7.54127 1.60023 9.38836
3741 21 4.94781 5.63901 20.301
523 6 1.68256 5.69398 5.83079
522 6 3.06295 6.01527 5.81696
670 7 7.98016 5.80743 11.1909
671 7 7.7275 5.4547 9.5362
1679 7 0.0176435 10.9416 -1.5589
1943 6 3.7157 8.37623 -5.13837
1931 6 4.68038 11.8589 0.270066
1613 6 2.44304 6.72987 1.45557
1947 16 2.30917 8.38419 -7.04876
2101 7 2.83034 8.10506 -4.47132
1776 7 4.53672 6.49834 1.33212
1611 6 0.0603097 6.48065 1.71421
510 6 7.00778 7.0716 5.36945
1146 15 5.91461 12.6142 -3.1389
1335 7 2.12947 12.4883 -5.21134
1150 2 2.87721 11.6881 -4.95857
1148 4 3.99182 11.6609 -5.97564
1333 7 3.89609 11.4727 -7.03936
1772 7 3.42591 7.49716 3.3394
1942 6 3.54796 8.29756 -6.50885
3767 22 0.610745 10.8237 3.23679
1946 6 5.96178 8.47678 -6.77685
1481 6 -0.374032 12.9251 -0.994732
1929 6 3.92984 12.3974 3.05253
1932 6 4.81695 10.9442 1.29303
1480 6 -0.327688 11.9075 -1.88799
512 6 7.70478 6.64093 4.22066
1939 6 3.98891 9.42885 -1.05702
1615 6 2.54573 7.25296 2.75856
2099 7 3.02841 9.74036 -0.626167
1620 6 3.64212 6.46103 0.752309
1339 7 7.02548 11.2351 -6.52154
1623 6 -0.0552208 6.54849 -2.67263
1678 7 -0.573179 9.9388 -3.66811
2103 7 7.03156 8.60864 -4.95684
2097 7 7.24629 8.14662 -2.85649
1944 6 4.69457 8.39841 -7.31879
2102 7 4.5123 8.37472 -8.39737
1928 6 3.98594 13.0811 0.643673
2094 7 3.55968 12.821 3.93375
3768 22 0.644462 13.1421 3.15889
1618 6 1.10123 6.23079 -0.52541
2096 9 3.90594 10.1178 4.03351
1771 7 1.38908 8.04513 4.44532
1337 7 7.02833 12.9778 -6.20408
1331 7 7.29098 10.645 -4.34404
1780 7 1.11554 6.23288 -4.40303
1147 4 5.03554 12.2236 -4.05852
1476 6 -0.735041 12.0748 -3.21808
1677 7 -0.176305 10.9709 -5.00328
1612 6 1.17764 6.44328 0.87933
1941 6 4.94783 8.51537 -4.56232
1151 4 3.6943 11.983 -3.79138
1769 7 -0.309838 9.29937 4.57222
1336 7 3.27 12.0713 -2.72968
1334 7 2.27974 10.7515 -4.83363
1940 6 3.98793 9.00378 -2.37402
1937 6 6.34586 8.79417 -1.00613
1421 7 7.76092 11.069 2.89813
1152 3 6.33013 12.1124 -6.38946
1338 7 5.96735 12.2314 -7.39491
1423 7 7.43995 12.9333 1.8632
1927 6 3.78572 13.1221 1.9629
3870 21 0.902182 9.98031 0.762639
2095 7 5.05531 11.6698 -0.77507
1933 16 4.71171 10.2044 3.54072
1622 6 -0.0595128 6.49599 -1.27104
1149 4 5.24197 11.927 -5.42483
2098 7 7.17305 8.56464 -0.358415
1141 6 7.8958 11.4396 -3.81119
2104 7 6.82244 8.32769 -7.41189
2100 7 3.07384 9.11304 -2.88196
1614 6 1.35206 7.57485 3.45093
1625 6 1.11485 6.25694 -3.31627
1936 6 6.27911 8.49025 -2.3592
1610 6 0.134975 7.23215 2.89699
1143 6 7.2847 12.4689 -3.1341
2105 9 1.70459 7.86217 -6.51965
2304 6 1.50317 12.9218 -8.32944
3766 21 0.627519 11.9829 3.19789
1938 6 5.1276 8.71357 -3.13145
1934 15 5.30752 9.66137 0.969051
1935 6 5.16369 9.26822 -0.2935
1945 6 6.07067 8.54122 -5.41837
1930 6 4.52176 11.1928 2.61663
3166 7 -0.327623 6.82595 -6.97142
1680 7 -0.17782 12.6471 0.0621764
3162 7 0.259497 7.76834 -8.70306
514 6 5.74904 6.46845 5.65142
2464 7 0.515581 13.1713 -7.92192
1475 2 -0.850146 10.9193 -4.15956
2463 7 0.826089 10.9419 -8.71868
2303 6 1.5899 11.6529 -8.84997
2300 6 3.89256 13.2405 -8.8796
1689 9 -0.616997 13.0484 -5.47569
1782 7 -0.934474 7.71223 -4.23833
2264 6 5.13508 9.38776 9.09453
2455 7 1.47266 8.05551 12.3567
1195 6 7.34456 13.2749 13.9064
1221 2 5.30631 12.3736 14.871
2261 6 3.96437 11.3198 7.49816
2290 17 1.55654 8.87185 14.527
2296 6 2.67351 9.74884 18.3448
1220 16 6.26015 13.0919 17.4176
2456 7 0.642427 8.97628 11.1647
2442 7 2.08847 7.93544 8.56513
2293 6 1.9595 8.09208 16.5984
2294 6 2.3091 8.4073 17.9784
2260 6 3.83021 9.23413 8.6991
1225 4 6.46692 8.81004 15.3013
2312 16 0.636696 11.4841 10.7969
680 7 0.902468 6.29849 6.29274
2262 6 3.22054 10.3025 8.00962
1379 7 4.58128 12.5676 15.6748
3163 7 -0.457377 8.24308 19.4473
1381 7 6.08577 8.26632 13.1791
1224 4 5.0699 10.0155 13.8119
2263 6 5.36385 11.3315 7.69987
2287 6 1.95016 12.4547 14.141
2291 6 1.95899 9.26589 15.9026
2453 7 0.393467 7.06459 10.2981
2275 16 1.87928 10.2744 7.69788
2443 7 5.52367 8.58354 9.82272
2470 9 1.19994 12.1746 10.4795
2975 6 -0.796717 6.29462 20.1217
2284 6 1.10931 10.1497 12.7794
2295 6 2.62409 10.8068 17.4566
2286 6 1.62755 10.2194 14.0008
2259 2 3.07382 8.01671 9.13251
2458 7 1.59212 7.19819 16.1847
1226 4 6.40653 10.183 15.6729
2289 6 1.51862 12.5251 12.8211
2267 6 4.694 13.1268 6.42343
2285 6 2.00088 11.2054 14.8088
2457 7 2.30442 13.3832 14.7168
1222 4 5.57823 10.9199 14.7905
1383 7 4.29365 10.316 13.1092
2124 7 0.297495 13.2643 6.64861
673 7 7.52893 6.3395 7.73602
2441 7 3.09108 7.93702 10.2015
2265 6 5.85856 10.5134 8.75752
677 7 5.17776 6.90313 6.47732
2258 15 3.83977 6.84341 8.85815
2445 8 2.88351 12.0891 5.95376
2462 7 4.75737 11.7079 19.6335
2970 2 -0.515053 12.8935 16.9321
2268 6 5.82814 12.4957 6.97188
2282 15 -0.572722 8.3399 12.6261
2444 7 6.82165 10.662 9.2233
2452 9 1.67575 10.8417 6.9238
1384 7 7.28224 8.06988 15.5753
2459 7 2.98884 11.8455 17.7636
1197 6 6.62956 13.1072 15.0874
665 7 7.52631 8.43131 9.1188
2278 6 -0.402795 6.59671 10.8651
3155 7 0.531326 12.9616 16.7098
1382 7 4.80566 7.89628 14.2533
2283 2 0.707122 8.85588 12.2454
1223 2 5.59641 8.63144 14.0806
1365 7 6.98271 12.9388 12.9363
1380 7 4.9163 12.7792 13.87
2292 6 2.20395 10.558 16.0706
2288 6 1.06309 11.432 12.0966
3156 7 -0.552733 13.0722 19.2161
679 7 3.29282 6.78936 6.44869
675 7 6.64938 8.59357 6.73957
2266 11 3.49507 12.4086 6.73
1196 6 7.07547 13.4771 16.3638
2460 9 2.02478 7.82571 19.7927
1385 7 6.84035 10.5902 16.6103
2297 16 2.31805 7.41427 19.0148
2974 2 -0.672161 7.71852 20.4031
2271 6 7.05627 13.1705 6.85096
2299 6 2.76484 11.2566 20.1739
2298 15 2.88915 9.94182 19.6963
2971 4 -0.791167 12.4964 18.3308
1456 7 7.70647 9.75679 18.5021
1378 9 5.29802 13.1198 17.1801
2475 7 3.18784 13.0854 9.98108
2301 6 3.89313 12.0903 20.1672
509 2 7.5113 8.03234 6.37763
1961 2 -0.799126 13.4596 8.45985
1453 7 8.12757 7.3737 18.0093
2122 7 0.104852 13.5118 9.17063
905 6 13.2078 -17.2675 5.18995
1387 7 12.6993 -22.9075 -6.81581
1160 6 8.28651 -21.4526 -5.48227
1350 7 11.517 -20.5794 -5.62588
1282 6 10.6874 -19.3422 2.01577
1166 15 10.8658 -19.7607 -3.8467
1162 5 12.4368 -22.3303 -0.245462
1161 3 9.0493 -19.7248 -1.78065
1268 6 11.2635 -23.0423 4.0312
913 6 15.8095 -18.7158 1.22751
914 6 14.1629 -17.0104 1.67495
908 6 16.6871 -20.5558 4.3687
1432 7 11.4744 -18.581 1.90217
907 6 15.772 -19.9977 5.22405
1163 13 12.2766 -22.5902 0.860677
1321 7 16.2427 -21.7288 -3.81153
1386 7 13.1669 -22.4902 -8.42025
2790 7 10.1542 -17.8115 -8.49127
902 6 15.1056 -18.3915 3.51006
1172 6 13.7617 -19.6054 -4.03039
1186 6 8.36843 -22.6687 -8.97818
1158 12 9.44911 -20.7766 -5.2819
1434 7 9.92903 -17.0234 1.25005
1280 6 8.31835 -19.916 1.79411
1140 20 10.1588 -23.0093 -1.33874
1296 16 13.5565 -22.0824 4.5579
910 6 16.7673 -20.0512 3.04346
915 6 14.9165 -17.7058 0.785636
1164 16 12.6185 -21.0232 -0.671531
85 6 11.0235 -16.4712 -3.08097
1136 6 12.6809 -23.4587 -1.30256
1375 7 10.0863 -18.5619 5.63213
1347 7 8.97245 -18.7445 -2.26889
1278 6 12.3058 -22.0806 4.01042
1285 6 9.05957 -17.6355 1.32852
1346 7 10.0227 -19.8886 -1.27666
1319 7 15.3094 -22.8516 -6.69932
1360 9 11.9128 -17.6728 -6.88759
1068 7 16.2473 -18.9956 -0.770174
1351 7 13.2643 -20.1838 -3.21045
1067 7 14.8052 -17.502 -0.259541
1184 6 8.81254 -22.22 -7.68738
1170 6 13.486 -18.3018 -5.95654
904 6 14.3103 -17.355 3.05474
1126 14 13.3366 -22.6862 -4.42378
1183 16 12.8279 -17.8221 -7.07459
1449 9 13.6846 -22.9504 4.97801
1345 7 8.19697 -19.8502 -1.15671
1277 6 10.9 -20.5981 2.66857
1227 2 12.4701 -23.131 -7.882
1352 7 15.7242 -19.7896 -3.09803
1171 6 15.6355 -18.468 -4.81189
1273 6 9.88149 -21.5367 2.66204
1188 6 10.1513 -22.3817 -7.44966
1124 6 14.6572 -22.8998 -4.53044
1376 7 8.83542 -17.4522 3.92759
903 6 14.9805 -18.8927 4.8097
939 4 15.8602 -20.192 -8.28843
1217 6 9.02962 -18.3789 5.77703
1125 2 15.5459 -22.4949 -3.45114
1168 6 12.9079 -19.1781 -5.03108
1348 9 12.8028 -20.4606 0.100655
1281 6 9.31994 -18.9151 1.74197
1320 7 15.0347 -22.0001 -2.59622
1189 6 11.0066 -23.0369 -8.27721
1266 6 10.1256 -22.7819 3.21307
1349 7 10.9896 -18.9193 -5.74931
82 11 8.65443 -16.6006 -3.87641
1362 7 10.6566 -22.1807 -6.49559
1173 6 15.0623 -19.3544 -3.87939
1279 6 12.0952 -20.893 3.3399
262 7 10.8054 -16.9811 -2.11218
1063 7 11.1874 -16.5574 5.31649
1089 7 15.0922 -20.5549 -7.58757
261 8 8.04483 -16.5732 -3.03776
1169 6 14.7995 -17.8424 -5.72187
1157 6 8.87213 -20.6082 -2.97868
1156 6 9.68758 -20.4246 -4.04732
901 6 13.9123 -18.3761 5.62997
1274 6 8.63811 -21.2363 2.21466
1218 6 8.25943 -17.7191 4.83563
1353 8 15.0942 -17.2235 -7.53048
1167 2 11.4757 -19.6054 -5.13012
906 6 13.5313 -16.6917 4.01507
1431 7 12.9024 -20.1462 3.31758
909 6 15.9516 -19.0464 2.59525
1174 11 15.4575 -17.0008 -6.61632
918 6 16.5424 -19.3362 0.267145
77 6 8.22022 -16.4317 -5.22224
1123 1 15.2954 -23.4787 -5.82603
1175 6 16.8199 -17.1948 -6.26429
1121 6 16.3456 -23.7057 -3.14333
1271 6 8.05479 -23.6282 2.21055
1085 9 13.3178 -16.0864 0.214526
1127 15 15.1264 -23.6889 -1.06398
89 16 13.2569 -16.4685 -2.39622
1059 7 15.8365 -20.3489 6.30747
2608 3 11.9476 -19.8475 17.6335
1366 7 12.0331 -21.2142 15.0653
900 2 13.5688 -19.0052 6.92655
1201 6 11.4981 -21.5334 14.1311
1210 6 9.20003 -19.7428 7.73313
1187 6 10.5604 -23.5964 20.2512
1370 7 9.65391 -20.1355 11.0639
1056 7 15.5103 -18.6969 7.97682
2604 4 10.3858 -18.9445 19.3741
1367 7 9.4722 -22.9792 11.0807
1204 6 11.218 -21.8576 11.7415
477 16 15.4099 -23.4261 7.64267
1206 15 11.7929 -21.6663 10.4973
1090 7 15.0834 -18.603 19.9935
2603 4 11.4393 -17.3014 18.2863
1046 7 16.4117 -19.0819 15.0263
256 9 8.69417 -16.9018 17.4422
1205 16 13.0917 -20.5266 12.5867
469 6 14.9748 -23.042 15.6264
1212 6 10.1746 -20.7411 7.37932
880 6 15.7534 -17.1696 14.5263
1906 6 10.2126 -18.0743 14.3594
1198 17 9.96373 -22.184 15.5036
1208 6 9.04526 -19.6442 9.1527
1053 7 13.0989 -19.3074 9.38768
655 7 16.1113 -22.3717 19.6392
1050 7 15.1624 -16.8327 10.8493
1042 7 14.4062 -17.2983 13.0369
897 6 11.8851 -16.9692 9.76004
1213 6 8.4346 -18.9686 6.88884
2605 4 11.3193 -18.7043 18.3571
472 6 15.6105 -22.9309 11.8105
2602 15 12.2612 -16.573 17.3847
1047 7 14.769 -18.7067 15.5921
496 4 16.6558 -23.1541 19.0818
2083 7 9.55368 -19.6345 15.8717
637 7 16.6622 -22.0805 14.6939
899 2 14.4677 -18.3712 7.97713
1207 6 10.8628 -21.1985 9.62916
1903 6 8.57622 -17.3357 12.824
1061 7 11.8658 -16.9415 6.88584
881 6 15.1019 -16.6341 13.4366
2606 2 9.87697 -17.7664 20.076
894 6 14.0799 -16.5136 10.7454
911 3 12.0912 -16.5265 5.92895
1211 6 10.9779 -21.3706 8.28091
1202 6 11.9815 -21.3384 12.8363
1200 6 9.58115 -22.713 13.2377
1908 6 9.33549 -18.9415 15.036
1199 6 10.32 -22.1772 14.1384
1057 7 13.559 -20.0686 6.96986
898 2 13.9208 -18.5375 9.40546
1909 16 11.5032 -17.966 14.8042
1203 6 10.0342 -22.5339 11.874
1185 6 9.27771 -23.3862 19.9039
2794 7 13.0475 -19.8106 17.6074
467 6 15.6902 -22.7045 14.5327
1194 6 8.77521 -22.9312 15.2645
1372 7 10.2485 -21.0543 6.3711
1209 6 9.80604 -20.3991 10.0284
1371 7 11.7289 -22.1325 8.05586
652 7 14.4376 -22.4233 17.5949
889 3 15.5146 -18.5965 14.8122
1369 7 8.30551 -19.0077 9.60975
1193 6 8.50871 -23.2564 13.9838
1045 7 15.1592 -19.0849 13.854
1052 7 11.27 -17.7382 9.25384
1058 7 12.5487 -18.7268 7.22635
1368 9 13.3567 -20.3397 13.5035
1191 2 8.81416 -22.7008 17.8184
877 6 16.581 -16.2841 15.2504
651 7 15.8561 -21.5685 16.9823
895 6 13.2881 -17.2767 9.91623
494 4 16.3878 -23.3576 17.7041
493 2 15.3293 -22.5596 16.9663
475 6 16.5725 -22.2014 10.9739
1054 7 14.6383 -18.8962 10.1282
2795 7 11.6987 -19.9933 16.5929
1364 7 9.85881 -22.1834 17.8701
2084 9 11.5668 -18.2825 15.7008
1192 6 8.31709 -23.1594 16.5086
1907 6 8.06473 -19.0721 14.567
2793 7 11.7345 -20.7947 18.2433
2791 7 8.73936 -17.6362 20.0461
2789 7 10.2609 -20.0541 19.673
465 6 15.3097 -23.046 13.1916
1391 7 11.6646 -23.7411 18.4461
2082 7 10.6304 -16.583 12.9499
2607 4 10.4762 -16.7617 19.1525
476 6 16.4318 -22.3579 9.59548
1905 6 9.83082 -17.261 13.3195
474 6 15.419 -23.262 8.98922
1055 7 14.6175 -17.3045 7.7661
1091 7 15.1584 -20.2952 19.3164
888 18 16.4902 -18.1689 17.3411
940 2 15.6526 -19.5837 20.0189
1430 7 12.8628 -23.4644 6.16703
1190 15 8.74757 -23.8392 18.6862
2787 7 13.0415 -16.6743 19.8503
2447 7 8.04971 -22.3875 5.98157
1363 7 7.99321 -21.8952 18.0668
1902 11 8.0139 -16.5898 11.7812
471 6 14.8008 -23.6998 11.1371
643 7 16.7719 -19.6319 10.1298
72 16 8.00241 -17.3233 16.992
2857 7 16.52 -9.66122 -4.19158
1442 7 9.771 -15.2061 0.384745
2775 7 16.6127 -10.1462 -6.56657
1443 7 8.75134 -13.0575 0.171314
266 7 11.5326 -13.9414 -7.19001
2671 6 8.84627 -12.6683 4.83686
3501 7 16.2944 -12.6327 3.34083
3860 21 13.2612 -13.77 -0.868527
2908 7 13.3134 -12.0055 3.25197
2690 2 12.0988 -10.7635 -3.0655
87 6 11.6667 -15.2441 -5.50156
1292 1 8.61271 -13.8074 -0.66919
2582 14 14.6526 -9.87278 -8.67119
265 7 13.2493 -14.5233 -6.75068
2643 6 9.93235 -11.2276 -6.15738
2684 1 12.6376 -10.206 -5.49754
88 6 12.6169 -15.4655 -4.49396
2758 6 13.0365 -11.2877 2.57626
2848 7 14.6184 -11.1046 -5.70384
2689 2 13.6351 -11.0346 -2.91574
2642 6 8.4757 -12.3202 -7.76987
267 7 12.1814 -15.5394 -7.58902
2645 6 10.9105 -11.2209 -7.08667
2853 7 11.8751 -9.74301 -2.8192
2849 7 14.1918 -9.13098 -3.48131
2912 7 9.17002 -10.7145 0.625067
2818 7 11.6653 -11.7959 -9.04698
2754 6 11.3204 -10.2715 1.16692
81 6 8.96623 -15.4835 -7.36781
1064 7 13.1793 -14.6559 4.71328
2851 7 13.8789 -10.7686 -1.8879
1291 2 8.77411 -15.1657 -0.14176
2686 2 10.2894 -10.7456 -4.7372
263 7 13.6338 -15.1052 -4.58985
2788 7 14.5146 -15.0282 -8.58544
2579 1 16.0868 -9.22273 -6.74096
2640 6 9.45523 -12.2081 -8.7714
2644 6 10.7394 -11.779 -8.36439
1066 7 13.6289 -14.6414 3.10582
2844 7 12.2714 -9.1629 -5.44267
2850 7 13.9256 -12.111 -3.06837
2756 6 11.7753 -11.3151 1.99634
2833 9 11.3013 -12.4062 4.91198
1448 9 9.25794 -12.9126 -2.26751
3310 14 15.9241 -14.6241 1.2836
2859 7 16.1785 -10.899 -1.5615
1295 16 9.65327 -13.5068 -1.64024
2641 6 8.69893 -11.7246 -6.53159
2842 7 13.0198 -11.5691 -7.15305
765 16 16.0654 -15.434 -2.30229
2856 7 16.2856 -11.3675 -3.93695
959 8 15.7172 -14.554 -3.8569
2683 2 12.3376 -10.7222 -6.90903
260 7 9.81616 -14.8745 -7.83588
2907 7 14.8382 -10.1045 2.8498
2594 16 16.4487 -13.2018 -7.92899
1065 7 12.0082 -15.1951 3.3359
932 16 13.2308 -16.1011 1.18945
2692 2 15.9676 -10.3627 -3.5837
2753 6 13.3295 -9.07708 1.65792
79 6 9.16407 -15.8053 -6.01732
2852 7 11.6273 -11.5392 -2.4612
84 6 10.3424 -15.5664 -5.22222
764 11 16.1943 -13.8704 -4.47949
2685 1 11.7895 -11.057 -4.52233
1441 7 8.94599 -15.9198 -0.991469
2759 4 10.1837 -8.77809 -0.101154
3862 21 8.01719 -8.95209 2.76482
2761 4 10.0846 -10.048 0.503247
2847 7 9.70374 -11.3723 -4.00632
2845 7 12.061 -12.0868 -4.72535
2757 6 13.7833 -10.1414 2.39394
958 8 15.9862 -14.3258 -5.39491
2687 1 14.1721 -10.1946 -5.33161
90 3 12.1917 -14.7502 -6.84071
2846 7 9.97891 -9.66324 -4.51781
2906 7 11.1004 -12.1963 2.34028
86 6 12.3124 -16.1586 -3.343
2829 7 9.1962 -11.9361 4.05694
912 3 13.0111 -15.2599 3.81831
2860 7 14.9314 -9.78463 -0.196375
2688 1 14.4557 -10.1247 -3.84351
2755 6 12.1246 -9.14673 1.03574
3583 7 16.2094 -15.0579 3.96869
2843 7 12.3712 -9.92875 -7.61082
264 9 13.7779 -15.67 -2.30626
2693 2 16.5689 -10.1586 -2.21413
2580 6 15.6968 -9.25717 -8.22843
83 6 9.99011 -16.1624 -3.93781
960 9 15.8358 -15.7632 -1.41474
2691 2 14.7588 -9.07695 -6.10113
233 9 8.81638 -11.9036 11.8322
236 7 9.76155 -13.5675 13.2367
19 2 11.0724 -8.91118 12.7422
2593 6 16.0932 -12.2842 18.2809
2596 20 15.2694 -12.7048 16.7188
1044 7 14.8812 -11.4123 12.8977
3849 21 13.3068 -13.7877 7.78354
2797 7 13.5957 -13.5435 15.3657
2615 6 10.2287 -13.168 17.5394
3428 6 15.6864 -9.04904 10.9877
3425 6 16.1782 -9.91579 9.98567
2622 15 11.6688 -9.26762 17.4536
882 6 16.2252 -14.4919 13.7138
2600 6 14.4729 -13.8656 17.9288
890 6 13.5933 -15.4104 11.3147
2621 15 9.15606 -12.7112 19.6359
2800 7 9.85604 -14.1663 17.5755
886 6 16.1569 -13.0969 13.4998
883 6 15.2608 -15.3208 13.0286
2614 12 10.3828 -11.0328 18.5161
3584 7 16.3034 -13.4639 6.36464
21 6 8.36082 -11.2594 14.2303
2617 3 12.6083 -11.0308 15.507
2601 6 13.507 -14.5099 17.23
3851 22 14.2141 -13.8946 7.06869
2597 6 13.3682 -15.7865 19.3815
2610 2 11.5916 -13.9507 15.6196
2801 7 13.6284 -10.6851 16.0113
896 6 11.3828 -15.8543 10.3343
3593 7 13.4513 -9.42032 11.3156
2670 6 9.75678 -13.0278 5.80872
22 6 9.30567 -10.7139 13.3161
2798 7 10.8981 -14.7982 15.5806
234 7 8.07768 -13.7809 12.562
893 6 11.8105 -13.7214 11.3477
3639 7 10.5656 -9.60359 8.97806
2830 7 10.1002 -14.264 7.48368
3588 7 15.2404 -12.1014 7.64429
887 6 15.0126 -12.5156 12.9963
891 6 12.2357 -15.0157 11.099
892 6 12.7363 -12.8471 11.9032
2804 9 16.3547 -10.1669 14.9483
2796 7 13.2557 -15.3261 15.3087
2799 7 11.4801 -13.5845 14.5365
884 6 14.3571 -14.6959 12.1668
25 6 8.23452 -9.0828 15.3418
2599 6 13.0315 -15.6145 18.0234
2591 6 15.9145 -12.9971 19.3427
2620 16 16.0395 -10.3192 15.7913
3424 6 15.9515 -11.5593 8.28826
3850 22 12.3994 -13.6807 8.49815
2616 6 9.86792 -12.2757 18.5216
3485 6 14.3845 -9.19448 6.66103
2803 7 12.2222 -10.0984 15.1298
2675 16 11.0642 -12.5319 5.80524
2609 2 13.0931 -14.4048 15.8624
39 3 8.63037 -13.7102 13.5035
3585 7 16.3036 -14.3397 7.77032
3436 18 13.6707 -10.2979 8.99502
885 6 14.0548 -13.3005 12.3262
3488 2 10.759 -9.84364 7.89387
3637 7 8.65888 -9.15152 6.92692
3481 6 13.3179 -9.64452 7.46061
3483 6 11.9661 -9.2782 7.15841
1048 7 12.4678 -11.8218 12.0752
2611 6 11.1594 -12.8489 16.5954
3638 7 10.8132 -10.9045 7.76391
38 16 9.6095 -11.4128 12.1538
2595 6 14.8845 -13.9661 19.1855
1049 7 10.7936 -13.4475 11.1012
2613 6 11.6744 -11.5535 16.5277
3423 6 15.4206 -10.5806 9.06392
3487 4 9.72821 -9.14797 6.90895
2672 6 9.3018 -13.8861 6.8424
2612 6 11.2223 -10.6531 17.5194
2802 7 12.7953 -11.628 14.6239
3577 7 16.5608 -16.0523 6.23172
235 7 8.65749 -14.6677 13.948
1062 7 12.1731 -15.4749 6.15317
20 6 9.90252 -9.46022 13.6398
2805 7 12.248 -9.47557 19.3924
2598 6 14.2523 -14.9532 20.0083
221 7 12.0629 -9.31761 13.1841
222 7 10.8267 -9.25819 11.7615
1051 7 10.343 -15.6067 10.056
26 6 8.08223 -12.6189 14.3606
2792 7 10.2325 -15.6806 19.3195
3635 7 15.4465 -9.46495 6.9001
2674 6 7.99521 -14.2454 6.89981
2777 7 16.5084 -8.83486 19.4686
2589 6 16.6532 -12.5693 20.5123
2862 7 16.0005 -3.15637 0.522753
2870 7 14.0938 -2.86726 -1.24196
334 7 9.11359 -1.60356 -2.9771
2677 2 8.23476 -6.02731 -4.30556
2701 6 16.1828 -4.0886 -0.163293
2877 7 12.5251 -1.77794 3.32177
2909 7 9.46565 -8.38604 -0.819022
2703 6 16.4848 -4.00354 -1.53875
320 7 14.1091 -6.08381 -5.45674
3636 7 14.831 -8.19629 4.97581
164 6 13.7331 -5.1024 -5.82652
2678 4 9.64769 -5.95029 -3.58679
2875 7 13.3795 -2.54308 1.15288
153 6 10.7783 -2.51869 -8.82817
2723 6 9.67119 -1.42952 1.39445
2732 3 8.93846 -5.48196 2.26819
158 6 10.6637 -6.03574 -7.52376
313 7 8.16386 -6.12025 -7.64691
2720 2 11.9614 -1.41205 2.41862
2884 7 9.23317 -5.79226 3.26551
2700 6 15.8437 -5.24299 0.459992
2682 4 10.6728 -6.87672 -3.63602
315 7 10.0472 -6.87845 -7.62355
2696 6 15.3211 -8.75578 -0.562689
2726 6 9.21853 -4.02818 1.95471
2698 6 16.649 -7.69426 -2.17515
151 6 9.05616 -4.49736 -8.75797
2910 7 11.3609 -7.14971 0.827941
3640 7 9.81025 -8.01179 4.93178
2721 6 10.6527 -2.09124 2.09732
155 6 11.1142 -3.6552 -8.03065
2881 7 12.3153 -3.69788 3.31181
2866 7 14.223 -4.88407 1.87794
338 7 9.04948 -2.9207 -4.68719
2722 6 8.54307 -2.05351 0.843893
156 6 12.152 -3.65988 -7.11054
2710 6 15.8394 -1.75418 -1.93815
154 6 10.2851 -4.75849 -8.08271
2839 7 9.38448 -4.05481 -2.49011
546 6 8.07288 -3.47752 5.19993
2679 2 11.3991 -5.06203 -2.12726
2731 3 11.3317 -4.13712 3.28612
2695 6 15.1617 -7.64642 0.196942
2709 3 15.3095 -4.98688 1.92137
2855 7 14.691 -8.14314 -5.44935
2882 7 10.9488 -3.91245 4.28441
2838 7 12.0883 -4.21549 -2.34789
316 7 12.3314 -7.12729 -6.71263
2883 7 11.3582 -5.31705 3.16904
157 6 12.6287 -4.97709 -6.64711
2837 7 11.4434 -5.15935 -1.01831
2854 7 13.9872 -8.8318 -6.86494
2807 7 13.5789 -7.95301 -9.27083
2708 18 14.1961 -7.59858 1.61256
2681 4 11.7216 -6.40227 -2.76031
162 6 12.7921 -2.56738 -6.61879
168 6 14.4858 -1.61531 -5.21731
2724 6 8.43218 -3.3924 0.979858
184 3 8.07529 -2.68215 -5.17751
321 7 15.3014 -3.94723 -4.81257
2885 7 9.50837 -6.1459 1.57689
2841 7 10.7949 -7.741 -4.27414
3484 6 12.7379 -8.08627 5.25621
696 7 8.33214 -1.4602 4.66475
2694 6 16.1551 -8.81669 -1.64321
2699 6 16.3622 -6.41947 -1.52567
2680 4 9.99615 -4.91878 -2.72217
2760 2 11.4703 -8.04065 0.257382
3634 7 12.5635 -7.65804 4.29307
163 6 14.0082 -2.69443 -5.90558
323 7 15.3509 -1.69274 -4.53819
159 6 11.9208 -6.16444 -6.96761
2840 7 12.6981 -6.91085 -2.67144
165 6 14.4201 -3.99066 -5.50217
2725 6 10.3835 -3.43568 2.37744
2835 7 8.41582 -5.83069 -5.3896
3486 6 14.0244 -8.45457 5.58026
2697 6 15.7652 -6.45967 -0.248019
2773 7 16.6416 -7.08793 -6.85576
2865 7 15.842 -4.04931 2.21599
2719 2 13.13 -1.43037 1.35048
2704 6 16.5943 -2.86223 -2.24204
2676 16 8.0148 -8.14864 -6.38907
2911 7 12.0635 -7.83647 -0.614992
2867 7 15.499 -5.67864 2.73018
2714 6 14.5054 -1.84456 -1.42008
2808 7 14.7307 -5.70966 -9.16948
314 7 11.6083 -1.77037 -8.88354
719 7 13.6598 -3.15799 11.1257
718 7 14.6247 -1.93513 10.5287
10 6 10.3759 -6.56686 11.9049
552 6 9.20847 -3.56583 6.03901
362 7 8.85566 -3.27608 16.5506
3446 2 16.7962 -3.86417 13.5567
2638 3 16.4069 -3.58411 19.3693
706 7 10.9094 -5.76211 8.00816
557 6 10.5851 -4.80953 7.60119
555 6 9.96808 -2.42007 6.45998
716 7 15.9371 -3.34186 8.95623
704 7 8.48789 -6.64793 7.35713
37 16 12.1876 -2.5619 13.9897
12 6 12.1397 -6.81458 13.3848
2623 2 11.6851 -8.73788 18.8135
2814 7 16.0656 -4.3234 20.034
2626 6 11.7791 -6.25496 18.1451
3602 7 16.0403 -4.22219 12.8052
717 7 16.1043 -3.98616 10.4403
232 9 12.9577 -3.0972 14.2397
720 9 15.6747 -6.47853 7.86776
554 6 8.48066 -5.76776 6.70853
565 2 15.3064 -3.86181 9.69355
708 7 13.9037 -2.40769 8.17878
3429 6 16.5712 -8.50171 11.8676
3745 22 15.6585 -6.6664 17.0207
363 7 8.52929 -4.71422 17.454
553 6 9.4348 -4.74481 6.77377
14 6 12.2208 -5.47834 13.6548
2624 6 12.2183 -7.32053 18.974
713 7 13.9299 -4.20076 7.13912
223 7 9.95427 -7.77458 14.8875
16 6 10.3687 -2.40498 12.5659
2628 6 13.2945 -7.08076 19.7869
3606 7 16.2669 -1.45158 13.0827
217 7 12.795 -7.51077 13.9032
2776 7 16.4358 -7.48892 20.5126
230 8 12.7808 -4.31952 15.1057
2625 6 12.3596 -5.02157 18.2259
556 6 10.9976 -2.45145 7.37587
3744 22 14.7031 -7.79253 15.2315
2627 6 13.4936 -4.88492 18.9698
24 6 9.32048 -8.67139 14.6002
715 7 14.5901 -5.96251 9.56828
563 2 13.6048 -4.82535 8.00792
216 7 9.33506 -8.23527 11.0656
559 1 12.5434 -3.95165 8.7523
564 1 14.8268 -5.10794 8.92848
36 11 13.1419 -5.08144 14.6138
2632 6 13.9672 -3.52419 18.618
2630 11 12.0592 -3.84925 17.4315
3594 7 14.1289 -7.93457 11.862
3590 7 16.1908 -8.006 12.7215
3601 7 16.2094 -3.25481 14.3157
8 6 9.33798 -7.11097 11.1857
566 2 14.1775 -2.89088 10.1635
2809 8 11.129 -3.59538 17.3017
2631 6 13.0664 -2.94438 17.7599
3743 21 15.1808 -7.22942 16.1261
2635 6 15.1836 -2.90328 18.8021
567 16 15.8579 -5.56342 8.1117
7 6 8.47378 -6.32164 10.5139
707 7 12.1983 -4.47851 9.66344
560 1 13.1992 -2.59609 8.97151
231 8 13.3581 -5.70575 15.4216
15 6 11.3521 -3.23321 13.1891
2639 16 10.7283 -6.40487 17.2238
11 6 11.1826 -7.4042 12.6433
2806 7 10.6045 -8.77734 19.1654
2 6 8.44473 -4.92628 10.5773
5 6 8.39433 -2.17172 11.1336
3437 3 14.2217 -8.65973 11.116
2629 6 13.9155 -5.86437 19.8572
3605 7 16.7329 -1.85892 11.5155
9 6 10.4283 -5.14102 12.0067
4 6 9.4467 -4.31977 11.399
2816 9 10.7093 -7.32077 16.8966
13 6 11.3429 -4.62131 12.9291
2633 6 13.2354 -1.70751 17.3404
714 7 13.2767 -5.75377 7.61825
149 6 8.7858 -3.42186 20.0315
558 6 11.3817 -3.71464 7.84347
6 6 9.41926 -2.94556 11.6713
2636 6 15.331 -1.54466 18.495
710 7 11.4465 -1.53742 9.98879
3595 7 13.8634 -8.15563 10.1752
561 2 12.2544 -1.35367 9.20485
211 4 8.31232 -5.01428 15.3357
361 7 9.16608 -5.57728 14.986
3482 6 11.6427 -8.51563 6.04217
152 6 9.77193 -2.445 19.9245
2581 2 16.6633 -8.57456 20.5161
212 2 8.23255 -4.15055 16.5646
705 7 9.61002 -1.43517 6.19082
3489 4 10.2816 -8.50588 5.82309
166 6 12.1086 -1.33091 -6.47523
378 6 16.7639 3.04401 4.38723
1410 7 10.2237 5.77004 -5.23215
574 6 10.9989 3.66432 4.49283
2715 6 13.8759 -0.703049 -0.904476
175 6 8.50066 1.29776 -6.56683
327 7 11.5916 0.623678 -3.63371
178 6 8.02638 -1.19599 -5.54529
609 7 13.4958 1.21493 -8.34652
169 6 13.7756 -0.404266 -5.14507
570 6 11.7524 3.66236 2.24443
335 7 10.6037 -1.06209 -3.76761
571 6 10.5972 4.23638 1.77352
2717 6 14.4594 0.540264 -1.06368
3646 21 13.8421 4.03512 -2.96566
374 6 16.6374 0.397513 5.43048
723 7 8.98676 4.36251 4.84488
330 7 9.70802 2.89936 -4.65029
577 4 12.6306 3.31349 1.15018
728 7 13.6053 2.83163 1.18156
173 6 9.02552 0.893612 -5.35563
2872 7 13.894 1.35413 -0.611235
170 2 11.8815 1.09181 -5.85451
420 4 15.7309 1.89984 -6.49162
2727 6 9.8921 0.00811168 1.13892
422 2 15.9552 2.95744 -5.48305
322 7 11.0226 -1.19871 -6.7856
603 7 12.0961 3.69289 -8.14442
629 7 14.2736 5.36363 5.21463
569 6 9.63809 4.54541 2.70195
324 7 14.1909 0.506981 -4.70247
329 7 9.30703 1.79767 -3.45528
572 6 11.989 3.31317 3.59289
331 7 9.3946 3.37976 -6.59026
576 2 10.6372 4.38615 0.297085
332 7 8.7208 3.93259 -8.79761
328 7 11.9073 2.25337 -4.22152
2871 7 16.0955 1.65221 -2.05089
421 4 14.9983 2.40595 -7.61306
722 7 12.8524 2.83407 4.00407
326 7 12.5221 1.97373 -6.13488
575 4 11.9812 3.84306 0.0153565
2878 7 11.793 -0.353431 2.74627
333 7 9.64557 0.0269988 -2.75603
607 7 15.4985 2.71231 -4.50133
725 7 12.5346 3.73919 -0.887552
179 6 8.83324 2.59341 -7.12525
726 7 9.92565 3.82098 -0.278838
2728 6 8.91712 0.683587 0.475745
3647 22 13.2119 4.46283 -3.84048
573 6 9.82625 4.27707 4.0813
2718 2 12.6777 -0.859866 -0.0105975
2874 7 12.1776 0.11768 0.129481
727 7 10.4297 5.37653 -0.0505281
419 4 14.8852 3.81621 -7.51796
605 7 15.6746 0.821723 -6.2731
1413 7 14.329 6.02536 2.55828
3648 22 14.4722 3.60738 -2.09071
325 7 11.1131 1.05772 -6.63929
180 6 8.31961 2.98604 -8.35441
424 3 14.5467 1.40914 -8.59539
418 15 14.4057 4.7544 -8.36231
401 16 16.4384 3.16926 1.40658
377 6 16.8476 1.93427 3.48758
423 4 15.5001 4.13558 -6.29406
2880 7 9.13892 1.70947 0.286982
171 2 11.3035 1.40126 -4.45051
2876 7 13.9379 -0.804393 1.77649
2711 6 16.4389 -0.470403 -2.06623
596 9 16.8673 3.12756 0.508303
724 7 11.1645 3.3833 5.49768
379 6 16.8685 2.06009 2.10824
524 18 8.111 5.24635 2.14468
608 7 15.5722 5.19294 -5.94953
2879 7 10.647 0.600559 1.6267
172 2 9.74855 1.82628 -4.45523
610 7 15.2249 0.530752 -8.71169
167 6 12.5739 -0.231231 -5.83495
2716 6 15.7028 0.689118 -1.65676
183 3 9.5556 -0.765832 -3.55245
177 6 8.82279 -0.329724 -4.7897
2429 7 8.65971 1.16706 4.57307
2873 7 11.805 -1.40035 -0.460967
454 3 14.1015 5.85419 6.15658
417 6 14.3612 4.20225 18.9657
389 6 12.9378 3.00848 8.33081
405 6 10.6993 1.81534 16.6651
376 6 16.6243 2.81244 5.71779
562 2 11.6975 -1.11939 7.7296
612 7 16.3499 4.09182 17.993
407 6 11.8217 2.60064 16.9757
712 7 10.9583 -0.35075 7.69235
2240 4 8.28295 1.28245 7.30014
2812 9 13.5507 0.823293 17.4564
410 16 9.60808 1.48343 17.4741
386 6 14.9024 1.56096 9.76984
435 13 13.9997 3.81247 13.3587
394 2 10.6354 4.16077 9.57462
383 2 16.393 1.47163 7.81925
404 6 11.6815 1.63841 14.4281
392 6 11.5509 3.14831 10.3282
395 1 9.63658 4.77233 10.5956
588 7 12.1746 3.51185 7.68115
623 7 13.4682 5.78161 11.4145
593 7 9.97801 3.43574 13.1356
599 7 15.0642 0.212821 12.385
709 7 12.8895 -0.488419 9.44808
403 3 13.9572 0.126074 12.3459
602 9 9.2749 2.30976 17.8553
2427 7 8.37279 0.0304931 9.11153
393 6 11.1465 2.50777 11.4719
215 7 8.16395 -1.16537 11.396
387 6 12.7392 2.68741 9.70386
317 7 8.79045 -0.621542 19.2984
414 6 11.6385 3.2477 19.4819
2810 7 12.3708 -1.21969 16.8289
397 2 9.88803 2.82105 12.2133
630 7 13.0026 5.75137 6.39348
620 9 15.8575 2.58534 13.8468
597 9 16.459 0.549471 9.67276
375 6 16.5194 1.52686 6.26223
388 6 14.1 2.56104 7.68264
406 6 10.7094 1.35027 15.362
2637 16 14.3811 0.393593 17.3993
601 7 9.97351 0.691469 14.9648
390 6 13.2489 1.24808 11.5828
341 7 8.22924 4.08631 18.9795
590 7 11.261 4.91593 9.12637
396 6 8.95442 3.63913 11.3814
384 6 15.0466 1.84571 8.37687
411 6 12.2179 3.17835 18.2144
1582 6 16.7817 3.88078 11.4199
507 2 8.52092 5.8323 10.2442
617 7 16.4814 4.86462 15.3942
598 7 13.6343 0.118574 13.3454
2811 7 16.1412 -0.929249 18.8498
591 7 10.3092 5.18927 11.3901
592 7 9.35447 2.01355 12.5652
434 5 14.0334 2.85394 13.9681
399 15 11.5612 0.975827 13.2046
433 3 16.7006 5.87981 15.6706
613 7 16.3886 4.26546 19.6816
581 7 16.4458 3.68006 6.40204
408 6 12.817 2.47147 14.7571
385 6 13.6625 1.85636 10.3876
409 6 12.7271 2.82389 16.0716
587 7 14.2326 2.89065 6.63512
318 7 10.5222 -0.473643 19.5547
348 7 8.70912 4.83191 16.9186
372 6 16.8391 -0.820855 6.03071
402 16 15.8395 0.744519 10.3804
391 6 12.0136 1.55867 12.0717
600 7 13.5299 -0.803102 11.9172
1739 7 16.0326 4.15676 9.36608
425 2 15.791 4.59221 18.7976
589 7 10.1206 3.56407 8.73104
416 6 13.5054 3.64862 18.0362
2634 6 14.3414 -0.943958 17.7167
412 20 14.3264 3.57853 16.4444
631 7 14.718 5.29675 6.88331
624 7 13.509 5.63386 8.86522
436 16 15.1265 2.06431 14.0191
604 7 10.727 2.64052 19.7013
415 6 13.7133 4.22887 20.2876
2425 7 9.26812 1.68406 7.12083
1740 7 15.9275 3.27504 11.7245
580 7 16.6589 -0.919986 7.09837
611 7 14.5196 1.76042 20.0423
3201 7 8.19603 -1.09677 14.2041
346 7 8.02041 3.40681 15.0246
345 7 8.25827 5.17758 14.4789
161 3 9.72087 -1.15851 19.2227
711 7 12.4786 -0.99123 7.01318
426 2 15.7807 6.10855 18.5705
218 7 10.3135 -1.3522 12.9674
319 7 9.80117 -1.29647 18.1089
413 6 12.4295 3.75075 20.4845
1238 6 14.8073 8.06514 -6.86641
1416 7 10.2086 8.01319 3.15957
1256 6 15.1734 6.65237 0.717931
1252 18 11.0629 6.8474 -7.12983
3842 22 13.4251 10.5343 2.43864
1393 7 13.6268 10.1864 -7.61111
1420 7 9.03572 11.3117 0.791181
1404 7 13.3267 7.54755 -8.37105
1425 7 11.7619 10.3978 5.38839
1228 1 12.925 12.7599 -8.21573
1405 7 16.0112 8.4556 -5.20164
1263 2 9.42403 10.6715 1.56878
3843 22 13.1587 11.4162 0.309411
1240 6 13.544 7.60018 -7.29443
1265 6 9.61753 12.2256 3.36426
1299 6 9.66594 8.25748 -8.85759
1261 6 10.865 7.85445 2.29199
1235 2 14.4479 12.6492 -6.16471
1135 6 11.4433 12.3697 -2.81809
1417 7 8.54193 8.67192 1.67487
1403 7 15.8989 8.15218 -8.76722
1245 6 12.0331 7.13187 -2.70915
1418 7 8.7989 9.22124 0.0299682
1247 6 13.228 7.64597 -2.26401
1302 6 9.98119 10.6797 -7.59475
1269 6 10.7035 12.0493 4.23096
450 6 15.0709 9.38248 5.10568
1297 6 10.4943 8.33197 -7.78708
1275 3 10.9353 10.621 4.72784
1236 2 15.7759 10.0973 -7.65796
1264 2 8.89257 11.0022 2.95662
1232 1 14.4719 10.7722 -8.0493
1138 16 12.788 10.573 -4.00622
1330 9 12.0558 10.0053 -4.01446
1451 7 11.2924 9.6246 -6.21417
1249 6 14.8453 7.20857 -0.513192
1409 7 9.85473 7.46295 -5.02011
1422 7 8.96704 10.1226 3.5766
1246 6 14.2772 7.89744 -3.17302
1231 1 14.3037 12.2754 -7.67762
1428 7 13.4418 12.4788 5.11914
1300 6 9.1352 10.5881 -8.64849
1132 6 13.894 13.2005 -1.62605
1301 6 10.7745 9.57522 -7.16294
1241 6 12.7379 7.33919 -4.99923
1419 7 10.4807 10.93 1.55669
1239 6 12.5563 7.24679 -6.41093
1253 3 10.3169 6.60815 -4.47951
1450 7 8.54654 11.4276 -8.97554
3841 21 13.2919 10.9752 1.37403
1142 6 9.285 11.3941 -3.92055
1259 6 10.5325 8.45321 1.09615
1258 6 11.388 8.37627 0.0468698
1399 7 14.8854 11.8079 -5.67798
1255 6 12.8736 6.99657 1.38901
1137 6 11.6182 13.3319 -1.9422
1257 6 14.1284 6.39027 1.55735
1134 6 13.7844 12.1722 -2.55164
1248 6 13.5246 7.54571 -0.842142
1145 6 8.05774 13.3719 -2.30199
1262 2 9.28938 9.21394 1.04345
1414 7 11.3478 8.96672 -0.865147
1133 6 12.6373 11.71 -3.18769
1244 6 11.741 7.0256 -4.05918
1270 6 11.4653 13.0925 4.656
1254 6 12.5425 7.62762 0.171746
1139 6 10.079 12.2748 -3.20286
1242 6 15.0299 8.02752 -5.49741
1260 6 11.9665 7.0866 2.44259
453 16 15.5162 10.0072 3.94554
1267 6 9.26293 13.4819 2.90727
1119 6 16.1801 13.1201 -1.84417
1388 7 12.2253 12.0925 -7.64641
1332 7 9.72616 10.5411 -4.44742
1329 7 14.6564 11.5637 -2.87145
628 9 15.5094 11.0065 4.08463
1243 6 14.0357 7.80015 -4.57878
1452 7 10.0266 11.6572 -7.11691
1276 3 12.5673 12.8399 5.67733
1406 7 11.2708 6.72297 -2.02012
1122 2 16.8397 13.5031 -5.52345
452 6 14.8818 8.02344 5.15366
1327 7 15.6452 11.7396 0.252382
1237 2 15.8965 8.60022 -7.7484
627 7 15.109 7.52638 4.18979
1251 6 15.8429 7.38756 -1.45858
1250 6 15.5852 7.94602 -2.67865
1398 7 13.4273 12.7736 -5.83713
1401 7 15.939 10.3062 -6.53558
1426 7 10.0313 10.3865 5.37657
1407 7 16.4929 8.19232 -3.33751
1392 7 15.1112 12.8486 -8.16044
1427 7 11.0391 10.0234 3.7966
676 7 8.69706 6.9319 3.94996
1144 6 9.38131 13.1374 -2.41442
1400 7 16.6687 10.5814 -8.10888
1415 7 12.2117 6.57902 3.41902
3861 21 15.682 13.4234 2.36738
1131 3 16.6617 11.6339 -0.0041407
1402 7 16.9299 8.24479 -7.33499
1326 7 16.8403 10.6143 0.305168
1411 7 9.71256 6.26125 -3.63884
1412 7 16.1554 6.44928 0.986435
1455 7 8.99693 6.06751 -9.17787
506 2 10.0553 9.92825 9.56505
442 6 14.3837 8.9185 10.8939
504 1 8.48676 7.98085 8.76546
500 1 9.16752 8.20059 11.2526
650 9 13.5413 13.542 17.2
1454 7 10.1339 6.6496 19.3891
492 16 13.2325 12.9722 16.517
429 6 15.4021 6.50847 16.0157
427 6 14.9504 6.53023 17.3886
445 6 13.9115 6.51363 9.42919
636 7 12.7084 11.4018 12.8276
1397 7 12.3121 10.4832 20.0648
439 2 13.8811 7.68444 13.0205
428 6 14.5845 7.1525 15.042
664 7 10.1737 6.93172 9.62
669 7 9.52753 10.9173 9.55039
1396 7 12.9849 10.9498 18.4869
462 15 11.2859 11.9008 14.2306
431 6 13.676 7.02085 17.5952
3403 16 15.3675 10.3493 16.9886
457 6 10.8331 10.6136 14.4507
1305 4 8.26562 9.10396 19.1934
3557 7 15.8718 10.5136 14.2997
638 7 13.716 12.5916 9.50049
1736 7 17.12 7.11285 8.70607
503 1 9.08309 7.19481 9.96201
437 15 11.6241 8.04226 16.9003
438 15 14.9756 7.14965 13.6997
622 7 13.0268 7.07188 13.2404
633 7 11.4418 10.6573 16.5325
635 7 13.0336 10.9201 14.4823
632 9 14.953 10.8381 11.0589
3561 9 14.9078 10.7986 16.2026
1395 7 14.7622 9.51534 19.7524
672 7 9.03567 6.83512 7.10441
502 2 10.1226 10.428 11.9859
2450 7 9.27773 13.353 7.2747
440 6 14.0378 7.71777 11.5303
460 6 10.5575 7.91544 14.7981
449 6 14.9808 10.1298 6.2235
459 6 10.3389 9.86979 13.4119
661 7 11.1723 8.93206 11.088
430 12 13.3689 7.66208 15.3306
1230 2 11.5181 12.9628 19.3515
659 7 8.80121 6.92753 13.0101
640 9 14.7808 13.2474 7.39009
615 7 15.4749 6.63041 19.5097
441 6 14.4338 8.94424 9.47819
451 6 14.4411 7.35672 6.27217
621 7 13.488 8.68862 13.4024
1298 6 9.1032 9.41572 20.2968
3399 6 16.6368 10.1103 14.9967
456 6 11.0474 8.6529 15.8397
660 7 8.2438 8.68419 11.4695
461 6 10.0826 8.55306 13.6854
1234 2 13.1439 11.0405 19.56
663 7 10.8584 11.2103 11.6042
448 6 14.437 8.08136 7.41567
1304 2 9.29368 7.04754 20.0064
2449 7 8.22399 12.8068 8.69679
662 7 9.11697 10.9227 11.8334
463 2 12.6515 11.7144 13.8549
447 6 14.7543 9.48654 7.40898
1394 7 15.2823 11.3204 19.7213
473 6 14.4877 13.3372 9.82716
446 11 14.7152 10.0701 8.66121
668 7 11.0817 10.2279 9.32176
658 7 10.4595 6.98167 12.3084
505 2 9.5889 9.08036 8.41134
508 2 8.11756 7.25123 7.54574
666 7 10.534 8.5485 8.03443
1389 7 13.6637 13.1679 19.4619
625 8 14.1785 10.9337 8.84155
464 6 13.5375 12.7984 14.1091
444 6 13.7568 6.61106 10.7663
443 6 14.1801 7.74872 8.77081
458 6 11.1038 10.0408 15.6963
455 16 14.7436 10.0833 11.5995
634 7 10.6241 6.81314 14.8827
499 2 9.6313 7.58591 12.58
466 6 14.3317 13.3773 13.2167
432 6 12.9064 7.61804 16.6137
667 7 9.25538 9.73496 7.58914
501 1 10.1659 9.30222 10.9495
2274 3 8.36101 12.7859 7.62724
616 7 13.3153 6.88096 18.6179
1429 7 12.2737 12.1784 6.48168
1229 1 12.872 12.5204 19.952
1233 2 14.5114 10.6103 20.1327
3398 6 16.4603 9.83411 16.3212
1390 7 10.9921 12.049 19.0522
1303 4 8.40402 7.71299 19.0332
626 7 15.3563 11.1806 6.18142
2451 7 8.44387 11.7401 7.44346
468 6 13.8861 13.4142 15.3596
470 17 13.8604 12.8727 11.9156
674 7 8.2507 8.7612 6.0414
ITEM: TIMESTEP
300000
ITEM: NUMBER OF ATOMS
3757
ITEM: BOX BOUNDS pp pp pp
-1.8715697213975865e+01 1.6896677435050428e+01
-2.4028008443533253e+01 1.3800600201445846e+01
-9.2116747534560481e+00 2.0584333579319605e+01
ITEM: ATOMS id type x y z
736 6 -16.689 -18.9068 -6.15133
3528 7 -13.5879 -21.3404 -2.91194
3526 7 -10.6296 -19.3563 -2.38489
1516 3 -13.0287 -21.556 -8.89716
3329 6 -12.7168 -17.275 -3.21781
3570 7 -17.6278 -20.7274 2.02957
3328 6 -13.9137 -16.8739 -3.64837
3341 6 -11.7476 -20.5066 -0.258235
1711 7 -11.7468 -22.508 -6.36205
3573 7 -17.682 -22.1918 3.83053
3337 2 -12.2778 -18.1127 -1.98781
3335 4 -10.3139 -18.6138 -5.72853
3354 6 -13.5699 -22.2691 5.18238
3347 13 -17.8786 -18.825 -1.54526
944 7 -16.1322 -18.0642 -6.726
3330 15 -10.3652 -16.9977 -3.84463
947 10 -13.7376 -18.7604 -6.28045
730 6 -16.7097 -20.8609 -4.76857
3346 5 -17.5867 -17.7166 -1.56613
3533 7 -12.7134 -23.2251 2.32648
3520 7 -11.1983 -19.2175 -5.35559
732 6 -18.1047 -20.6022 -4.54259
3352 6 -12.6397 -21.979 4.198
3546 7 -16.0835 -21.5267 -0.249169
3340 6 -12.3584 -21.3341 0.670535
3413 1 -18.5098 -22.8544 3.58348
3349 15 -14.4603 -23.3767 -1.26378
3342 12 -13.321 -22.2146 0.352698
731 6 -16.2106 -22.1541 -4.43843
747 2 -17.9706 -17.0744 -8.14125
3368 6 -15.5107 -23.5696 -0.35512
3525 7 -11.5776 -17.508 -1.44189
3100 6 -13.4343 -16.8226 3.54574
3324 20 -15.1241 -17.7299 -2.29322
3532 9 -17.8294 -17.7053 0.18833
3105 6 -15.5977 -17.277 4.73885
964 7 -12.7581 -17.1945 -8.81821
3530 7 -11.1669 -18.8366 0.824499
746 16 -15.0219 -22.6452 -4.93135
3367 16 -14.896 -22.6128 4.77005
3101 6 -14.8412 -16.7898 3.62055
3345 3 -10.619 -19.6194 0.2756
3803 22 -14.6597 -19.2149 0.930433
3350 15 -11.9583 -21.3585 1.9903
3339 6 -12.2095 -20.4592 -1.52442
3338 2 -11.733 -19.4514 -2.49108
3373 6 -17.2094 -22.6661 1.17982
3103 6 -12.796 -17.3013 4.67836
1710 7 -10.2997 -22.6634 -5.32231
729 6 -16.8994 -23.0241 -3.63614
738 6 -18.0643 -18.853 -6.24679
3527 7 -11.9812 -19.6773 -3.49607
3535 7 -10.4624 -21.34 3.99827
3571 7 -18.5435 -21.1658 0.557504
1707 7 -12.8405 -23.9035 -7.47652
3356 6 -11.3171 -21.6564 4.61207
1525 3 -11.3537 -22.8297 -5.45447
739 6 -18.7046 -18.0347 -7.20808
1702 7 -13.6866 -20.7837 -8.3575
3531 7 -10.0338 -20.1843 1.01071
1701 7 -12.2698 -21.8118 -8.20311
3343 6 -13.1887 -21.3386 -1.86841
3344 6 -13.669 -22.2985 -0.88112
3524 7 -12.9898 -18.3981 -1.28995
3351 2 -12.8866 -22.1713 2.68773
3348 16 -17.6292 -16.9895 -0.441481
745 19 -14.253 -19.9414 -5.77979
948 9 -14.66 -22.0951 -5.65714
735 6 -16.026 -19.9059 -5.5289
3801 21 -14.6334 -19.5326 2.04576
1709 7 -11.8452 -22.1697 -4.69817
3544 9 -15.3914 -22.7568 5.56958
3371 6 -17.3637 -23.9303 1.73626
3372 6 -16.3596 -22.5418 0.0834833
3802 22 -14.607 -19.8505 3.16115
3411 2 -18.1044 -21.5437 1.52787
3534 7 -13.8836 -21.8043 2.42179
3320 6 -17.4728 -16.9308 -2.79465
733 6 -18.1865 -22.6107 -3.14843
1355 7 -17.9897 -22.5144 -8.1164
942 7 -16.5549 -23.9968 -3.28777
1697 7 -15.7102 -21.6754 -8.76719
3253 7 -11.6875 -17.4359 4.7752
3254 7 -16.7399 -17.3072 4.91822
1530 15 -10.9343 -23.797 -2.95185
3321 6 -16.255 -16.7979 -3.44753
3327 6 -11.6825 -16.7374 -4.11853
766 16 -15.1961 -16.459 -8.51587
3519 7 -9.91474 -18.5525 -7.86441
943 7 -18.7854 -23.2429 -2.52461
3529 7 -9.97113 -19.1191 -0.434387
1034 7 -13.3927 -19.1835 13.8848
954 7 -15.8904 -21.3418 16.672
491 16 -17.6294 -22.0812 12.4497
3536 7 -9.90561 -21.548 6.2561
3264 7 -16.1237 -20.7637 8.81376
872 2 -17.7046 -18.7542 13.5557
759 1 -14.92 -20.336 14.9701
753 6 -17.0788 -18.8853 18.4679
1512 4 -15.2198 -22.4057 20.3216
3360 6 -11.9528 -21.9888 8.3571
3262 7 -17.6766 -18.5999 6.14849
957 7 -12.2757 -20.9639 17.0747
3107 1 -15.6887 -17.9976 7.06239
645 7 -18.6382 -23.0298 10.3128
864 1 -14.3077 -16.9145 13.0403
1513 4 -13.8278 -22.6283 20.2955
3540 9 -13.8354 -22.1927 12.406
3357 6 -11.0146 -21.765 5.95766
3266 7 -14.7027 -19.0701 10.0784
953 7 -16.8142 -19.8998 16.0781
956 7 -12.1521 -19.6992 15.7267
3259 7 -12.3605 -19.2041 6.87785
952 7 -17.7294 -19.5753 17.7833
1023 7 -12.4093 -17.7505 12.5573
768 6 -11.3757 -17.2654 17.1177
762 14 -13.643 -22.3457 15.5236
3256 7 -14.5862 -19.8175 7.72858
3537 8 -15.0986 -22.5512 7.61236
1695 7 -10.7337 -22.1704 18.2679
751 6 -15.7238 -18.7204 18.3567
649 9 -18.1059 -21.5211 11.8865
772 6 -9.99765 -17.0292 16.7797
871 2 -14.429 -19.0086 14.3253
758 2 -15.7294 -20.2743 16.2382
3257 7 -12.8251 -18.3439 9.06956
868 1 -16.6131 -17.6525 13.7555
3353 6 -13.2735 -22.4101 6.50937
1832 6 -10.6458 -23.8965 15.5276
3255 7 -15.8983 -17.006 7.43015
3261 7 -16.5 -19.8635 6.41517
767 3 -12.9405 -16.76 19.9831
1505 6 -10.4013 -22.6524 19.2521
3364 6 -11.5 -21.2981 10.4924
1037 7 -17.3299 -19.8136 13.5979
955 7 -15.4082 -20.9392 14.2472
3110 2 -12.6265 -18.1489 7.01825
3106 6 -14.8176 -17.7047 5.85328
749 6 -15.0667 -17.8357 19.2844
3359 6 -13.2809 -22.3202 8.77165
486 6 -17.0568 -23.0398 11.6665
3108 1 -14.7433 -18.7294 8.08053
3109 2 -13.4341 -17.9386 8.2947
3362 6 -12.6718 -21.8508 11.0054
998 7 -11.2562 -17.3652 10.0726
1839 2 -9.88419 -21.5619 14.6409
3114 2 -15.4844 -18.8444 9.37008
752 6 -17.7749 -18.4422 19.5726
1507 6 -11.1724 -23.6542 19.8011
3113 2 -16.5916 -19.8638 9.1818
3539 7 -10.8547 -20.8749 11.2902
3365 16 -12.9564 -21.836 12.3058
3538 7 -14.6186 -22.6932 10.3504
3358 11 -14.0947 -22.6985 7.62386
761 2 -12.8926 -20.2213 16.4413
1035 7 -14.2293 -18.4361 15.1819
760 6 -13.7297 -20.9867 15.5237
1039 7 -18.8362 -19.0505 15.4047
1036 7 -18.0768 -18.5676 12.4789
487 6 -17.6287 -23.4707 10.4834
757 6 -13.7064 -19.4082 17.3821
3361 6 -13.6065 -22.3859 10.0403
488 6 -15.9269 -23.7077 12.1
2037 7 -11.5612 -23.908 14.8673
3265 7 -17.1003 -20.2026 10.0751
756 6 -15.0418 -19.4279 17.3398
3355 6 -11.965 -22.0786 6.94523
3260 7 -11.7093 -17.5051 7.18116
1514 2 -15.9191 -23.5481 19.7253
1028 7 -15.3562 -18.5958 12.3209
754 6 -13.6927 -17.7262 19.154
3111 2 -16.8992 -18.9601 6.78131
1511 4 -13.5249 -23.6037 19.4078
2042 7 -10.9208 -21.4782 14.3145
863 2 -13.1968 -17.3133 12.0121
750 6 -15.8026 -17.3024 20.3172
3112 1 -17.5582 -19.2636 8.18335
3258 7 -13.663 -16.8663 8.49119
755 6 -13.0482 -18.4732 18.1957
3267 7 -15.7374 -17.83 9.68908
3363 6 -11.0653 -21.4375 9.24901
763 15 -11.6802 -18.2778 17.9496
867 1 -15.2368 -18.1415 13.3031
1022 7 -13.5288 -18.0635 11.2861
1356 9 -17.5866 -20.6998 20.0941
963 7 -11.9209 -16.6662 19.5437
1029 7 -16.4959 -17.3603 14.7803
1024 7 -13.9035 -16.575 14.025
1698 7 -16.7841 -23.2972 19.1312
3263 7 -17.9557 -18.2534 8.64763
1088 7 -17.5229 -23.7145 16.4622
1181 16 -18.1301 -21.3229 19.5796
1703 7 -12.5246 -21.0263 20.1171
3104 6 -13.4468 -17.6558 5.82938
748 6 -17.1277 -17.7212 20.5527
646 7 -15.5269 -23.457 13.056
3542 7 -9.94535 -19.8703 8.24428
938 6 -18.5478 -23.8898 16.8516
1510 15 -12.2365 -24.0402 19.0555
3516 7 -13.6128 -14.8172 -6.20282
949 7 -17.3959 -16.3454 -7.53809
3087 6 -11.4671 -14.748 0.391415
3269 9 -16.6651 -14.0108 -1.38652
3116 16 -15.7838 -13.6186 -1.3422
3294 16 -12.4016 -9.6333 -0.786651
3325 6 -12.0814 -15.8908 -5.17476
3854 22 -18.1183 -10.8518 -2.55975
3326 6 -13.3655 -15.6205 -5.51589
3490 7 -10.1873 -10.2453 0.411598
3090 6 -12.9319 -13.6807 -1.69444
3089 6 -11.5576 -13.5128 -1.65178
3278 6 -13.4615 -10.9055 0.975945
3853 22 -18.2504 -11.2828 -4.83561
2560 6 -15.1728 -10.9802 -6.63499
3244 7 -10.6644 -16.0775 3.40812
3317 6 -16.946 -15.2927 -5.10374
2370 6 -11.9376 -10.1546 -8.27877
3491 7 -9.92748 -11.5749 2.48339
3497 7 -18.4739 -11.1488 2.08123
3289 6 -14.3065 -12.768 4.18097
2765 7 -14.7128 -11.9257 -6.32355
3319 6 -15.8522 -16.057 -4.49412
3088 6 -13.5679 -14.3511 -0.614313
3245 7 -11.1671 -11.6304 -2.79004
961 9 -15.9557 -16.1347 -8.01293
3492 7 -16.8741 -10.9296 0.802617
3322 16 -16.6601 -14.4937 -6.20416
3093 6 -13.461 -15.6621 1.45175
3102 6 -15.5068 -16.2241 2.59405
3515 7 -11.3115 -15.3595 -5.78216
2558 6 -15.9921 -9.5388 -8.35633
3097 6 -14.8276 -15.6708 1.52584
3316 6 -18.5226 -16.1421 -3.42505
2771 7 -17.8055 -12.0277 -7.38727
3514 9 -15.8863 -14.903 -6.55318
3277 6 -11.1056 -10.6475 0.92038
3295 2 -18.3106 -12.0357 2.69797
3281 6 -10.9797 -11.4536 2.0142
3493 7 -17.586 -13.0626 5.07434
3092 6 -11.363 -15.7626 2.61925
2388 16 -11.6301 -11.3044 -7.56267
3323 6 -14.3855 -16.1434 -4.60092
3099 6 -15.5504 -15.0571 0.503805
2523 7 -11.7621 -9.14601 -6.41822
3495 10 -16.4005 -9.82163 -1.32202
2778 8 -14.5816 -9.45967 -3.85789
3286 6 -15.7331 -11.8662 2.42548
3291 6 -12.9771 -13.0924 4.67621
3509 9 -18.4988 -11.702 0.720391
3287 6 -16.8842 -12.2336 3.16637
3284 6 -15.8818 -11.1395 1.20228
3288 6 -16.6971 -12.7498 4.47061
3904 21 -13.0757 -9.36229 4.9825
2559 6 -15.5695 -10.7946 -7.95653
3282 6 -12.155 -11.9839 2.70209
3247 7 -11.2529 -13.0548 -3.75726
3283 6 -14.789 -10.6947 0.47902
2769 7 -14.9068 -12.7689 -8.58505
3249 7 -13.0342 -13.3267 -3.86199
2779 8 -14.444 -11.0674 -4.22935
3246 7 -9.8086 -12.7331 -2.75913
3248 7 -14.502 -13.7863 -3.27107
3290 6 -15.4707 -13.0779 5.01515
3098 6 -14.9566 -14.3288 -0.481821
3510 7 -18.5803 -13.395 -2.15214
3250 7 -13.9435 -12.0929 -2.78026
3095 3 -10.8902 -12.7697 -2.79515
3293 19 -15.1074 -9.75241 -0.962791
3494 7 -10.8803 -12.6758 4.36775
3318 6 -18.2363 -15.3653 -4.53523
3251 7 -16.6353 -14.8857 0.533932
3292 6 -11.8934 -12.6283 3.94646
3279 6 -12.3142 -10.4047 0.358011
3096 3 -13.6639 -13.1565 -2.91542
3086 6 -12.8448 -14.9681 0.376198
2371 6 -11.8669 -9.03885 -7.50213
2567 2 -15.5297 -11.9641 -8.94257
3285 6 -14.4744 -12.1089 2.92795
3094 6 -12.6787 -16.1446 2.50281
3091 6 -10.7328 -15.2339 1.52632
3085 6 -10.8243 -13.9688 -0.560274
2584 11 -14.3736 -10.1242 -4.57756
3280 6 -13.419 -11.712 2.19907
3695 22 -10.1424 -9.82406 5.27554
2541 9 -11.5235 -11.9733 -8.19632
3852 21 -18.1844 -11.0673 -3.69768
2572 6 -18.013 -12.2678 -8.4335
1007 7 -16.3001 -9.5902 3.9585
2562 6 -15.1229 -9.92196 -5.7557
3252 7 -16.5882 -16.1145 2.69547
950 7 -18.6845 -16.3704 -8.60977
3314 16 -18.5732 -12.4415 0.119833
2522 7 -12.0169 -12.9651 -9.15829
774 16 -13.0435 -14.3735 15.4993
2783 7 -17.8053 -15.6351 16.2506
3441 6 -18.0868 -12.9005 10.9422
2518 7 -11.966 -12.4493 16.5941
2574 6 -18.5663 -14.2594 17.7494
856 16 -11.3029 -10.4557 10.0741
770 6 -12.3802 -16.3488 16.7095
2508 7 -15.5907 -10.9387 13.9185
966 9 -13.8817 -14.8207 15.6453
1026 7 -13.9125 -14.0449 13.3646
2511 7 -13.2907 -10.8687 15.5306
822 6 -11.086 -13.9629 10.1029
997 7 -10.5586 -13.1153 9.62187
967 7 -10.0454 -11.6731 12.2661
778 6 -10.6285 -12.9545 13.9392
771 6 -10.7452 -15.0766 15.4504
830 6 -14.4934 -10.3724 8.59643
3506 8 -14.6876 -14.1589 6.60167
2770 7 -15.0164 -11.7013 19.9393
3596 7 -16.9032 -14.5304 10.1495
2570 6 -17.1547 -13.0264 19.282
825 6 -12.4884 -16.1181 11.3174
3800 22 -18.2799 -10.4137 16.1145
828 6 -13.5647 -10.9677 9.36694
827 2 -13.5764 -12.356 9.84357
832 6 -12.5031 -10.0288 9.56139
2357 6 -12.0335 -9.52327 17.3286
3693 21 -10.0822 -10.3675 6.29872
3592 7 -17.4602 -15.6411 7.84496
1030 7 -17.5587 -16.3869 12.2461
838 6 -18.3113 -10.2833 6.3801
2360 6 -12.2211 -10.0477 20.1191
1014 9 -10.8316 -10.9061 9.35182
2353 6 -15.697 -9.97718 13.4968
968 7 -11.6649 -12.5032 13.9508
3597 7 -17.3194 -12.7343 11.7766
3440 6 -17.7457 -13.8335 9.95535
3435 6 -18.4479 -15.0914 7.89641
2507 7 -16.4749 -10.6768 11.6767
823 6 -12.8423 -14.8364 11.5819
2782 7 -16.8219 -14.196 16.2462
2367 3 -11.1463 -11.8741 17.0506
865 1 -14.958 -15.7178 12.3893
2586 16 -16.0726 -13.1078 18.4181
1027 7 -14.6467 -13.7364 11.898
870 2 -16.1067 -15.2379 13.2689
2781 9 -15.2288 -12.9455 18.8702
821 6 -12.2219 -13.7591 10.9388
2362 6 -11.917 -11.1076 19.256
836 6 -15.8111 -9.25794 7.26398
2569 6 -18.4334 -13.4598 18.8602
769 6 -12.1121 -15.2444 15.9326
999 7 -13.2486 -13.0781 9.041
837 6 -17.4607 -11.0807 7.31524
1032 7 -16.4983 -14.2724 12.9066
840 6 -17.8238 -9.06092 5.85221
2520 7 -10.6671 -12.9039 19.5318
2587 3 -17.3823 -14.9063 16.909
2519 7 -10.5484 -11.4935 16.2554
820 6 -10.7145 -15.3126 9.85202
1000 7 -14.6101 -12.5519 10.0522
2368 3 -11.7013 -12.5932 19.6017
2556 6 -16.2373 -9.29613 20.0453
2521 7 -12.3307 -13.2126 18.925
1002 7 -17.7333 -12.0056 7.80244
775 6 -10.1244 -14.097 14.6194
3694 22 -10.0221 -10.9108 7.32166
3312 11 -15.5009 -13.6494 6.28496
2354 2 -14.4383 -9.01337 15.4186
834 17 -15.5705 -11.2639 8.45618
866 2 -14.0981 -14.5166 12.3802
2355 2 -13.1989 -9.82682 15.1837
2512 7 -12.8714 -9.94998 14.1486
2509 7 -15.0194 -9.62375 16.2225
2784 7 -16.6468 -15.4457 17.5119
2361 6 -11.7522 -10.7746 17.8898
1033 7 -15.6671 -15.1958 14.2577
826 15 -12.8269 -12.5058 11.0457
2517 7 -10.4489 -12.6004 17.5129
2513 7 -11.0817 -9.85905 15.3891
835 6 -16.3465 -10.3996 7.55781
2352 6 -16.3216 -9.72402 12.2957
2356 2 -11.9246 -9.283 15.8833
1025 7 -15.2657 -15.8086 11.3808
1031 7 -18.0405 -15.9639 13.8967
962 7 -13.2658 -15.7002 20.2769
2764 7 -16.0652 -9.97772 19.2593
773 6 -9.86097 -15.9501 15.8728
869 2 -17.214 -16.2612 13.2765
824 6 -11.3842 -16.3599 10.4806
3507 8 -16.1856 -14.3818 6.36652
829 6 -14.6525 -9.18392 8.0266
2767 10 -17.1695 -9.13602 17.3193
2505 7 -17.2245 -8.93449 9.75678
965 7 -13.3989 -16.3527 17.0989
3508 9 -11.8602 -13.9093 6.04976
3433 6 -18.608 -14.0183 8.83769
3313 16 -12.7932 -13.8913 5.79007
2568 6 -16.9027 -12.5311 20.5366
2780 9 -14.3668 -8.03462 -3.96278
2377 6 -13.7031 -4.51871 -6.72812
2414 8 -14.955 -6.67007 4.15445
2527 7 -16.0094 -2.61562 -5.90525
2200 6 -14.2415 -2.53074 1.27134
851 6 -16.0071 -5.77348 -0.449337
2557 6 -16.1635 -8.53449 -7.43291
1310 7 -18.497 -1.26201 -1.37411
2416 9 -16.0992 -4.43064 3.15162
2195 6 -11.2437 -5.58066 3.81309
2376 6 -14.6473 -3.44344 -8.49135
2935 6 -10.4794 -2.94049 -9.13755
2373 6 -13.1326 -5.60574 -7.54754
2194 6 -11.025 -4.61524 2.79263
1013 9 -15.2141 -3.72944 -2.74679
3791 21 -11.4756 -5.93582 -3.75638
2198 6 -13.6122 -5.22984 3.67237
1009 7 -17.1255 -5.80701 -0.491288
2374 6 -12.6262 -6.77437 -7.11884
849 6 -15.4534 -6.65306 0.559021
2585 16 -15.2269 -7.63657 -3.97162
2193 6 -12.1015 -3.9098 2.26825
845 6 -18.2273 -6.93681 3.05221
2932 6 -10.2243 -2.19536 -6.51688
2188 6 -11.8397 -2.82851 1.47726
2564 6 -16.0581 -6.40764 -5.74258
3836 22 -10.6525 -6.81751 0.720148
2534 7 -14.1254 -3.24384 -4.35873
2197 6 -13.4303 -4.23297 2.66991
2526 7 -13.432 -4.49555 -5.65829
844 6 -17.529 -6.47644 1.92386
2190 6 -12.9487 -2.2356 0.855726
2220 11 -14.8731 -5.65344 4.17215
847 6 -16.6156 -8.6554 3.47594
2203 2 -10.0943 -6.44758 4.38556
2766 7 -16.2191 -5.52691 -4.98315
2552 6 -16.5459 -7.32654 -7.92509
853 6 -14.0671 -6.75914 0.460145
3136 7 -9.95494 -4.95806 -8.34144
850 6 -15.2691 -4.99339 -1.33529
2379 1 -14.9377 -2.39223 -6.2604
2383 2 -14.1453 -2.34482 -4.96922
1012 7 -12.2258 -5.90421 -0.199192
2415 8 -15.6264 -5.16768 3.72041
2369 6 -12.2359 -7.79289 -7.99081
2401 7 -12.6371 -6.71071 5.06263
2549 6 -17.702 -4.90985 -8.60175
2524 7 -12.5607 -7.05915 -6.00377
852 6 -13.8802 -4.95985 -1.19214
2406 7 -10.6972 -7.31506 4.65038
3134 7 -10.9925 -1.77144 -4.57442
2561 6 -15.6769 -8.69267 -6.12432
2155 7 -12.8312 -1.79523 5.01355
1005 7 -17.8346 -5.53345 1.37127
1010 7 -13.39 -4.26279 -1.88377
2563 6 -15.7154 -7.60221 -5.23509
843 6 -17.7838 -8.04976 3.78744
2378 6 -14.4473 -3.4968 -7.17738
2554 6 -16.5429 -6.25481 -7.00458
848 6 -15.8716 -8.26011 2.43238
2221 16 -15.8983 -3.87037 2.37559
2936 6 -10.0197 -3.53075 -6.85587
855 16 -15.9097 -4.20954 -2.29436
1008 7 -14.8846 -8.74241 2.39944
2553 6 -17.2421 -5.03649 -7.35113
2196 6 -12.4924 -5.84713 4.27877
1011 7 -13.4844 -7.29955 1.23423
846 6 -16.2827 -7.11735 1.59679
2763 7 -17.3388 -4.17358 -6.62421
2199 6 -14.558 -3.54153 2.15142
854 6 -13.3239 -5.91345 -0.35663
3792 22 -10.6113 -6.70919 -3.73689
842 15 -18.5714 -8.47795 4.81211
3129 7 -10.4899 -2.98196 -2.93673
3143 8 -10.148 -4.23533 -0.974507
2533 7 -13.0484 -2.25216 -5.12865
2186 6 -10.5288 -2.29015 1.29065
3793 22 -12.3399 -5.16243 -3.77599
2762 7 -18.2405 -4.00081 -8.94352
578 7 -18.9077 -8.84939 -1.78011
2937 6 -10.2213 -3.88932 -8.16261
2402 7 -15.1597 -2.1425 0.733757
2372 6 -13.3636 -5.41201 -8.93348
2540 9 -13.5588 -2.12665 -2.58489
2931 2 -10.0361 -1.65403 -5.08283
2933 6 -10.8762 -1.65925 -8.80332
2158 7 -14.8972 -1.52576 4.89761
3496 9 -11.7482 -8.90641 -0.731743
2382 2 -15.3313 -2.21709 -9.17056
2530 7 -16.7265 -1.18155 -7.73606
2340 6 -15.975 -6.02172 11.9668
2565 19 -17.2986 -7.98889 17.9375
2337 6 -16.0122 -4.63765 13.9912
2363 6 -12.7253 -7.26237 17.801
2153 7 -11.8877 -2.40062 6.30015
2366 6 -12.8611 -6.37428 19.9564
857 2 -11.3607 -7.72834 9.3138
2525 7 -14.6195 -4.29877 19.4059
2492 7 -9.97243 -2.15996 13.969
1017 7 -10.5531 -4.90996 12.9185
858 4 -11.3494 -7.12702 10.6736
2343 6 -15.336 -4.93301 9.92644
2375 6 -14.1766 -4.37552 20.4125
839 6 -16.6279 -8.54139 6.33391
2940 6 -10.3416 -3.28233 19.322
2506 7 -14.7118 -6.76734 14.0072
2516 7 -13.1559 -5.16712 18.023
862 4 -12.1205 -7.50525 11.7831
1001 7 -13.5908 -7.19923 8.06191
2514 7 -11.6309 -8.27507 15.7105
2349 6 -16.8418 -8.14307 10.4012
2501 7 -16.6146 -2.58019 16.5002
861 4 -11.5089 -6.89448 12.9299
3610 7 -18.2832 -5.97819 6.35865
1016 7 -11.5608 -6.83844 8.57784
2341 6 -16.0401 -5.95365 10.5389
1020 7 -11.8405 -7.25028 13.9335
2342 6 -14.6563 -3.92398 10.5967
2330 6 -12.3535 -1.40931 13.2621
2532 7 -16.1894 -2.73499 20.2207
860 4 -10.3752 -6.14752 11.1086
2499 7 -14.2039 -3.07946 10.0873
3480 16 -16.5134 -1.64292 8.0733
2149 7 -11.1707 -2.06832 7.88296
2003 3 -12.9303 -2.04613 6.09297
2350 6 -15.254 -7.61492 13.5521
2566 16 -17.7879 -5.47061 18.9232
831 6 -13.5317 -8.25012 8.27825
2946 14 -11.2468 -5.07059 15.9881
3613 7 -16.7101 -3.59201 6.83847
3460 3 -17.7636 -3.47482 6.68776
2945 2 -11.2382 -2.77794 16.9385
2504 7 -16.7267 -6.96592 8.63341
2502 7 -17.2055 -4.18767 16.0861
859 2 -10.4237 -5.97321 12.5947
2336 6 -15.6242 -3.53037 14.6873
2333 6 -14.7335 -2.60326 14.1238
2334 6 -12.9216 -2.42403 12.5478
2345 3 -16.245 -3.5401 16.0989
2515 7 -12.805 -7.08129 16.6664
2503 7 -15.6317 -4.08921 16.7764
2497 7 -12.4358 -2.69264 11.6096
3141 7 -10.8609 -2.05477 16.2666
1021 7 -12.8642 -8.24596 11.823
2338 6 -14.7531 -3.88811 12.046
2498 7 -16.5839 -5.38388 14.5241
2555 6 -16.833 -8.11935 19.6112
1003 7 -16.2349 -7.56236 6.00399
2407 7 -10.6798 -4.45587 6.11957
3140 7 -12.3879 -2.97149 16.7334
2331 6 -14.2632 -1.42726 14.6804
2510 7 -14.3999 -8.02153 15.773
3137 7 -10.6382 -5.37721 18.8331
2346 6 -16.0545 -7.29523 12.4799
2358 6 -12.3879 -8.72811 19.6014
2339 6 -15.5215 -4.9112 12.6592
2348 6 -16.6093 -7.00527 9.75554
2944 6 -10.6622 -4.16547 16.7099
2154 7 -13.66 -2.87862 6.19118
2500 7 -15.3076 -5.03207 8.8781
2364 6 -12.9567 -6.17184 18.588
2335 6 -14.1925 -2.96888 12.9146
2941 6 -10.9352 -2.42108 18.3836
3462 6 -17.3142 -1.84732 9.14882
2768 9 -18.0591 -4.53228 18.911
2551 6 -17.5528 -5.83785 20.1861
2365 6 -12.4345 -7.65163 20.4456
3622 7 -18.0857 -1.87448 18.5835
3614 7 -17.9605 -2.45062 6.39323
2359 6 -12.4392 -8.53291 18.2015
2347 6 -16.4411 -8.42247 11.7328
3452 6 -18.2237 -2.96794 9.10822
2531 7 -14.7108 -1.89691 19.7088
833 6 -12.4914 -8.69405 9.04544
3454 6 -18.4423 -3.81936 7.92821
1015 7 -10.416 -8.18488 9.06819
3821 22 -18.6169 -7.29359 15.2499
2351 6 -15.1737 -8.85077 14.1739
3612 7 -18.0644 -4.12355 5.85966
2942 2 -9.85304 -4.67722 18.8758
2145 7 -9.69848 -1.4663 6.2236
2550 6 -16.9575 -7.0746 20.535
2177 9 -16.7352 2.70324 4.90548
1557 6 -16.0295 5.0849 2.64047
1645 6 -13.8619 5.23749 -8.08478
1632 6 -10.8528 3.18761 -4.60127
2950 16 -11.2434 -0.107993 -6.90226
2398 7 -11.2086 0.0101743 -1.12552
3148 7 -10.9592 1.24928 -9.03737
1669 4 -12.3758 2.17436 2.71477
2528 7 -13.8578 -0.747791 -7.19373
1820 7 -13.3869 2.49009 2.73857
1093 6 -15.7703 1.16749 0.135262
2380 1 -14.8329 -1.04037 -6.90977
1312 9 -13.9125 2.69541 0.709282
1642 6 -12.1511 2.93576 -4.16931
1640 3 -9.7558 2.83674 -2.28989
1105 6 -18.4688 0.828342 -4.07244
1108 6 -18.2625 -0.407638 -1.97805
2381 2 -15.7541 -1.10502 -8.1595
1813 9 -11.9774 1.47503 -2.74128
1094 6 -16.0366 2.54252 -1.8307
1649 6 -14.9028 5.94672 -8.74118
1668 2 -10.1761 1.14369 2.87712
2157 7 -16.1936 -0.529881 5.44049
2385 2 -14.4596 0.166879 -4.75106
1794 7 -10.5501 3.21668 -1.75406
1731 7 -17.62 2.719 3.08902
1306 7 -15.3077 1.02519 1.08012
2537 7 -14.8081 0.959733 -4.02961
2387 16 -14.0089 -1.31325 -2.76659
1730 7 -18.157 5.60167 -1.0491
1558 6 -15.6946 6.10181 1.84835
1567 6 -17.7893 3.24754 2.16932
2539 7 -16.4025 -0.263102 -5.63666
2386 2 -15.367 0.00863796 -5.96984
2185 6 -11.3686 -0.779489 -0.374066
1729 7 -15.4063 4.32834 4.51726
1814 7 -12.6056 4.85955 1.64168
2156 7 -14.9624 0.0113404 4.15071
1817 7 -12.334 0.26083 3.50689
1098 6 -17.4682 0.554795 -1.47638
1641 6 -12.9889 3.99113 -6.19781
2399 7 -13.5038 -0.48818 -0.452195
1311 10 -14.3499 5.86763 -2.82058
1586 4 -12.6385 5.4539 5.6281
1095 6 -15.3168 2.19018 -0.624585
1561 6 -14.3905 6.21886 4.1476
1795 7 -14.1809 3.32095 -4.47767
1104 6 -18.658 2.13931 -6.06721
1102 6 -17.5197 3.12581 -4.20658
1662 6 -11.4359 3.08436 2.06506
1308 7 -16.4423 5.02325 -4.20062
1111 2 -17.823 4.46312 -6.35534
1307 7 -17.1366 -0.484661 0.345248
1099 6 -15.8693 3.76998 -2.59336
1588 4 -11.2048 5.8266 5.61703
2535 7 -15.6203 -1.37533 -3.76493
2004 3 -15.1522 -0.543658 5.1657
2934 6 -10.8102 -1.29348 -7.44682
2529 7 -15.5909 -0.202613 -8.70086
1564 6 -17.0102 4.38466 2.02873
1100 6 -16.5941 4.05234 -3.71453
1666 6 -10.5159 5.19365 1.26974
1818 7 -9.83259 0.353209 2.28351
2538 7 -15.5055 0.968744 -6.56995
1096 6 -17.1161 1.72597 -2.27087
1664 6 -11.5888 4.45589 1.68573
1660 16 -12.4807 2.29979 -2.96461
1110 16 -14.238 2.87581 -0.177636
1565 6 -18.0734 4.84077 -0.211239
1667 4 -11.6996 1.05695 3.13708
1101 6 -17.7319 1.92004 -3.49985
1638 6 -11.4568 4.4759 -7.9957
1643 6 -13.1887 3.46762 -4.90419
1097 6 -16.7514 0.328799 -0.281826
1563 6 -17.2417 4.93794 0.844861
1559 6 -15.2364 5.15473 3.85633
2536 7 -13.3712 0.329418 -4.94751
3146 7 -12.6007 0.535964 -8.68781
1103 6 -17.9933 3.25914 -5.50452
1630 6 -10.5868 3.61284 -5.92758
1313 7 -17.5242 4.03579 -7.30093
1637 6 -11.692 3.97524 -6.72971
1562 17 -16.3878 6.19259 0.61127
1663 6 -10.146 2.5219 2.21462
1646 6 -14.061 4.57521 -6.88271
1644 6 -12.5384 5.14332 -8.63447
1796 7 -15.0144 4.67031 -6.36798
1314 7 -16.9361 5.07948 -6.02976
1636 6 -10.1748 4.3272 -8.58714
2024 16 -16.5541 1.83975 5.3872
2189 6 -12.6621 -1.17702 -0.0589578
1109 19 -14.9215 5.03339 -1.87828
2384 1 -14.5372 -1.20128 -4.07676
1587 2 -10.2489 4.66434 5.76624
3145 9 -11.4212 -0.200139 -5.92569
1798 7 -15.9688 5.91666 -8.4286
1676 9 -10.7693 5.74775 -1.19872
1474 16 -9.98518 6.1347 -1.53072
1585 2 -13.8089 6.30768 5.55197
2187 6 -10.2686 -1.30981 0.286658
3629 7 -18.5149 2.53262 -9.17357
2000 6 -12.9482 2.2336 10.5839
2332 6 -13.1133 -0.859692 14.2553
2152 7 -12.5242 2.51265 11.5443
2546 7 -15.575 1.27718 18.687
2951 3 -11.7968 0.673789 20.3921
1749 7 -13.6404 3.56269 5.77014
2010 6 -16.2564 4.38324 9.35515
3471 1 -18.6481 0.389024 17.2817
2958 16 -11.5046 4.02449 15.9562
1994 6 -14.2066 1.52998 8.24476
2953 6 -10.8374 3.11042 16.6362
3149 7 -12.3749 1.7469 16.4488
2543 7 -15.5357 0.515425 13.4033
3626 7 -18.6921 2.31493 16.2187
2392 6 -15.4279 3.47755 14.7349
2947 15 -11.6039 -0.263632 17.7302
1995 6 -13.0746 0.776811 8.67141
2545 7 -14.5611 3.80635 19.2772
2396 2 -14.7853 1.80292 18.046
2011 6 -13.6581 4.81679 11.902
3772 21 -11.5495 5.56129 8.74605
2002 6 -14.0745 2.92524 10.2315
2146 7 -10.5412 0.0993699 5.87903
1647 6 -12.3103 5.93078 20.0456
3633 9 -16.0802 -0.762831 8.06779
2395 4 -14.6891 3.2656 18.2893
2006 6 -15.8317 2.01625 6.52847
2391 6 -15.0492 1.84912 16.5272
1993 6 -12.5948 -0.332401 7.89226
2009 6 -15.5557 4.8617 10.4518
3618 7 -18.2625 1.05478 14.5345
1992 2 -11.2667 -1.02092 8.27445
2151 7 -11.5495 0.671178 10.3066
2393 6 -15.4372 1.23738 14.2185
2008 6 -14.3897 4.17483 10.8965
3773 22 -11.6193 4.40437 8.69857
2005 6 -15.7121 3.37623 8.56671
1997 6 -13.3216 -0.73526 6.82302
2939 6 -11.1799 -1.06183 18.7286
2952 6 -10.8179 0.796936 17.4888
1991 2 -10.1097 -0.115264 7.86494
2954 6 -11.3998 1.89582 16.8677
2148 7 -10.4575 0.910882 7.95324
3631 7 -17.9322 0.169153 20.0621
1998 6 -14.4076 -0.00346046 6.38604
3832 22 -18.5858 5.18794 15.9922
3619 7 -17.5938 0.392952 17.5037
2394 6 -15.5619 2.49125 13.7934
2159 7 -17.0671 3.67446 6.83591
1999 6 -12.4554 1.18515 9.90461
2007 6 -16.1745 3.11101 7.21637
1996 6 -14.7964 1.18408 7.0186
3463 6 -17.3995 -1.00865 10.2357
1590 4 -12.6657 4.05832 5.72791
3466 6 -18.3907 -0.192204 12.3923
2001 6 -14.6875 2.53544 9.0171
2493 7 -10.1511 -0.633105 14.8108
2397 4 -14.9124 4.02322 17.1627
1744 7 -14.5714 5.86016 6.16139
2389 6 -15.2819 0.899913 15.5884
2542 7 -15.434 4.56561 14.4263
3150 9 -12.2798 3.5861 15.5496
2548 7 -14.9805 5.08542 17.0956
1589 4 -11.3474 3.56609 5.83113
3615 7 -16.7725 -0.154744 10.302
2390 6 -15.1896 3.14892 16.0877
2547 7 -13.8773 1.25605 18.2179
3627 7 -17.2357 2.55169 18.4303
2161 7 -12.7999 4.28914 12.2648
3479 16 -18.6251 4.00888 18.3421
2494 7 -10.9162 -1.30432 11.8206
2495 7 -11.2158 0.261961 12.6104
2329 2 -11.0902 -0.795473 12.8066
2938 6 -11.2952 -0.716059 20.0734
3616 7 -17.8232 0.74432 12.4005
3147 7 -12.0968 1.11023 19.4538
2167 7 -13.5293 6.22814 14.6895
2544 7 -15.6949 2.76853 12.7854
2344 18 -15.1469 -0.789429 16.0708
2496 7 -12.6959 0.0144152 14.761
3831 21 -17.6231 5.82407 15.8742
2150 7 -11.1613 -1.26181 9.33399
2160 7 -17.0686 5.02905 8.93753
3476 1 -18.3783 2.6346 18.4099
1797 7 -11.3664 5.86044 19.5258
2328 2 -9.96551 -1.11066 13.8254
2013 6 -15.8626 6.09671 11.0845
2012 6 -13.9577 5.99139 12.5297
3461 6 -18.3089 -1.14513 11.3016
2168 7 -11.9862 6.23449 13.6509
1788 7 -9.82165 4.68803 20.184
1748 7 -11.2381 2.50526 5.70714
3559 7 -18.4778 3.94345 11.325
3469 6 -18.5519 0.0074661 14.7322
1457 6 -11.4617 6.48616 -3.32203
3547 7 -15.1523 10.4496 1.65912
1553 6 -10.2978 9.62664 -0.886978
3369 6 -16.6092 12.8636 1.24301
1704 7 -11.036 11.5916 -7.68143
1556 6 -14.8359 7.19339 1.85017
1742 9 -13.595 9.1541 3.00611
1521 6 -11.7857 13.5538 -5.08255
1074 7 -17.7978 7.27326 -2.73493
1072 7 -16.3322 9.80991 -3.1939
1076 7 -18.3985 8.5117 -0.508446
1726 7 -10.2545 9.98463 -3.07409
923 1 -18.2267 9.84385 -4.29004
1671 7 -12.8598 6.77198 -4.91458
3382 17 -17.0171 9.31634 3.20633
1520 6 -11.5098 13.1505 -3.78421
3376 6 -15.4835 10.698 3.71999
1548 6 -12.2664 9.72997 -2.2516
1531 2 -10.5261 13.3036 -1.74755
1754 7 -10.8464 10.0829 2.24054
1522 12 -11.8992 11.9704 -3.30791
1755 7 -10.9463 8.32381 2.14925
1552 6 -10.8817 9.74128 -2.11286
1549 6 -12.5152 9.14038 0.0291229
1714 7 -11.4427 12.9096 -1.33175
1084 9 -15.5437 10.9721 -7.73104
927 2 -17.9252 10.8173 -5.55027
1518 2 -12.5964 12.8609 -7.39142
3380 6 -14.7049 11.2991 4.77334
1688 9 -11.27 8.7079 -8.92945
1459 6 -10.1365 6.46742 -2.88665
1554 15 -13.3414 8.8112 1.08698
3375 2 -15.4577 11.2351 2.3261
1472 6 -11.0933 7.72287 -6.83757
1462 6 -10.8027 7.03258 -5.59566
1708 7 -12.9676 10.637 -6.12571
3377 6 -16.3784 9.12617 5.44546
1560 6 -14.2543 7.22395 3.18566
1083 7 -16.7807 7.56045 -5.18177
1077 7 -17.5343 11.8156 -5.27611
930 2 -16.1824 8.38633 -4.76567
1073 7 -16.3375 7.87363 -2.08298
1674 7 -12.1239 7.87733 -7.07693
1727 7 -15.1441 8.83582 0.423651
3575 7 -17.7518 12.953 3.73071
3562 9 -13.4663 12.6652 5.3342
1524 6 -12.4804 11.0939 -4.05766
925 2 -17.2762 8.21422 -2.51268
1081 7 -15.1902 8.95742 -6.64103
1550 6 -13.0548 9.35537 -1.20743
1670 7 -12.2481 6.42666 -2.5912
1082 7 -15.2735 8.00085 -4.20257
1079 7 -17.4791 9.39718 -7.13673
1725 7 -14.114 9.24856 -1.39701
3374 15 -16.7191 11.6578 1.79081
1805 7 -16.7459 8.16375 -9.11762
1555 2 -14.5049 8.06256 0.706812
1519 6 -12.3552 12.5928 -5.90502
1706 7 -13.5836 12.3774 -7.66624
3550 7 -18.603 8.01659 2.04212
1713 7 -9.9201 12.4228 -2.04685
3370 6 -15.6749 13.039 0.233786
1523 6 -12.6742 11.3718 -5.40649
1724 9 -10.4374 12.4568 1.99145
3384 6 -17.4512 8.20227 5.25498
926 2 -17.9332 9.05511 -1.34971
1461 6 -11.7567 6.76581 -4.63276
929 2 -15.7889 9.42537 -5.81676
928 1 -16.9195 10.1281 -6.53994
1728 7 -14.3083 7.49886 -0.168285
1517 2 -11.5348 12.2921 -8.30047
1075 7 -17.1001 9.57467 -0.77263
1584 16 -13.4344 8.35543 3.53076
924 1 -16.984 9.09816 -3.7158
1509 6 -10.7739 13.4155 -8.81046
3383 6 -17.7281 8.32208 3.98515
1080 7 -15.2026 10.2111 -5.326
3385 6 -18.5139 7.69666 3.05314
1547 16 -10.5635 12.6445 1.10464
1594 2 -10.5466 9.20903 1.65336
3545 7 -15.0777 12.1532 -0.045799
931 16 -16.4584 11.1249 -7.47675
3548 7 -14.7068 12.0992 2.29721
3404 16 -13.944 12.4254 4.54336
1747 7 -10.9665 6.82935 5.44661
1529 15 -12.872 9.93919 -3.48953
3378 6 -16.2316 9.7657 4.30359
1551 6 -11.1567 9.36208 0.206572
3414 2 -18.1811 13.6313 2.97618
3565 7 -10.1205 9.00826 5.40094
1493 16 -10.3456 8.53174 -8.84172
1816 7 -10.6542 6.28071 1.06552
1471 6 -10.0381 7.97498 -7.6541
1705 7 -11.9796 11.7541 -9.21383
1743 7 -13.6288 7.35796 5.90864
2023 16 -18.5788 10.0191 13.209
2021 2 -16.4322 10.0243 14.3146
1834 6 -10.4428 12.8173 16.2515
489 6 -16.0111 12.6028 10.1503
2014 6 -15.0934 6.68178 12.058
1800 7 -14.5083 9.15238 19.9011
1806 7 -17.4612 6.61658 19.7591
3407 2 -10.2989 9.64199 6.29884
2165 7 -12.556 8.39117 14.5028
3865 22 -17.5803 8.76882 9.53353
3563 7 -14.0552 12.3084 7.25342
1810 7 -15.3448 10.8687 18.1279
3564 7 -13.9477 10.8241 8.05953
480 6 -17.7214 11.6105 7.90347
1086 7 -18.4548 12.8056 18.7302
3387 6 -18.2327 7.16996 5.91857
1811 7 -15.8606 9.56848 17.1932
3549 7 -15.6038 9.15376 7.4432
1801 7 -12.9771 9.61386 18.1959
647 7 -15.621 11.7417 9.56817
2052 9 -10.7398 10.5521 17.5123
2051 8 -11.194 10.9941 16.0206
482 6 -17.9182 12.876 8.53935
2019 2 -16.8516 8.18643 12.7363
1650 6 -14.593 6.70988 19.9073
2162 7 -16.7297 6.67852 10.6893
2172 7 -16.5871 9.23136 15.0784
1652 1 -14.8288 8.8392 18.8907
1807 7 -17.8004 8.1931 17.8821
3405 2 -13.7493 11.2778 7.11167
3410 4 -11.3222 11.8304 6.21488
1856 11 -11.5233 11.9395 16.1498
3408 4 -11.7842 9.70706 6.66556
1804 7 -13.2789 6.82753 17.2038
1657 2 -17.1555 9.96378 18.8439
2163 7 -15.0118 8.88641 11.75
642 7 -18.6547 10.1938 6.43713
641 7 -16.9564 10.891 8.27524
2018 2 -13.1312 6.4742 13.6548
2033 4 -11.095 11.551 11.4701
2175 7 -14.6677 10.4804 13.3398
3381 6 -14.6934 10.7045 6.08555
1658 2 -15.7847 9.8734 18.2542
2026 6 -10.3198 10.634 12.2908
2016 1 -14.6518 8.40058 13.8054
2031 4 -11.5784 10.7914 10.4296
1699 7 -16.4497 13.6568 20.4976
1799 7 -15.6818 7.0563 18.0499
3567 7 -12.4851 8.88944 6.94186
3551 7 -18.0612 6.95274 6.98092
2181 7 -12.114 11.2982 9.59445
2166 7 -12.8826 8.42837 12.7557
3774 22 -11.4797 6.71824 8.79358
1857 16 -10.3543 10.7819 18.3313
2182 7 -10.6905 8.89041 9.73632
2020 1 -17.1946 9.70521 13.0836
3569 7 -11.429 12.937 5.92805
3409 4 -10.1733 11.0821 5.9335
1803 7 -11.8634 7.41938 17.9928
2164 7 -15.1531 7.78541 14.6097
1656 1 -17.766 8.55828 18.8749
1654 2 -12.9784 7.3336 18.1163
2171 7 -16.8431 10.3635 12.2796
3784 22 -10.2385 13.3216 9.39857
1700 7 -14.8479 12.998 18.1002
2015 1 -15.3716 8.09883 12.4579
3833 22 -16.6603 6.46027 15.7561
1802 7 -13.8706 8.96051 16.9599
490 6 -15.4952 12.9813 11.4086
2169 7 -17.2531 7.36104 13.3651
2017 2 -13.1873 8.01238 13.6553
2183 7 -12.2976 8.72525 10.5444
2170 7 -17.386 7.97359 11.8078
3406 4 -12.3661 10.9929 6.65205
1653 2 -13.5993 8.7398 17.9945
2173 7 -16.736 11.0274 14.7476
1809 7 -17.7244 10.661 18.1944
2184 7 -11.1538 12.6084 11.4806
1651 1 -15.5136 7.48815 19.0161
2050 8 -12.1376 12.1415 15.3435
1808 7 -17.1415 10.384 19.9403
2032 2 -11.3597 9.31407 10.5631
1648 6 -13.3287 6.65419 19.4217
2022 2 -14.9814 9.83232 14.1379
2174 7 -14.5166 10.0945 15.1332
3379 6 -15.5007 9.63776 6.44706
1655 2 -16.8592 7.59689 19.707
648 7 -14.5934 12.5089 11.8253
2027 6 -10.477 9.32314 11.7883
485 6 -17.1854 13.2988 9.70186
1515 4 -14.7311 13.6709 19.0165
1489 2 -5.01294 -23.987 -2.022
2311 16 -1.13551 -23.1567 -8.52626
1498 6 -5.79546 -22.2328 -6.49546
104 6 -3.45496 -18.4278 -5.6327
2111 7 -1.38412 -22.2101 -4.41931
1502 16 -6.14824 -20.9987 -8.40136
2072 7 -1.77122 -17.8509 1.95824
1503 6 -8.82064 -22.8282 -8.71165
1537 6 -8.12575 -22.005 -0.17854
2090 7 -2.96919 -21.3837 4.57401
1694 9 -5.67775 -20.3995 -7.86162
1541 6 -7.67594 -22.3795 4.67128
1893 15 -1.72507 -20.5182 2.30527
1539 6 -7.97515 -22.7004 3.3972
1887 6 -1.41822 -18.1754 3.04878
2064 7 -4.74905 -16.8487 1.86992
3331 4 -9.75611 -17.6128 -4.94863
1685 7 -5.87774 -23.396 -2.49576
292 7 -2.46592 -21.3484 0.153096
1888 6 -1.4748 -19.5418 3.28631
131 2 -1.54204 -19.9088 -1.3384
133 4 -2.64935 -20.6857 -0.725462
3334 2 -9.47356 -18.8983 -6.89573
1508 6 -9.61955 -23.8565 -8.34575
1722 7 -7.21158 -19.5313 1.015
1912 6 -1.9018 -21.8087 2.78554
1499 6 -7.75597 -22.8316 -7.78699
132 4 -2.28449 -19.2509 -2.40614
1684 7 -4.14941 -23.3262 -1.91703
1542 6 -7.02266 -21.1877 4.88755
1955 2 -3.20063 -23.8278 5.61884
1544 6 -6.52333 -20.3813 3.87723
1917 6 -2.64745 -23.4693 4.28923
1535 6 -8.05015 -22.4201 1.13831
1491 15 -5.02705 -23.5413 -4.71916
289 7 -1.00293 -19.183 -0.723063
1497 6 -6.60026 -21.9578 -7.59587
1546 3 -6.34588 -19.7269 1.60363
3332 4 -8.25862 -18.1156 -6.61805
2063 7 -5.16488 -16.7603 -1.05528
1723 7 -5.58245 -20.0337 0.967812
287 7 -5.61058 -18.7479 -3.10879
3917 21 -7.84618 -20.9358 -4.29995
291 7 -1.8235 -18.5652 -3.23489
1543 6 -6.80422 -20.735 2.57614
1716 7 -7.50675 -21.1913 -0.567658
1496 6 -6.01268 -23.3502 -5.6537
288 7 -5.13565 -19.8811 -4.21115
1719 7 -6.00185 -19.3912 4.12684
3333 4 -8.48017 -17.3052 -5.4501
1693 7 -4.80686 -21.6957 -6.45207
105 6 -4.08977 -18.0848 -4.38997
99 2 -1.79608 -17.9227 -7.52178
98 15 -2.54069 -17.726 -8.68757
1536 6 -8.83258 -22.7126 -1.11425
1721 7 -6.15799 -18.7176 2.09671
130 4 -3.75506 -19.5844 -2.45061
103 6 -4.17137 -16.7666 -4.06538
1914 6 -1.30232 -22.8181 2.00201
129 2 -4.71029 -19.1121 -3.55404
3517 7 -7.28925 -18.1547 -7.15453
100 6 -2.58392 -17.5137 -6.32745
293 7 -4.86441 -20.9291 -1.2776
128 16 -3.58742 -19.7088 -6.16268
1916 6 -2.4912 -22.1227 3.93852
3919 22 -7.38986 -19.926 -3.9571
3918 22 -8.30246 -21.9457 -4.64266
134 4 -3.89553 -20.4145 -1.31912
286 9 -3.1239 -19.7684 -6.98075
1540 6 -7.49094 -21.8944 2.34187
3522 7 -6.56127 -16.6658 -5.2484
1948 16 -1.51505 -23.8821 -1.95004
3518 7 -9.36872 -19.9963 -6.98748
2089 7 -0.939209 -22.5847 0.975028
1715 7 -8.79242 -22.4145 -2.14682
271 7 -1.34495 -18.92 -7.42497
2106 9 -1.70676 -23.6957 -1.05752
1718 7 -8.1293 -22.9982 5.49587
1886 12 -1.10177 -20.0306 4.47659
1501 6 -7.90144 -23.7577 -6.8831
1490 14 -5.01819 -23.7706 0.387184
1533 6 -8.91166 -23.4736 1.50933
3523 7 -7.34261 -16.714 -3.75618
3336 3 -7.56654 -16.4356 -4.83281
1883 6 -0.916367 -17.3848 4.11228
273 7 -4.75632 -16.4608 -3.18525
2062 7 -3.97793 -17.9009 -0.345124
2469 9 -1.97425 -23.4183 -8.89531
1538 11 -8.79407 -23.7842 2.911
1878 2 -4.31864 -16.8627 -0.369863
1532 6 -9.71569 -23.7516 -0.723133
2054 7 -4.68742 -18.2699 12.453
3813 21 -1.42324 -20.4526 14.5538
2114 7 -2.35727 -23.9377 6.3509
95 6 -1.11492 -17.243 19.3138
1850 2 -6.49052 -23.285 9.29791
3719 22 -2.41531 -17.2272 16.0512
2057 7 -6.84007 -18.9108 9.40449
60 3 -3.85656 -23.2471 14.2952
269 7 -2.44364 -20.2974 20.1485
1545 16 -6.84066 -20.8484 6.20253
1849 6 -5.31575 -21.3269 10.1085
1838 16 -4.19309 -22.4096 18.9175
1860 6 -4.66362 -18.4371 9.31168
2053 9 -8.76803 -19.515 14.4157
1822 6 -6.31867 -23.149 17.926
2055 7 -5.18086 -19.3116 13.9351
1844 6 -8.84782 -22.9239 12.8419
245 7 -4.08548 -23.2589 15.3458
246 7 -4.38306 -22.492 13.6963
798 5 -8.86313 -17.9383 17.2225
3366 3 -9.78078 -20.7709 8.9366
2045 7 -6.83739 -22.6613 8.49605
1823 6 -5.25494 -23.2699 18.8514
3686 22 -5.25296 -16.629 18.911
2056 7 -6.29682 -18.1245 12.9724
252 7 -1.55768 -23.2629 16.5535
1859 3 -5.45371 -18.9112 12.9277
1858 16 -8.00929 -19.5038 13.8348
1852 6 -4.14667 -23.0595 8.87854
1840 6 -8.86724 -21.7364 13.5511
73 15 -1.28458 -21.0559 17.8725
1861 6 -6.3222 -17.805 7.5827
1828 6 -7.64768 -21.9468 16.3605
2049 7 -3.40121 -21.1403 9.1477
1506 6 -9.31517 -22.1381 19.9617
1831 6 -9.72723 -22.853 15.5246
2115 7 -3.84334 -23.0413 5.98879
2036 7 -7.85754 -20.9173 15.9301
247 7 -2.73767 -23.1622 14.2561
2041 7 -9.84715 -20.5274 15.1583
1863 6 -5.1884 -17.1219 6.91092
3718 21 -1.47346 -16.9344 15.4407
799 13 -8.95629 -19.0811 16.9773
1890 5 -2.17175 -17.6005 9.24063
1848 6 -6.22709 -22.292 10.3491
3815 22 -2.41079 -20.7791 14.0403
1855 15 -4.31669 -19.2504 10.4455
240 7 -1.39486 -21.7967 10.7993
3668 22 -1.35199 -17.0982 12.6997
1843 6 -6.98255 -22.2141 11.5345
2048 7 -4.7649 -21.1461 8.03006
1842 6 -7.8629 -20.7771 13.2973
1845 6 -8.01916 -23.1997 11.8203
2058 9 -8.13719 -18.4651 7.35984
1864 6 -3.59208 -17.6533 8.70965
2043 7 -9.53538 -23.734 13.1647
1846 6 -5.86429 -20.0679 12.0275
1827 6 -6.49373 -22.0302 17.0982
1853 2 -4.39448 -21.5878 8.94094
1847 6 -5.17418 -20.1823 10.7792
1865 6 -4.05052 -17.0959 7.58474
1696 7 -8.75969 -21.2385 19.5882
1862 6 -6.00116 -18.457 8.77884
1830 6 -8.56744 -23.0214 16.2761
1891 13 -1.78559 -18.576 9.67449
1854 14 -2.94562 -23.5213 8.64139
94 6 -1.87091 -19.5044 19.6427
1837 19 -5.39766 -20.7323 17.1698
2126 7 -5.35416 -23.8004 6.7733
3685 21 -5.59538 -17.3588 19.7452
50 6 -1.06548 -22.539 11.5323
1866 16 -7.5677 -17.7513 6.98921
2039 10 -5.71795 -19.6031 16.4461
93 6 -1.82674 -18.1773 20.0573
2040 9 -3.51967 -22.7712 19.505
1720 9 -6.54122 -19.9322 6.11118
3541 7 -9.43606 -20.3057 9.85105
1841 6 -6.82456 -21.0264 12.335
800 16 -7.73377 -17.4702 17.8586
3543 7 -9.02132 -21.39 8.55093
92 6 -1.11829 -19.8975 18.497
49 6 -1.76527 -23.7117 11.7098
239 7 -2.66873 -23.8703 11.1365
984 9 -7.91993 -16.6123 18.2759
2046 7 -7.27682 -23.9957 9.45531
3687 22 -5.93816 -18.0885 20.5792
3083 2 -8.60848 -14.7966 -1.31318
2059 7 -6.05571 -14.7312 2.814
3084 2 -9.36354 -13.6626 -0.525663
1874 15 -3.57055 -14.3519 2.34087
3075 6 -6.48863 -10.5551 -1.89233
3241 7 -9.02736 -13.4993 0.449187
3067 6 -7.19508 -11.0956 -5.5264
2068 7 -1.39984 -14.6585 5.62938
3080 6 -5.96157 -11.3278 -0.767721
3230 7 -4.31138 -13.5553 -7.87241
810 11 -5.7435 -10.3476 2.76679
3073 3 -5.09701 -13.8116 -7.16767
988 7 -2.22741 -10.9502 5.45533
3078 6 -7.03577 -12.6603 -2.84353
2071 7 -1.21998 -15.7167 2.85692
1881 2 -1.70933 -14.9255 4.60106
275 7 -3.61223 -13.3496 -2.8412
3275 7 -3.05452 -11.9573 -9.05433
811 6 -4.6771 -9.5845 2.24342
3068 6 -7.34676 -10.6242 -4.21308
3064 6 -6.00108 -12.5937 -7.1194
3074 6 -6.87233 -11.289 -3.0765
3061 6 -6.63145 -12.0032 -8.1832
1875 4 -3.64847 -15.0541 1.20284
115 6 -3.1418 -10.2252 -4.08535
119 6 -3.55233 -10.4394 -5.3944
3234 7 -7.30404 -13.2917 -3.77756
1879 4 -4.30643 -16.2732 1.01457
3066 6 -7.68467 -10.389 -6.59703
819 16 -7.30986 -11.809 4.59734
1871 6 -4.04638 -14.9751 3.50111
106 17 -1.731 -15.5266 -6.36104
809 6 -3.29358 -11.1911 5.23851
805 6 -5.26457 -10.9348 3.95327
818 3 -0.986002 -9.68943 3.47523
2066 7 -2.86657 -12.8066 -0.817724
1869 6 -5.45428 -15.2661 3.56311
299 7 -1.33789 -15.6007 -9.01629
1873 6 -3.17972 -15.3339 4.5604
3242 7 -9.09671 -12.6947 -0.977662
280 7 -4.47735 -9.62092 -7.11257
3065 6 -6.21833 -12.0762 -5.8414
3063 6 -7.40187 -10.7737 -7.93203
3231 7 -4.59986 -13.952 -6.19337
120 6 -4.17184 -9.48072 -6.11074
111 6 -2.85388 -13.4239 -3.63549
807 6 -3.90613 -10.7424 4.09369
1880 3 -2.19941 -13.56 -0.400022
3081 6 -6.18376 -12.6686 -0.596569
3236 7 -6.09043 -13.113 0.397042
3797 22 -9.25568 -12.703 -6.20879
815 6 -2.2556 -9.38381 2.74798
1876 4 -3.3702 -15.8262 -0.928292
3229 7 -5.64245 -14.6519 -7.47673
279 7 -3.45232 -11.3856 -5.90347
3237 7 -6.7026 -14.8568 -0.4756
107 6 -1.85115 -14.4706 -5.43444
101 6 -3.24904 -15.8324 -4.64187
3062 6 -7.69725 -9.94499 -8.9941
3235 7 -5.79381 -10.7752 0.174316
1877 4 -3.13225 -14.6953 -0.0355325
3239 7 -9.0573 -14.9159 -2.33797
701 7 -1.41211 -9.39743 -0.458916
3238 7 -6.84942 -15.3702 -2.26314
812 6 -3.50752 -9.95414 2.91909
3082 2 -7.13639 -14.7098 -1.42186
989 8 -6.72086 -10.1095 2.6898
2065 7 -1.74471 -13.069 0.499457
108 6 -2.78258 -14.5318 -4.47067
3069 6 -7.946 -9.31697 -3.9998
3079 6 -6.77363 -13.315 -1.6397
3795 21 -9.20759 -13.3753 -7.15293
2069 7 -1.52022 -13.9693 4.1212
2061 7 -2.99039 -15.7748 -1.93089
3226 7 -5.61423 -12.4996 -5.01812
3070 6 -8.47131 -9.23332 -6.3492
3225 7 -8.28745 -9.04278 -8.92023
112 6 -2.07072 -12.3434 -4.00858
114 15 -2.32425 -11.1285 -3.33916
3077 6 -7.03425 -9.24578 -1.73393
996 9 -7.81413 -12.1387 5.34105
3240 7 -8.84999 -15.817 -0.902246
2067 7 -1.46315 -13.9232 -1.12156
806 6 -6.01699 -11.6809 4.82767
110 6 -1.01639 -12.346 -5.08232
102 6 -2.6495 -16.3247 -5.72714
1872 6 -3.87051 -15.9504 5.58334
3796 22 -9.15958 -14.0476 -8.09708
3521 7 -7.80626 -15.3422 -4.93041
109 6 -0.99945 -13.5191 -5.93212
3243 7 -9.60802 -15.1228 1.62979
1870 6 -6.03657 -15.884 4.65663
2060 7 -7.12903 -16.0191 4.67246
117 6 -3.33804 -8.97966 -3.49703
995 7 -1.00446 -9.30227 4.47483
977 7 -5.70696 -13.5084 13.3911
3118 6 -3.02894 -11.8103 17.6642
789 2 -6.46026 -14.3791 13.5942
808 6 -3.99561 -11.9883 6.11521
787 4 -7.83821 -10.226 13.4474
3224 7 -6.93594 -11.9765 18.0774
987 7 -3.53178 -12.4737 7.04716
3272 7 -3.55483 -14.3226 15.3733
801 15 -9.66903 -15.59 8.94998
974 7 -6.58819 -9.2903 9.32377
3274 7 -4.47917 -10.8622 20.4565
3125 4 -2.41054 -10.5487 18.0568
3025 16 -4.22765 -10.8879 13.0436
3117 6 -4.60046 -13.3446 18.4918
975 7 -7.97517 -10.4307 9.21257
783 4 -7.57556 -10.8366 12.2149
298 7 -2.11793 -15.4676 19.1204
802 15 -5.50436 -13.654 7.95449
803 2 -6.13939 -13.1433 6.84823
3059 6 -6.53123 -12.3777 20.2498
3072 18 -5.63126 -13.8547 19.8365
785 4 -7.37261 -9.82406 11.2526
3031 6 -1.54155 -12.6752 9.60101
985 7 -7.02028 -12.4552 7.14934
795 6 -8.03668 -15.4531 10.7427
3121 6 -4.56715 -14.1014 17.3178
3215 7 -5.46329 -8.90137 17.5731
3123 4 -2.69368 -10.3327 19.427
981 7 -4.26611 -14.2708 11.6259
3022 6 -3.2507 -10.0264 12.5395
978 7 -7.02477 -16.2456 12.8136
3276 7 -1.80678 -9.83249 17.4377
3120 6 -2.97832 -12.5368 16.4667
3270 7 -2.38065 -12.2288 15.6098
979 7 -5.29057 -15.9907 12.6379
3057 2 -8.24612 -9.42239 18.3418
781 6 -7.90793 -13.9319 13.6546
796 6 -8.40458 -15.121 9.39564
776 20 -8.15647 -15.8348 15.419
973 7 -6.2847 -10.8755 9.84148
3119 6 -3.81364 -12.2604 18.761
3188 9 -4.89261 -10.5128 13.6622
3023 6 -1.24174 -9.89238 11.0114
792 6 -6.33416 -14.2006 8.90689
3875 22 -9.63435 -13.1588 6.19459
982 7 -3.83148 -14.8261 9.89987
3026 15 -2.19374 -12.0354 11.8539
3027 6 -1.35819 -12.6963 10.9494
3024 6 -2.16822 -10.6212 11.7416
804 6 -5.32411 -12.2877 5.91912
3122 6 -3.66555 -13.7296 16.3232
305 7 -1.15337 -13.1804 18.9379
793 6 -5.88807 -14.4154 10.2286
3873 21 -9.46071 -14.3047 6.14584
779 6 -8.3405 -12.8178 12.9055
2421 7 -2.7918 -9.15836 8.57153
782 15 -7.39607 -12.1626 12.1155
3222 7 -7.78482 -9.85826 17.3655
976 7 -6.0944 -14.8331 14.5331
3058 6 -7.6444 -10.3353 19.446
986 7 -6.46877 -14.0617 6.28608
780 6 -8.83923 -14.4753 14.4446
3874 22 -9.28716 -15.4506 6.09685
788 3 -7.08654 -10.1291 9.8228
797 3 -4.4432 -14.1203 10.496
3191 7 -2.42874 -12.1867 9.17185
791 6 -6.7535 -15.0486 11.0833
794 12 -7.57563 -14.502 8.54297
3271 7 -5.20273 -15.0107 17.2527
138 2 -1.21873 -15.7901 19.6951
3124 2 -3.58454 -11.3824 19.9578
972 7 -8.14019 -10.7735 14.4174
983 7 -4.22982 -13.0204 10.2333
3060 6 -7.06166 -11.5894 19.179
790 2 -6.26894 -15.4983 12.5216
980 7 -8.73842 -16.034 11.3557
3273 7 -2.32066 -9.38805 19.9437
3223 7 -9.32591 -9.53518 18.1718
1892 16 -1.83269 -16.4313 9.84068
1868 20 -2.6152 -16.2809 6.79748
777 6 -9.70711 -12.4036 13.0451
2076 9 -1.55892 -16.6842 10.725
1867 6 -5.14218 -16.3063 5.69753
2419 7 -6.44414 -8.85762 6.35979
2921 6 -6.6634 -3.04345 -3.66371
122 6 -5.84403 -6.02059 -8.31108
2948 11 -9.24819 -4.53419 -1.286
532 6 -3.17022 -2.30583 0.184395
814 6 -3.47002 -8.00307 1.08509
3179 7 -1.55248 -5.73283 -5.48143
817 16 -3.26347 -7.08909 0.0761453
3885 21 -2.30226 -1.48699 4.44504
2924 6 -9.38379 -3.05153 -3.16659
3898 21 -3.72739 -5.3587 3.14578
990 7 -5.52006 -8.2035 0.750758
3126 7 -1.47183 -2.51407 -4.27123
3835 21 -9.60603 -7.31729 0.739118
2925 6 -7.15535 -3.91169 -2.6415
118 6 -4.38198 -8.18306 -5.57131
125 6 -6.11205 -6.37238 -5.60047
3144 9 -6.03207 -6.44839 -1.02951
3232 7 -8.4214 -7.82047 -2.4973
813 6 -4.6539 -8.63039 1.23757
2922 6 -7.56742 -2.37287 -4.4998
2144 7 -7.70759 -1.65326 5.22111
2915 6 -3.32888 -2.08 -5.16783
2926 6 -8.58735 -3.79732 -2.31914
2916 6 -5.26884 -2.99415 -3.93529
2919 6 -5.72745 -1.66873 -5.89295
992 9 -4.02605 -7.14307 -0.540348
3142 8 -8.64979 -4.81286 -0.513462
2405 7 -9.52845 -6.70975 3.48782
121 6 -5.07442 -7.16414 -6.24119
816 6 -2.36329 -8.34775 1.88974
2992 6 -2.94387 -3.3342 -8.89271
3171 7 -3.51671 -2.51317 -8.44869
284 7 -7.67741 -4.98828 -5.65351
2949 16 -6.71926 -5.81226 -1.12783
2928 6 -4.87177 -4.75068 -2.274
2918 6 -4.38943 -3.7289 -3.11369
2923 6 -8.9574 -2.39829 -4.26416
2993 6 -2.21513 -4.2535 -8.18689
2417 9 -8.33113 -7.71111 4.37652
687 7 -4.25299 -2.37589 0.0210187
2192 6 -9.71244 -4.24005 2.47836
2914 6 -4.74005 -2.24475 -5.00988
2927 6 -6.25998 -4.84271 -1.98027
3233 7 -6.9647 -8.76499 -0.711403
116 6 -3.94519 -8.00543 -4.2269
281 7 -4.3454 -7.4808 -8.19297
991 7 -1.4297 -7.78387 1.63019
277 7 -4.11313 -7.02393 -3.88651
126 6 -6.96363 -5.52149 -6.26301
3837 22 -8.55939 -7.81709 0.758159
2201 19 -7.9248 -2.48469 1.99646
283 7 -6.34261 -6.32722 -4.53888
2191 6 -9.51467 -2.98688 2.01184
2991 6 -1.49754 -5.29257 -8.83144
3172 7 -2.38347 -4.14512 -7.08408
3887 22 -3.00609 -2.33644 4.80385
2917 6 -3.00602 -3.513 -3.23921
533 6 -2.36457 -3.42839 0.148991
688 7 -2.81552 -4.37601 -0.181843
2913 6 -2.50954 -2.64837 -4.21393
3228 7 -9.1743 -7.72055 -4.99929
2400 7 -8.81227 -4.70886 2.93882
282 7 -7.44924 -4.45035 -8.13817
3130 7 -4.21066 -5.51105 -1.80933
698 7 -1.48728 -7.73287 -1.51048
123 6 -4.99511 -6.86604 -7.64174
124 6 -6.81947 -5.26806 -7.63468
3127 7 -2.19542 -3.94264 -2.63958
3076 6 -7.89753 -8.72783 -2.69181
3071 6 -8.58737 -8.69591 -5.09556
278 7 -2.97986 -8.82521 -2.44733
2222 16 -7.73815 -7.61772 5.09652
3227 7 -9.0847 -8.76464 -7.14815
531 6 -1.01819 -3.34757 0.399791
3135 7 -9.47799 -4.2323 -6.13683
2920 6 -7.07545 -1.74477 -5.67182
3132 9 -3.07522 -1.63862 -7.07987
2930 16 -2.73268 -1.41968 -6.18975
2204 6 -9.24762 -5.89541 5.60646
3128 7 -7.80406 -1.2253 -6.30008
2219 15 -4.43831 -7.21513 9.07438
3207 7 -7.26022 -3.44513 15.4889
2223 3 -5.72149 -8.19553 6.90088
3054 2 -4.90364 -7.42881 15.8753
3007 6 -4.20114 -3.99921 14.6035
970 7 -9.03458 -8.4866 13.6576
2440 9 -4.57753 -5.15883 6.00585
3019 6 -2.38131 -8.03961 11.8708
3186 7 -4.23146 -8.06986 13.0481
3139 7 -8.68429 -3.67915 17.3721
3181 7 -2.55175 -1.40497 13.2402
3217 7 -5.34587 -7.69655 14.8948
3049 1 -4.8839 -5.90887 15.9091
2215 1 -6.70045 -3.19495 11.0993
2225 6 -1.31182 -8.40834 7.31525
2327 2 -7.46344 -2.42968 12.2424
3021 6 -3.38424 -8.5391 12.6159
2224 6 -3.31525 -7.21088 8.22014
3005 6 -3.17991 -3.30235 13.9528
3138 7 -9.07916 -5.13014 19.5381
1019 7 -9.6583 -5.69436 10.4246
2218 14 -6.89339 -5.04554 12.5649
3008 6 -5.13437 -1.91024 15.2907
2210 6 -6.33119 -7.04798 7.50596
2255 13 -3.04505 -3.75714 8.16369
2226 6 -2.42661 -8.30027 8.13453
3053 2 -5.59576 -7.84835 17.2459
3212 7 -6.98018 -5.31194 17.7525
2408 7 -9.51693 -3.78783 8.29665
3169 7 -3.74852 -2.5184 17.702
3009 6 -5.23836 -3.28858 15.2081
2987 2 -3.87525 -2.35481 18.8098
2211 6 -5.69855 -6.6502 8.66895
2989 6 -1.60099 -5.37603 19.5676
971 7 -7.32751 -8.15195 13.9541
3183 7 -3.33515 -4.30962 11.9656
2208 6 -9.7256 -4.89354 6.42754
786 2 -7.99678 -8.76091 13.3387
2256 16 -4.37715 -4.35733 6.48614
2212 6 -7.21676 -4.82489 9.07169
2205 6 -7.40423 -6.30071 7.11007
1018 7 -9.4388 -6.34741 12.9883
3219 7 -9.33368 -6.59519 16.9336
2232 20 -1.13643 -4.45304 6.23092
2409 7 -8.54019 -3.7627 10.4252
2410 7 -7.77528 -2.87121 9.11599
969 7 -7.85508 -7.6575 11.1499
2214 2 -7.61745 -3.605 9.8814
285 9 -4.85567 -6.31739 20.01
3010 15 -2.08266 -3.96079 13.4582
3170 7 -4.99278 -2.50136 18.9889
2418 7 -5.05177 -7.94276 6.01802
2490 7 -6.75548 -2.43033 13.0957
3220 7 -7.12119 -7.87783 19.3974
3180 9 -1.76698 -5.0775 17.0591
3050 2 -4.1716 -5.50245 14.6583
3006 6 -3.26144 -1.9479 13.8248
127 16 -5.67449 -5.83037 20.1439
3052 1 -7.071 -7.47511 17.1994
3214 7 -5.15489 -7.24342 18.0524
2988 6 -3.03771 -3.43254 19.5443
3056 2 -7.76193 -7.97278 18.4872
2206 6 -8.13674 -6.61824 5.92529
3014 6 -1.44065 -6.25021 11.2442
3213 7 -7.67661 -7.93526 16.3294
2491 7 -8.34206 -3.1107 12.455
2413 7 -4.4195 -4.90822 10.4494
2412 7 -5.07575 -6.38512 11.2055
3184 7 -2.31052 -2.90691 11.7601
3209 7 -4.42596 -5.48698 16.766
2217 2 -5.38779 -5.36031 10.7303
2229 6 -1.65536 -6.18811 6.88488
2254 5 -3.5629 -4.61717 7.55194
3048 1 -6.34567 -5.38853 15.8167
3012 6 -1.41803 -4.91741 11.299
2213 6 -6.12999 -5.61954 9.46567
3218 7 -8.98691 -5.45222 15.5506
3055 2 -8.78662 -5.65475 16.5865
3208 7 -6.65602 -5.63188 14.7468
3051 1 -7.26494 -5.97531 16.8864
3210 7 -4.72214 -5.83568 13.7966
2411 7 -5.92202 -2.60174 10.685
2943 1 -9.34458 -4.51632 17.4515
3047 2 -6.39922 -3.86686 15.9358
2209 6 -9.0492 -4.55841 7.56711
3211 7 -3.20085 -5.90765 14.8209
2228 6 -2.82846 -5.97194 7.55103
3216 7 -3.86862 -7.85469 15.9432
2207 6 -7.89765 -5.20942 7.92472
3221 7 -8.68953 -7.36575 18.7816
2990 6 -2.31723 -4.4143 18.847
3206 7 -6.47164 -3.63367 16.9726
3018 17 -2.54532 -6.6158 12.0259
2216 6 -6.23593 -4.52805 11.5693
3011 2 -2.30491 -3.96061 12.1079
3168 9 -7.41554 -1.62276 18.1891
3020 6 -1.36199 -8.46116 11.1077
3003 16 -2.28623 -4.37271 17.4482
784 4 -7.76491 -8.58167 11.8515
3182 7 -5.97099 -1.37758 15.7913
2994 11 -0.986874 -6.56458 19.0378
3173 8 -1.70363 -7.14883 18.7174
2420 7 -5.05372 -8.88489 7.47367
1775 7 -7.26452 1.86495 -0.702019
1791 7 -7.24489 2.92253 -2.69393
1661 6 -9.08085 3.36714 1.93186
1625 6 -2.47721 2.14261 -6.234
1784 7 -6.42772 4.45223 -6.59543
1605 6 -5.23486 3.53001 0.590744
1627 2 -5.97016 3.59154 -6.11264
1985 6 -4.42115 1.39075 5.51496
3886 22 -1.59849 -0.637597 4.08649
1790 7 -6.52172 1.96215 -3.91774
2403 10 -7.91632 -1.12063 1.96317
1623 6 -3.46471 2.99058 -5.70686
685 7 -4.49956 -0.146347 1.13851
1780 7 -2.34399 2.08588 -7.30344
1611 6 -3.26009 3.48558 -1.38409
1665 6 -9.24752 4.6233 1.41662
1609 6 -4.36245 2.57303 -1.37642
1616 18 -7.53693 2.61701 1.71327
1612 6 -2.16744 3.31662 -2.23033
1989 6 -7.45083 -0.645176 5.59238
1626 2 -4.5308 3.4958 -6.69533
1633 6 -8.47697 2.70574 -4.35241
1782 7 -4.17226 4.53232 -7.02116
1639 3 -7.48864 2.16825 -3.4476
1819 7 -9.59907 1.05533 3.86934
1631 6 -9.28097 3.44897 -6.46768
1622 6 -3.36689 3.38423 -4.40342
1610 6 -3.10773 4.26152 -0.184613
2143 7 -5.48583 -1.111 5.14313
3133 7 -9.7689 -0.569384 -4.95749
1789 7 -7.84966 1.19573 -2.96362
1624 6 -1.39082 1.77716 -5.49755
2404 9 -9.3083 -0.127184 -0.742495
1635 6 -9.13005 3.8 -7.86793
1771 7 -1.60662 5.03052 1.26144
1614 6 -1.84237 4.44954 0.345771
2929 19 -5.24747 -1.0426 -7.35535
1770 7 -4.45588 1.86338 -2.15894
680 7 -1.39717 2.69955 3.45505
1619 6 -1.1838 2.27741 -4.16408
528 6 -2.80452 0.911324 2.02727
1778 7 -4.05201 4.1594 -3.98571
1607 6 -4.15432 4.39319 0.668073
521 6 -1.38714 1.03685 2.1005
1984 6 -4.1576 2.70025 5.66307
684 7 -3.54018 1.5044 2.58432
1781 7 -4.55611 2.8643 -7.63603
1774 7 -6.48562 0.740957 0.248432
1815 7 -8.37032 5.20548 1.21231
1606 6 -4.14645 5.45427 1.55684
3165 7 -2.8862 0.695767 -9.22286
3131 10 -6.15982 -0.170912 -7.98965
1793 7 -9.7775 1.7647 -1.94273
1783 7 -5.89219 3.74812 -5.03
1787 7 -8.13702 3.67958 -8.28657
1618 6 -2.28472 2.97595 -3.56868
1629 6 -8.27685 2.85281 -5.67998
2141 7 -3.60228 0.714198 5.13366
1785 7 -7.10259 2.36994 -7.4305
1628 2 -6.93421 2.47977 -6.36901
1675 10 -5.93913 5.86901 -1.73354
1792 7 -8.86804 3.38046 -1.92731
1634 6 -9.77556 2.8829 -3.81067
2275 16 -1.30968 5.82297 5.55901
1603 6 -6.30583 3.78455 1.46077
1617 3 -6.25993 1.4349 -0.550331
1768 7 -7.16942 5.11375 2.90925
1608 6 -5.17881 2.47556 -0.308215
1604 6 -6.29897 4.81824 2.36668
2140 7 -3.22662 2.94719 5.17944
1786 7 -6.52286 1.53492 -5.96428
1602 6 -5.2432 5.6672 2.37538
1746 7 -9.56443 4.37921 4.96154
2202 16 -9.07529 -0.837883 -0.224737
1773 7 -6.01061 0.796287 -1.36904
1473 19 -7.30643 6.22439 -1.85221
529 6 -3.34045 -0.0341149 1.13527
527 6 -2.57551 -1.06802 0.547945
1769 7 -3.36406 6.20712 1.4535
1613 6 -0.972743 3.26031 -1.60382
1988 6 -6.12512 -0.316802 5.47087
1947 16 -1.23178 4.35097 -8.44616
526 6 -1.14118 -0.9707 0.77246
3166 7 -3.25977 2.5695 -9.50624
3167 7 -4.60958 1.32368 -9.20376
2479 7 -6.58064 -1.07221 9.74575
2484 7 -8.75869 -1.04563 11.3785
2442 7 -1.1168 3.15809 6.07075
2481 7 -7.22226 2.03659 11.3735
2276 6 -3.08337 0.138194 8.72794
2319 2 -6.52999 -0.134672 10.259
1979 6 -4.69797 5.01378 6.05261
3160 7 -5.66665 3.35278 19.7887
1981 3 -8.68845 4.29826 10.6561
2470 9 -1.88483 5.09961 8.69723
2105 9 -1.23984 4.45521 20.4014
2290 17 -1.22501 4.25694 13.1744
2962 6 -8.64347 5.78652 16.8305
2985 15 -3.96398 0.165863 14.7299
2134 7 -7.83036 2.83671 8.81204
1972 6 -8.28038 4.8285 9.35104
2277 6 -3.31819 1.89815 10.4299
1978 6 -5.7006 5.91652 6.38804
3152 7 -9.469 6.25339 16.2886
2978 12 -3.81279 -0.324358 17.0518
2324 1 -8.6 -0.493709 13.4251
1975 6 -6.98361 4.14613 7.40057
2321 1 -6.65582 1.39636 12.1509
2286 6 -1.36759 5.41982 12.4076
1969 6 -8.29425 6.18723 8.95666
2982 5 -8.60876 -0.175575 18.4831
2478 7 -7.28511 0.509928 9.77456
2456 7 -1.66358 3.60555 9.53305
2485 7 -7.86449 -0.95692 14.2396
2965 6 -6.42974 4.62683 18.2213
2486 7 -9.22716 1.57474 13.0155
2960 20 -7.39306 2.34847 18.4055
2957 6 -9.05804 2.2321 17.7101
2138 7 -9.72495 4.54071 10.8772
2282 15 -2.80741 2.98435 11.1797
3161 7 -4.95043 5.00866 19.8412
2979 6 -4.15558 1.88646 16.4133
1986 6 -8.05209 1.49225 6.55158
1974 6 -6.81134 5.5175 7.04923
2975 6 -4.08085 2.27038 17.743
2480 7 -5.9598 -0.595325 12.23
2279 6 -4.60832 1.37846 10.7189
2489 7 -6.53237 0.841165 14.2591
2325 2 -8.52402 1.07805 13.6714
2326 2 -7.09155 1.53386 13.6075
3916 21 -5.27724 5.96009 10.3769
3162 7 -3.19124 4.17049 18.7218
2488 7 -6.95144 2.53339 13.9777
2976 6 -3.77964 -0.0271928 18.2769
1976 6 -6.34836 3.26731 6.54603
2487 7 -8.92607 1.2408 14.7423
2956 6 -9.43609 0.936159 17.8914
2323 1 -7.99165 -0.914628 12.1473
2977 6 -3.82172 1.29138 18.6829
2257 15 -2.39749 -0.719645 7.87697
2483 7 -5.23981 3.03283 11.9581
1973 6 -7.70997 3.89528 8.50805
2955 6 -9.56108 3.33697 17.1844
2963 6 -6.40681 5.98741 17.7713
2482 7 -4.58178 1.56981 12.8929
2980 6 -3.99318 0.573083 16.0458
3163 7 -4.09529 4.36992 17.2508
2973 2 -5.29578 4.14265 19.1182
1977 6 -5.07395 3.65439 6.09583
2322 2 -5.15568 1.9399 12.0663
2320 1 -6.79374 -0.112823 11.7652
2981 3 -3.60818 1.48692 20.1809
2139 7 -8.62323 3.20345 10.6393
2284 6 -1.60838 5.04433 11.1446
2278 6 -2.52764 1.21038 9.48419
2974 2 -4.10245 3.78568 18.1679
1982 6 -6.73886 1.90489 6.29713
2280 6 -4.4268 -0.147714 8.97784
2959 6 -8.67455 4.43412 17.3105
3164 7 -4.41265 2.69079 15.6665
2142 7 -8.74325 2.22761 6.96747
2454 7 -4.90818 -0.964166 8.43509
2252 6 -1.11463 -0.456504 7.47901
2984 16 -7.79842 -0.920778 17.6726
2964 6 -7.55639 4.02313 17.9768
2281 6 -5.18258 0.385583 9.96835
2453 7 -1.47964 1.57088 9.27264
2986 15 -3.53597 -1.03001 19.1419
2137 7 -7.97377 4.62206 11.4883
2983 13 -8.3509 -0.113727 19.615
3157 7 -4.69473 6.20523 15.3963
1987 6 -8.39604 0.216522 6.18146
2292 6 -1.24877 6.27368 14.4039
2312 16 -2.07781 6.01336 8.92501
2283 2 -1.66845 3.61547 10.6579
2147 7 -9.26416 -0.299223 8.57968
2291 6 -1.1752 4.97074 14.4135
2296 6 -1.18652 5.91187 16.8412
1745 7 -9.63457 4.70722 6.74112
356 9 -1.09369 -0.110356 12.3461
2288 6 -1.89225 6.19955 10.3193
1983 6 -5.75142 0.977885 5.75083
3004 6 -4.16841 -1.23063 14.5723
1990 2 -9.75342 -0.380398 6.43336
2293 6 -0.986509 3.97252 15.3099
2294 6 -1.00413 4.55037 16.6748
2136 7 -3.70721 5.35224 5.69462
1681 7 -3.86469 11.3476 -0.536238
3767 22 -2.07487 6.81044 -1.63872
1458 6 -9.11666 6.58894 -3.85808
1487 1 -5.85854 11.8643 -0.682066
1597 2 -7.19303 9.65106 3.21424
1592 1 -8.35803 9.97888 0.525986
1766 7 -6.05539 7.04118 3.91566
1486 2 -4.66897 11.0503 -1.1513
1598 2 -8.70019 9.43162 3.00154
1753 7 -8.88208 8.05238 1.23054
1751 7 -8.41391 10.2555 -1.60867
1466 6 -7.07036 7.10282 -5.67086
2124 7 -2.39605 9.6132 5.0478
2092 7 -2.1277 13.2429 0.407826
1528 16 -7.3766 11.1461 -5.28803
1469 6 -8.73943 7.5615 -7.38995
1758 7 -6.79827 9.16645 4.08005
1600 2 -6.13622 7.81195 1.78194
1500 6 -7.19633 13.679 -5.77029
1494 16 -4.69891 9.82581 -7.28722
1504 20 -9.26289 12.8438 -6.9489
1475 2 -4.61438 7.18367 -6.3429
1488 6 -5.34106 13.3437 -0.73727
1680 7 -3.29523 9.00493 -2.23738
1476 6 -4.21101 8.4045 -5.46899
1527 13 -7.85194 12.7154 -3.85201
1463 6 -7.73665 6.4414 -3.50376
2116 7 -4.67397 12.6161 4.78466
1764 7 -7.06992 7.2049 1.76902
1480 6 -3.7679 8.1475 -4.20293
1593 1 -9.08253 9.07824 1.56142
1599 2 -6.31056 11.4191 0.652769
1756 7 -6.4851 9.45696 -0.108589
2125 7 -4.02772 9.92076 4.33605
1601 2 -5.43319 7.03786 2.98056
2091 7 -2.00671 11.4818 0.943694
1761 7 -9.30737 10.3248 3.34046
1467 6 -6.11147 7.32033 -6.69687
1962 2 -3.29854 10.2259 5.21225
2118 7 -2.96135 11.5333 3.1497
1689 9 -4.89947 10.7238 -7.42594
1477 6 -4.40203 10.7251 -4.9387
1915 6 -2.09699 13.3107 3.5067
1526 5 -7.56475 12.5244 -4.93709
1760 7 -9.02948 8.61085 3.66673
1763 7 -5.53397 11.5237 1.45018
1595 1 -6.87301 9.98353 0.742206
3766 21 -1.88521 7.20471 -0.564385
1495 3 -4.0923 12.5642 -6.72645
1482 6 -4.40813 12.0887 -5.34688
1762 7 -7.06118 12.1566 1.051
1672 7 -5.71671 6.20411 -4.15056
1683 7 -6.70651 11.8189 -1.39725
1334 7 -1.06485 6.88446 -6.02409
1468 6 -6.46934 7.58622 -7.98541
1483 6 -4.73321 13.0239 -4.336
1478 6 -4.38337 9.65531 -5.92461
1759 7 -6.95446 10.7168 3.32922
1596 1 -6.34839 9.26659 2.03943
1712 9 -7.3043 11.1827 -6.23357
1465 6 -8.44202 7.20156 -6.08638
1464 6 -6.77186 6.60111 -4.42711
1481 6 -3.75396 9.15785 -3.27504
1919 2 -1.41167 12.3797 0.609276
1678 7 -4.31629 6.25652 -5.82589
1484 6 -4.55221 11.4006 -2.55305
1767 7 -4.50055 7.48376 3.32727
1757 7 -5.25242 9.75893 2.26285
1752 7 -8.69113 11.014 0.768227
1682 7 -4.85368 9.9883 -0.954475
1677 7 -4.01964 7.26889 -7.29892
2108 7 -1.29255 13.3697 -4.62003
1750 7 -8.27426 8.68243 -1.20303
1479 6 -4.25701 10.4256 -3.54313
1460 6 -9.45705 6.87914 -5.17552
1692 7 -3.28491 11.9727 -7.20561
1958 2 -2.18813 11.865 3.8724
1470 6 -7.75296 7.6685 -8.41262
1591 2 -8.81386 9.61235 -0.874726
1957 1 -2.81442 11.6287 5.20312
1679 7 -3.40104 7.17696 -3.92865
1765 7 -5.54291 7.77693 0.837805
1485 6 -4.72351 12.7125 -2.97697
3768 22 -1.69589 7.59884 0.510072
2452 9 -1.34438 6.75171 5.39805
1335 7 -1.34931 8.54369 -6.22464
1691 7 -4.9814 12.2166 -7.31949
1673 7 -5.74862 7.67478 -8.76754
1956 1 -3.86212 12.6479 5.57753
1690 7 -4.00886 13.6793 -6.82544
2119 7 -1.19442 11.3833 3.86557
1534 6 -9.785 13.7281 0.634359
1717 8 -9.63509 13.9626 3.39398
1913 6 -1.36468 13.6975 2.35879
3568 7 -9.38329 11.5471 5.29527
3566 7 -9.65666 9.30685 7.17739
2968 4 -4.87663 9.48342 15.8542
3154 7 -5.74586 11.1183 17.0508
1980 18 -9.44186 6.85614 11.4374
2127 7 -6.42102 12.8917 7.36726
2287 6 -1.8086 7.67732 12.2541
1826 6 -7.22743 12.5854 18.9338
1971 6 -7.61532 6.50064 7.72904
1836 6 -8.28613 11.6878 19.0041
243 7 -6.52078 11.0695 13.3853
1967 6 -8.56702 7.2052 9.89892
2463 7 -2.78302 8.02885 19.6028
2129 7 -5.03669 11.0102 8.96447
1964 2 -5.51895 10.3627 8.19905
2131 7 -7.39182 10.9579 9.04472
3158 7 -4.55475 7.49858 14.0508
2313 2 -2.39786 8.65522 10.1284
56 4 -5.63906 13.0355 13.5911
55 4 -3.56389 12.3205 12.9862
251 7 -1.24781 12.647 15.5984
1960 1 -4.99134 10.8115 6.84362
1686 8 -8.84857 8.14372 19.7296
2457 7 -1.92014 8.75193 12.5936
3153 7 -4.65339 9.89157 14.8346
3159 7 -6.18637 7.01095 14.6579
1835 6 -9.35192 11.7062 18.1779
3155 7 -4.02213 10.921 17.3091
2035 7 -6.03593 11.5555 20.3549
2122 7 -3.18763 9.98012 7.29777
3151 7 -7.57415 7.71772 16.8574
1963 2 -5.39404 13.2548 7.43211
2471 7 -3.18618 8.33827 9.50757
1824 6 -7.27097 13.6804 18.009
2298 15 -1.17078 6.38049 18.1257
2029 6 -8.77734 8.56794 13.3689
2180 7 -8.01905 10.0109 14.8375
1968 6 -7.98926 8.47754 9.71913
2135 7 -5.45974 6.95769 6.2198
1821 6 -5.22922 13.4652 19.727
2472 7 -2.82177 9.3099 10.892
2128 7 -5.12289 9.37565 8.4394
2117 7 -1.95213 11.6879 5.92519
2967 4 -5.21316 7.94462 17.4892
2025 6 -9.65258 8.34825 12.2595
2303 6 -1.71551 8.42194 19.2934
51 6 -1.3499 13.1493 12.6646
242 7 -6.64699 12.0027 11.9276
2465 7 -1.60271 12.3598 20.2975
1687 8 -7.52119 7.33214 19.3398
59 4 -4.54651 11.4392 12.487
2133 7 -6.83865 8.15086 6.60622
2030 6 -8.77764 9.83257 13.9829
2971 4 -5.19554 9.22132 18.0216
2459 7 -1.22486 7.80746 15.7113
2966 15 -5.33936 6.80276 18.1967
2961 6 -7.50478 6.55292 17.1097
2047 7 -5.14383 12.93 9.52505
2970 2 -4.92059 10.3163 17.076
54 15 -2.22025 12.0686 12.8491
3156 7 -5.24152 9.30586 19.1525
2120 7 -3.66356 12.1879 7.66951
1965 2 -7.07103 10.2961 8.27176
1970 6 -7.35172 7.87901 7.50635
3783 21 -9.58265 13.3216 8.44179
244 7 -4.27087 10.3807 12.1379
2969 4 -5.05925 8.12454 16.082
58 2 -6.01482 11.841 12.7726
2130 7 -7.55704 10.6001 7.36454
2179 7 -8.19569 7.76488 13.739
57 4 -4.24677 13.2975 13.6899
2304 6 -1.27106 9.64609 19.6918
1961 2 -3.94693 9.79858 6.49528
1966 6 -7.37756 8.83282 8.4893
2132 7 -8.11077 9.25533 10.494
1959 1 -4.41233 12.2509 6.92791
2121 7 -5.78693 10.8452 6.07309
2038 7 -8.35599 10.9624 19.8213
1492 11 -7.90657 7.97687 20.0277
1825 6 -6.12314 12.4531 19.7442
2123 7 -4.42235 8.82536 6.40129
2028 6 -9.50363 10.8798 13.429
1833 6 -9.31379 12.7591 17.1613
2289 6 -1.98075 7.46794 10.8844
241 7 -6.15728 13.7567 14.2643
2034 7 -4.35165 13.3148 20.3919
2285 6 -1.47756 6.56053 13.0609
1851 1 -5.2473 13.7431 8.86031
2044 7 -8.12251 13.7377 11.1973
2972 3 -5.11486 7.16286 14.9338
3785 22 -8.92659 13.3217 7.48507
2295 6 -1.18028 6.72616 15.7395
2475 7 -1.34644 8.18711 7.71798
2464 7 -1.83292 10.3214 20.4186
2314 4 -1.18913 9.27181 9.47294
2178 7 -9.30452 11.8705 13.8859
1829 6 -8.30937 13.7455 17.1237
1294 2 3.00361 -19.6579 -2.37252
268 9 3.97367 -21.7071 -6.65626
1448 9 6.87201 -18.059 -3.52188
1287 1 4.77156 -21.0754 -1.51002
1289 2 2.40429 -21.6721 -1.02809
1285 6 6.48564 -22.8199 -0.958104
1376 7 6.1787 -21.8525 1.671
1951 2 0.513008 -21.0041 -5.12184
1441 7 5.57623 -20.9812 -3.49193
2657 6 1.6766 -16.7996 -5.18777
2822 7 1.57087 -17.7623 -5.74897
1292 1 5.25759 -19.0496 -2.97821
1214 6 3.83678 -22.9806 3.85523
2110 7 0.13514 -20.6137 -6.09658
1440 7 2.2779 -23.7488 -0.144003
2906 7 7.80844 -17.5991 -1.46082
1346 7 6.23394 -23.6689 -4.22057
79 6 6.96308 -21.0495 -8.66329
261 8 5.43268 -21.504 -5.92002
77 6 5.90143 -21.3526 -7.84291
1953 4 1.83352 -21.6704 -5.10929
2113 7 2.78295 -23.6519 -4.7998
2829 7 5.53386 -17.8839 0.400007
1217 6 6.62162 -23.2053 3.28124
1286 6 5.1892 -22.4991 -1.20661
1219 16 2.52743 -22.8327 4.10295
1293 2 3.84263 -18.9786 -3.3882
2833 9 7.43439 -19.2454 1.20976
3777 22 0.990839 -18.9054 -7.29503
2830 7 6.11374 -19.2523 4.5172
2077 7 0.856485 -21.2822 5.28859
1374 7 3.82759 -21.7387 2.05195
1295 16 6.15686 -18.4852 -3.99938
2308 6 1.13898 -23.9629 -8.33408
1445 7 3.65217 -17.8585 -3.43918
83 6 7.53591 -21.0209 -6.47092
1447 7 3.17995 -19.0531 -1.41817
2672 6 5.61024 -18.6661 3.73831
1442 7 6.70529 -20.4402 -2.28145
1291 2 5.67268 -20.4619 -2.56307
3908 21 1.60983 -19.6719 2.27748
3776 21 1.56245 -18.8334 -8.30192
1437 7 1.38323 -21.4322 -1.42597
1216 6 4.43009 -22.3271 2.78577
1215 6 4.67378 -23.8484 4.59844
1288 1 3.33821 -21.0967 -2.00397
1954 4 1.85629 -23.0472 -4.69285
2669 6 4.13965 -17.138 1.93387
1885 6 -0.380032 -17.8876 5.26239
1377 9 2.21797 -23.6984 4.49544
2112 7 2.75267 -21.2278 -5.39148
2847 7 6.79758 -16.7149 -7.18299
1218 6 5.80232 -22.4617 2.50036
1435 7 4.78297 -20.5128 -0.557789
1438 7 2.39756 -21.1788 -0.0307743
1443 7 5.34668 -18.3535 -2.14348
1950 4 0.474679 -23.3338 -4.51343
1436 7 3.29752 -21.6908 -2.89277
2832 7 4.27681 -18.0867 5.25752
1884 6 -0.515155 -19.259 5.42617
1444 7 3.86497 -19.3845 -4.36141
82 11 6.21029 -21.5176 -6.50028
2673 6 3.82377 -17.1871 3.34615
2674 6 4.48525 -18.0474 4.15308
1446 7 1.97766 -19.4827 -2.61134
91 16 3.63262 -21.8717 -7.51211
2661 16 0.377921 -17.4914 -3.27381
78 6 4.63749 -21.5092 -8.37657
1434 7 7.17723 -21.9094 -0.942765
1439 7 2.26539 -23.5719 -1.8978
1290 2 2.68416 -23.2314 -0.998442
2646 15 4.82949 -17.0704 -8.7802
2675 16 7.07108 -19.3597 2.06757
2824 9 0.0554833 -18.041 -4.01537
2466 7 1.39267 -23.1186 -7.71861
2671 6 5.31876 -17.8628 1.4768
3909 22 1.56433 -18.7307 2.95398
3910 22 1.6552 -20.6131 1.60107
2670 6 6.03266 -18.5702 2.41484
2109 7 0.467325 -20.1577 -4.40887
1284 6 4.19 -23.4598 -0.984366
2831 7 2.92402 -16.6242 3.66225
2658 6 1.06754 -16.5519 -3.90297
1952 4 -0.306152 -22.1512 -4.60826
1375 7 7.67762 -23.2331 3.04146
2828 7 1.47638 -16.482 2.23045
1213 6 6.02901 -24.0205 4.38328
262 7 7.95797 -20.8789 -4.39316
272 7 -0.897679 -17.2912 -7.75616
290 7 -0.698379 -20.5511 -1.67877
43 6 1.19064 -21.4045 12.2239
260 7 7.64419 -20.7097 19.0381
52 6 0.574202 -23.3795 12.9951
1902 11 4.83981 -21.671 8.28371
2642 6 5.66292 -17.6871 18.8941
237 7 2.80389 -18.5948 11.2072
1911 16 3.1204 -20.3195 6.32946
235 7 5.6196 -19.6659 11.3417
48 20 2.07832 -23.2321 14.1076
2081 8 5.43546 -21.5697 7.48181
1894 15 -0.0143214 -19.8921 6.593
258 7 2.6518 -20.5037 18.8984
256 9 5.31142 -22.404 13.4229
257 7 2.3964 -21.8736 20.0985
68 6 -0.237355 -21.9888 17.651
40 6 3.57031 -19.8967 12.8472
2791 7 5.92392 -23.062 17.5219
294 7 1.72213 -16.8028 18.3615
3778 22 2.13396 -18.7613 20.4873
71 13 3.78558 -21.1715 15.5897
44 6 3.27764 -21.1563 13.4327
3669 22 0.925245 -17.096 12.2566
234 7 5.42045 -18.7814 9.92116
1906 6 6.80936 -23.2931 11.0856
76 6 4.40957 -21.2769 20.0236
1895 2 0.381023 -21.2768 6.28905
2615 6 7.61492 -18.7638 14.6307
2621 15 6.42444 -18.3311 16.7445
2644 6 7.92879 -17.0899 18.2495
65 6 1.62012 -23.9295 17.1714
26 6 5.3061 -17.5201 11.5858
1901 6 1.78074 -23.3599 9.01564
1905 6 6.58285 -22.465 9.97076
2073 7 0.200448 -17.6194 7.31151
2792 7 7.73732 -21.1339 16.9023
1896 6 1.38932 -21.8304 7.18842
1904 6 4.2317 -23.236 9.87429
1898 6 2.66854 -21.373 7.20678
2790 7 7.43972 -23.293 18.3819
39 3 5.86054 -18.7014 10.8853
1899 6 3.11931 -22.9519 9.05881
29 6 3.95326 -16.789 13.5117
2641 6 5.83303 -17.112 20.1291
45 6 2.1195 -21.7497 13.0831
74 15 3.18293 -22.5119 18.3516
2616 6 7.19682 -17.929 15.6647
42 6 2.68404 -19.4989 11.8065
3814 22 -0.435724 -20.1259 15.0673
236 7 6.88708 -18.6399 10.8105
238 9 1.14559 -18.8977 10.1011
1900 6 0.963943 -22.7615 8.1393
81 6 6.80705 -20.9373 19.7112
2606 2 6.97368 -23.1972 17.3777
3039 16 4.13317 -16.9492 8.10084
2800 7 7.33772 -19.8352 14.7378
2079 7 -0.141753 -23.0183 8.15056
259 7 5.24737 -20.8237 18.122
66 12 1.01093 -21.7899 18.1908
3667 21 -0.213323 -17.0972 12.4781
64 6 1.88635 -22.7899 17.9148
2074 7 1.44843 -17.1095 6.18286
135 2 0.816963 -16.7591 17.7679
27 6 4.63397 -17.8219 12.7423
35 15 4.61456 -19.135 13.2239
75 2 3.08894 -21.4556 19.327
72 16 5.26103 -22.153 14.389
2640 6 6.71386 -17.6895 17.9031
1897 6 3.50847 -21.9661 8.14101
47 6 0.273266 -22.4183 12.1442
41 6 1.55999 -20.269 11.3991
2817 7 4.70773 -18.1087 18.6049
3197 9 4.97216 -16.9513 7.6176
96 6 -0.237831 -18.9889 17.9791
70 5 4.06113 -21.6131 14.5702
1903 6 5.32269 -22.4958 9.40634
97 6 -0.242008 -17.6825 18.3715
80 6 5.50623 -20.9558 19.2402
46 16 0.863289 -19.8056 10.2748
2082 7 7.36623 -21.9634 9.51272
2088 9 4.05315 -20.3678 6.1635
270 7 0.611779 -19.2281 17.3218
229 7 3.69371 -18.139 15.2355
33 2 3.22366 -17.2198 14.7478
228 7 2.12201 -17.4266 14.6421
1889 3 0.300963 -17.1454 6.31586
2614 12 7.38817 -16.6087 15.5868
2078 7 -0.453396 -21.9692 6.22109
295 7 1.02633 -16.9827 16.6854
2643 6 7.091 -16.712 20.4811
67 6 -0.518354 -23.0688 16.8701
38 16 7.18578 -16.6073 9.54438
2607 4 7.76875 -22.1846 16.6126
3720 22 -0.531451 -16.6417 14.8301
1051 7 7.95731 -21.298 6.57943
721 9 2.10228 -12.6601 0.155002
551 6 3.55977 -11.0912 0.965195
2648 6 4.15846 -14.8094 -8.21096
2846 7 7.0703 -15.1662 -7.86299
3488 2 7.21273 -14.869 4.91871
2667 6 1.06261 -15.8054 0.278766
2654 17 2.9499 -15.9627 -6.81946
2836 7 4.801 -10.5526 -7.15405
3922 22 3.22343 -13.261 3.16179
542 6 0.768175 -9.04449 -0.387986
2652 6 4.86634 -13.5823 -8.41572
554 6 5.68911 -10.4746 1.76899
2655 6 2.33014 -15.6709 -5.50572
2656 6 2.4563 -14.4012 -5.08512
2827 7 -0.0264829 -15.5765 0.459144
2650 6 3.53795 -14.7003 -7.03523
2886 7 7.23366 -10.2107 -2.39902
3921 22 1.08317 -12.4231 3.4768
2663 6 1.50106 -15.6098 -1.00062
2649 6 3.38425 -13.8241 -6.01427
2821 7 4.22693 -11.8508 -5.46977
274 7 -0.396421 -13.7456 -6.82298
703 7 3.81116 -12.2299 1.01077
700 7 -0.506705 -10.574 -1.34451
3489 4 7.00986 -14.055 2.643
113 16 -0.249317 -11.2737 -5.24839
549 6 4.40451 -10.0565 1.36973
2660 6 1.24459 -15.3233 -3.24958
704 7 5.86361 -11.5825 1.87263
3640 7 6.50437 -13.6812 1.78477
3638 7 6.93428 -15.8515 5.30076
2662 15 0.647907 -15.1156 -1.99802
2905 9 4.45735 -10.0136 -4.18733
2664 6 3.74666 -16.0397 -0.240453
1882 2 -0.84808 -15.9346 3.84041
2884 7 5.89323 -10.0549 -1.17377
2759 4 7.4043 -14.1045 -3.45362
2678 4 6.73045 -11.2363 -6.76641
3001 16 1.06141 -9.99993 -7.93968
2909 7 6.68169 -13.7429 -4.21373
2823 7 2.05504 -13.2694 -3.22304
548 3 -0.477066 -9.97553 -0.418326
540 6 1.958 -9.41646 0.189472
2653 6 4.78179 -12.5886 -7.43797
2686 2 7.31955 -16.2178 -7.97058
2761 4 7.18215 -15.3822 -2.9158
304 7 -0.708494 -13.4253 -9.17257
550 6 2.39297 -10.8011 0.282561
706 7 7.93353 -10.8448 3.17367
2912 7 6.30191 -15.9034 -3.16789
568 16 1.64727 -11.8577 -0.121692
3637 7 5.20308 -14.3446 3.73429
2668 6 1.89349 -16.2298 1.257
276 9 -0.528361 -10.5377 -4.64708
2665 6 2.88185 -15.68 -1.25646
2682 4 7.88251 -11.9288 -6.80656
702 7 -0.536963 -10.5985 0.476675
994 7 -0.878936 -10.7639 3.54144
2885 7 7.40226 -10.0931 -0.56502
2659 6 1.9126 -14.2207 -3.79339
2677 2 5.48071 -11.2662 -7.56729
2732 3 6.88622 -9.73329 -1.43908
2680 4 6.94368 -10.1292 -5.89132
2070 7 0.170868 -15.5964 3.86656
2839 7 6.16079 -9.44629 -5.57448
2826 7 3.40201 -15.4651 -2.18988
553 6 6.49404 -9.49935 2.43658
557 6 7.5142 -9.79202 3.25871
2835 7 5.74828 -11.044 -8.58212
2651 6 4.07707 -12.6315 -6.28682
2752 16 4.882 -9.68939 -3.38581
3487 4 6.27056 -14.5068 3.76423
2825 7 4.79655 -16.1604 -0.545533
3920 21 2.15323 -12.8421 3.3192
3176 9 1.13064 -10.5318 -8.74035
219 10 3.96799 -11.2917 5.52237
2647 2 4.06568 -15.9332 -9.1513
993 7 -0.177072 -9.27277 2.92592
2666 6 3.30463 -16.3996 1.03411
361 7 5.396 -10.0547 12.6581
30 2 2.86446 -14.715 13.688
142 2 -0.346725 -13.5371 19.5049
143 2 1.62599 -14.3437 15.91
28 6 3.83679 -15.5472 12.9599
136 1 0.403767 -15.2469 17.8208
154 6 7.39151 -9.46558 19.0819
3846 22 2.60186 -11.3075 8.33145
2834 9 6.14168 -12.587 20.3023
3036 6 3.72205 -15.0203 6.74833
3032 6 -0.637976 -13.2826 8.77745
140 1 1.37631 -12.8179 17.8316
3030 6 0.525569 -13.9215 9.27658
2623 2 7.7303 -14.2632 15.74
306 7 0.922156 -15.1098 15.566
139 1 1.54366 -14.2995 17.4161
23 6 4.48669 -15.1971 11.7713
3029 6 -0.198426 -13.3314 11.5046
3194 7 4.5264 -15.2832 6.0589
300 7 2.43191 -14.5945 17.9139
7 6 5.3854 -10.0075 7.13756
227 7 3.82596 -14.0712 15.7144
21 6 5.37524 -16.1759 11.2202
216 7 5.9051 -12.1307 6.90785
10 6 6.95287 -11.2285 8.49653
223 7 5.09188 -12.6465 9.78003
34 14 3.75347 -16.381 17.0204
3035 6 2.27713 -15.5012 8.59172
307 7 1.31084 -13.3993 15.4838
3034 6 3.36175 -15.8833 7.85526
226 7 2.87479 -13.6629 13.322
310 7 2.81993 -11.0869 19.5616
31 1 3.00757 -14.6907 15.275
309 7 2.78498 -11.8058 16.5606
3028 6 0.548948 -14.1294 10.6532
2639 16 6.667 -11.8679 14.2241
224 7 3.61949 -13.2567 11.476
3844 21 2.22844 -10.676 9.22992
11 6 7.41738 -12.4599 9.01017
24 6 5.18877 -13.6273 10.1674
20 6 6.05374 -14.5295 9.64342
221 7 8.03733 -14.3108 8.46909
158 6 7.84434 -10.7062 19.5812
32 6 3.32632 -16.1033 15.7538
222 7 6.49419 -13.8385 7.57
2820 7 3.03612 -16.2286 20.5113
3195 7 1.33405 -12.7039 7.16294
364 7 2.64454 -10.083 12.0899
150 6 5.14027 -10.1778 18.5892
3033 6 1.54873 -14.3493 8.37096
213 4 3.21317 -9.4401 12.7843
297 7 0.862924 -15.2823 19.9484
3037 6 1.82159 -13.6585 7.22451
2075 7 -0.0155697 -16.1121 6.29233
2230 16 -0.591309 -9.53725 7.39306
225 7 1.81064 -15.0721 13.4901
3038 6 2.93505 -13.9257 6.43091
311 7 1.81844 -10.3359 18.3871
141 2 0.878965 -12.722 19.2461
145 2 2.75263 -10.8626 18.5031
2816 9 6.86818 -11.3074 13.4857
3816 21 0.890238 -10.7148 15.2022
25 6 4.28241 -14.0038 11.1145
146 6 3.89496 -9.91555 18.1798
2806 7 6.64135 -14.3375 15.5667
8 6 6.09662 -11.1472 7.36268
137 1 -0.0240762 -14.9741 19.3056
2626 6 7.74354 -11.8087 15.1321
22 6 6.14746 -15.8169 10.1186
2819 7 4.42734 -15.6312 19.6555
303 7 0.660513 -11.6689 19.5306
308 7 3.62396 -12.7567 17.8105
144 2 2.71609 -12.0828 17.6276
3818 22 0.322085 -9.91079 15.8156
3189 7 1.41445 -14.5544 11.1889
2805 7 8.14872 -14.8586 16.559
19 2 7.02035 -13.8882 8.54263
296 7 -0.490232 -15.066 17.2588
2422 9 0.361655 -9.32827 7.15482
301 7 0.695571 -12.4168 17.0884
3190 7 -0.0224377 -13.4107 12.5854
17 19 4.3297 -10.0783 5.8019
9 6 7.25803 -10.0733 9.27019
3817 22 1.45836 -11.519 14.5888
313 7 5.24358 -11.0917 19.135
315 7 7.29728 -11.5732 19.2622
3187 7 -0.330568 -10.3922 10.6505
3845 22 1.85491 -10.0444 10.1284
233 9 7.74546 -16.2006 8.8182
302 7 1.5617 -12.9931 20.0429
211 4 4.57063 -9.34635 13.0228
2809 8 7.2108 -9.18641 14.2693
3192 7 -0.724054 -12.9935 7.7898
2676 16 5.61533 -13.3837 20.2123
3193 7 1.94828 -16.034 9.52883
4 6 6.4978 -8.95757 9.05692
3639 7 7.01523 -14.1546 5.76546
151 6 6.17234 -9.22597 18.4564
3174 7 0.455123 -8.83726 19.392
3196 7 3.18047 -13.2831 5.6477
530 6 -0.472397 -2.16041 0.848972
689 7 -0.704319 -5.45936 0.224674
2737 6 3.54255 -4.14124 -5.16786
705 7 5.90926 -6.42224 3.70556
333 7 6.72771 -6.66959 -5.08812
2245 2 0.994507 -3.32159 4.83597
2743 1 2.33392 -1.41366 -7.62674
2733 6 3.96947 -6.18025 -3.92831
3177 7 -0.191133 -4.8118 -6.19656
2233 6 2.09981 -6.97376 4.35311
2880 7 6.01551 -2.29535 -2.66382
175 6 5.96054 -3.40194 -8.26143
3000 6 0.275701 -7.99895 -7.0868
2728 6 5.91237 -3.3463 -2.43752
546 6 4.89299 -7.75339 1.75179
544 6 4.63419 -6.42536 1.37052
2431 7 3.78748 -1.46952 2.17062
2239 4 3.87746 -4.03377 4.18635
2432 7 -0.0768003 -2.97765 4.81735
538 6 2.95531 -8.44049 0.396873
2891 7 3.07211 -1.34463 -8.37701
693 7 1.18533 -5.48732 -2.34266
178 6 5.63677 -6.10939 -7.78671
331 7 6.43823 -1.25929 -8.10413
2736 6 4.20778 -3.3878 -4.12059
204 16 3.28623 -7.41439 -9.01865
694 7 2.74668 -5.23019 -1.69323
336 7 5.64062 -8.20247 -8.44724
2237 6 1.06243 -4.79179 4.88935
2740 6 3.64114 -1.36676 -5.35049
536 2 1.68021 -5.43988 -1.43444
690 7 0.314042 -4.72631 1.36714
692 7 1.68962 -3.56827 -0.178595
2738 6 3.32026 -5.52196 -4.9755
2730 6 4.91068 -4.08235 -3.08609
183 3 7.29096 -5.94445 -5.75679
2240 4 5.46603 -2.42299 4.47417
2234 6 1.201 -7.63227 5.15677
534 2 -0.104538 -4.54519 0.4166
535 2 1.01478 -4.29903 -0.603403
543 6 3.6821 -6.14567 0.48889
2890 7 2.60422 -4.05304 -7.09519
556 6 7.41664 -7.84408 4.45562
2726 6 6.86792 -8.2118 -1.66131
2235 6 2.11331 -5.55037 4.28838
2998 6 0.508884 -8.76427 -8.19785
174 6 5.08183 -4.16212 -9.08523
177 6 6.48618 -5.38754 -6.96595
2241 4 4.45908 -2.89819 3.6265
179 6 6.01689 -2.05194 -8.69848
2725 6 7.92491 -7.56476 -1.11641
539 6 2.72611 -7.11952 0.0441295
2898 7 1.19883 -3.2161 -8.32247
2879 7 7.66178 -3.43586 -1.27816
2238 15 3.0435 -4.9166 3.45838
2722 6 5.81813 -6.21362 -2.33224
2999 6 -0.37733 -6.79525 -7.12084
2430 7 5.24009 -2.40173 1.73234
176 6 4.86882 -5.50142 -8.80085
329 7 7.29005 -3.04526 -5.14981
2729 6 4.79238 -5.48283 -2.99608
2887 7 3.34677 -8.14411 -4.74138
338 7 6.51975 -8.02518 -7.14347
2897 7 0.163262 -1.94817 -7.60918
552 6 6.01354 -8.14873 2.49666
2888 7 2.87635 -6.05522 -5.79398
184 3 5.63362 -7.60737 -7.53947
2741 6 3.07785 -3.45984 -6.27339
545 6 4.06264 -8.72712 1.17762
555 6 6.44326 -7.39352 3.63391
2425 7 5.98067 -1.45888 4.2993
686 7 0.583457 -2.16803 1.19267
2727 6 6.90736 -4.07496 -1.83366
695 7 3.5097 -5.12646 0.390182
330 7 7.25383 -2.08485 -6.63901
337 7 4.66591 -7.95165 -7.06887
2423 7 2.86754 -7.60819 3.7685
2429 7 3.47851 -3.10051 1.85997
2747 2 1.07917 -2.14866 -8.19611
696 7 5.33109 -5.62951 1.74016
2996 6 -0.794744 -6.42521 -8.38113
537 6 1.64396 -6.77177 -0.729804
2243 4 4.43756 -4.21025 5.44895
2723 6 6.91484 -5.51328 -1.80107
3175 7 0.646765 -8.43918 -6.17224
2244 3 4.26418 -2.43022 2.26014
2742 6 3.03108 -2.07492 -6.39782
173 6 6.72192 -4.03703 -7.21368
3002 3 -0.531471 -5.84687 -5.9462
2739 6 4.21108 -1.98355 -4.2609
2889 7 4.64028 -1.28286 -3.47276
2433 7 1.45471 -2.86485 3.89952
3178 7 -0.0142467 -6.25798 -5.07069
2735 6 3.91401 -7.56499 -3.92171
2724 6 5.84596 -7.5987 -2.40972
172 2 7.51513 -3.13578 -6.28523
691 7 0.385001 -3.72765 -1.29986
541 6 0.654467 -7.72818 -0.890851
547 3 -0.537518 -7.29068 -1.71811
697 7 -0.437239 -7.65578 -2.79451
699 7 -0.673249 -6.24975 -1.61738
2734 6 4.88824 -8.30813 -3.19038
335 7 7.69512 -5.23829 -5.0085
562 2 7.8283 -6.94727 5.57418
2424 7 1.27039 -8.72775 5.25798
2721 6 8.00076 -6.19913 -1.18248
2236 6 0.201746 -5.57493 5.62269
193 6 2.91889 -2.12538 15.9406
3199 7 2.30899 -5.86706 8.68254
3042 4 2.97955 -4.55513 10.3526
3200 7 1.94049 -4.21307 8.57732
16 6 7.79341 -7.76619 10.6996
205 6 2.98522 -6.944 15.2741
2435 7 1.45264 -3.39031 6.94015
160 18 4.04795 -6.28389 16.4634
3044 4 3.0238 -5.1856 11.6459
161 3 6.72919 -5.63594 17.2092
3041 2 2.00529 -5.01099 9.34496
215 7 6.15637 -5.72614 10.1022
186 6 3.76721 -6.19338 20.383
343 7 3.1264 -1.41448 13.129
362 7 5.52973 -7.50576 13.5423
210 6 0.610699 -7.35196 14.6075
319 7 5.80271 -5.0352 17.5879
1 6 5.04862 -6.61241 8.50664
604 7 7.75748 -2.45147 17.341
214 7 4.56098 -5.62145 8.37625
182 6 4.80919 -2.26012 19.0631
2426 7 5.14398 -2.40788 6.68285
147 6 4.57561 -7.75436 17.2012
601 7 6.75949 -4.30355 12.501
189 6 3.27384 -2.54109 17.2635
339 7 2.15829 -5.99019 18.9861
152 6 6.81567 -6.9542 17.9015
2428 7 3.95647 -4.89971 6.14389
149 6 5.84971 -7.96108 17.7863
363 7 5.24008 -8.56313 14.965
2231 6 0.172009 -6.85606 5.8398
3045 4 4.29302 -3.31117 11.6435
3 6 4.73651 -7.7335 7.79582
410 16 6.63135 -3.52881 14.9605
3202 7 3.44401 -4.03251 13.4228
181 6 4.49601 -3.53796 19.6148
3015 6 0.474265 -6.82417 10.1036
3205 7 3.91137 -2.73023 9.58063
318 7 6.77826 -5.76472 16.1378
3040 16 0.0417378 -3.17685 10.4951
148 6 3.71208 -8.75872 17.3571
312 7 2.6862 -8.62468 16.961
6 6 6.65662 -7.86449 9.89998
2251 6 -0.350242 -1.573 7.15528
187 6 3.08602 -5.52239 19.4156
317 7 7.67407 -5.00125 17.3901
190 6 2.72565 -3.63834 17.9249
207 6 3.45068 -7.70644 14.2303
18 16 3.69239 -7.583 6.89434
2242 2 5.39397 -3.15456 5.80963
359 7 1.12929 -6.16481 16.2699
3016 6 -0.245472 -4.55434 10.5317
602 9 6.97384 -3.74244 15.7784
342 7 2.05998 -2.69646 15.4764
360 7 -0.505968 -7.09493 14.7771
209 6 1.6169 -6.7917 15.4405
2434 7 2.663 -2.55386 6.12105
206 6 2.49068 -8.35938 13.4394
5 6 5.90498 -6.67635 9.60645
358 7 0.421072 -8.79109 13.0428
3203 7 2.68589 -6.23104 11.8082
3013 6 -0.726061 -7.26597 10.6855
592 7 6.53027 -2.53147 10.1606
3017 6 0.692096 -5.4656 10.0185
3204 7 4.96301 -2.47577 11.9223
2246 2 1.54043 -2.7002 6.10541
3043 2 3.98344 -4.39712 12.5873
208 6 1.10631 -8.15821 13.6088
185 6 3.42848 -4.19184 18.9505
3198 9 0.231062 -2.94316 9.55666
3201 7 4.85974 -4.98844 12.967
3046 4 3.76906 -3.44139 10.369
340 7 1.79297 -4.07962 17.5273
3185 7 1.13223 -7.46032 9.50711
220 9 3.29742 -6.80469 7.19217
405 6 7.63306 -3.21925 14.18
188 6 4.41148 -1.8467 17.7566
406 6 7.6319 -3.65455 12.8156
397 2 7.26453 -1.83957 9.874
212 2 4.86548 -8.20072 14.0319
2751 16 -0.0800429 -1.98913 19.4235
2227 6 -0.876855 -7.19134 6.65126
153 6 7.89501 -7.19562 18.6532
2995 6 -0.587644 -7.19335 20.2272
180 6 5.56048 -1.4685 19.9306
2904 9 -0.667985 -2.22308 20.0761
2997 6 0.129532 -8.35408 20.349
712 7 6.979 -6.58657 6.10312
2436 7 -0.750501 -2.60733 7.31056
2427 7 6.33346 -3.61667 6.21825
2247 6 0.770776 -1.44581 6.44407
2748 1 0.945585 -1.43399 20.1898
593 7 7.8264 -1.45493 10.7336
2899 7 1.8635 -1.50934 19.5473
350 7 0.949075 -1.46871 14.4179
2 6 5.62411 -8.8722 7.93953
357 9 2.55182 -7.67645 20.2297
1253 3 7.66833 1.72628 -7.20428
1409 7 7.63309 0.818239 -7.90565
1621 6 -0.0436289 1.95893 -3.40424
681 7 2.58198 -0.795019 -2.12489
510 6 4.85515 2.59318 2.6406
522 6 0.642596 2.3046 2.77336
1940 6 0.810769 5.2466 -3.91506
1262 2 7.06477 4.45699 -1.63884
1418 7 6.77558 4.51641 -2.69142
2253 3 2.53039 0.0032162 5.35887
1332 7 6.07357 6.10813 -6.39427
518 6 1.3556 1.48985 1.88327
1263 2 7.31107 5.9715 -1.22529
2101 7 -0.684865 4.41319 -6.00706
682 7 3.88817 0.434476 -2.09166
511 6 4.92653 1.30755 0.676751
1937 6 3.25786 4.8246 -2.87013
683 7 4.02362 -1.07956 -1.20141
2750 2 1.53438 0.819911 -8.58291
569 6 7.20997 -0.114951 -0.00934201
2099 7 0.314308 6.3237 -2.12324
525 3 3.33635 -0.272848 -1.53091
2100 7 -0.26115 5.3691 -4.31643
513 6 3.51936 1.02939 0.716064
726 7 7.64514 -0.825493 -2.97818
2746 2 3.47871 0.100303 -5.30153
508 2 6.44273 2.48552 4.67259
667 7 7.04251 5.01976 4.93178
2437 7 2.63117 -0.564297 4.42376
1942 6 0.0277375 4.32645 -7.99069
1945 6 2.67857 4.36978 -7.07781
2097 7 3.78784 3.833 -4.61986
1776 7 0.995809 2.61333 -1.58025
1939 6 1.04568 5.77633 -2.65533
1615 6 -0.854229 3.80472 -0.301739
1944 6 1.1051 4.46997 -8.91679
2893 7 3.15092 1.75559 -6.63335
676 7 6.70482 2.11325 1.51182
1935 6 2.34303 5.5698 -2.14244
723 7 6.66862 -0.246711 2.1781
517 6 1.50662 0.0707745 -0.0923648
520 6 -0.611622 0.209028 1.22896
573 6 7.37143 -0.383658 1.40434
2744 1 2.02098 0.0764048 -7.34201
1417 7 6.26856 4.02213 -1.07257
516 6 2.77761 0.365526 -0.298364
1410 7 7.41163 1.47877 -6.13673
2438 7 2.54203 1.0932 5.05426
672 7 7.41285 2.15602 4.28414
2894 7 4.06859 0.511886 -7.2882
515 6 2.76815 1.67624 1.72532
1936 6 3.02766 4.34035 -4.12556
2103 7 3.69731 4.44147 -6.77835
1941 6 1.59106 4.42703 -6.12383
679 7 1.06159 3.18282 3.34873
2896 7 4.20889 0.666731 -4.85847
2900 7 -0.592112 0.0633563 -8.81678
1943 6 0.245471 4.39789 -6.65617
514 6 3.50012 2.44731 2.68418
512 6 5.59114 2.04608 1.5775
674 7 6.0345 4.21193 3.11344
2745 2 3.20433 0.657028 -6.69818
1777 7 0.750769 1.36719 -3.91668
1946 6 2.39114 4.54189 -8.41993
675 7 4.83788 3.82831 4.28126
1411 7 6.81929 2.39418 -7.56218
2902 7 1.27549 1.79364 -8.22202
673 7 5.80309 1.59199 4.69831
509 2 5.60193 3.4067 3.6974
523 6 -0.738912 2.07865 2.79744
1938 6 1.78076 4.63169 -4.73423
677 7 2.94156 2.8718 3.56997
524 18 5.82759 0.645373 -0.643392
678 7 0.859155 -0.513145 -0.750603
1620 6 0.109718 2.52531 -2.16953
1934 15 2.86031 5.95957 -0.948123
1779 7 -0.546718 1.27822 -5.96534
2098 7 4.27694 4.63816 -2.40669
2895 7 2.56437 0.266211 -4.73112
2892 7 1.20377 -0.00418802 -6.62148
519 6 0.716316 0.566769 0.999118
1772 7 0.183513 3.78998 0.0983086
1422 7 6.67024 5.3435 0.821433
2104 7 3.18277 4.53602 -9.15551
2262 6 0.0329334 5.66337 5.68769
1304 2 5.18136 3.79423 18.3108
670 7 5.66764 1.34943 8.12791
192 6 4.54938 -0.486705 15.7575
669 7 6.11685 5.6747 7.10318
3786 21 2.95489 1.68688 8.65397
634 7 7.37109 2.09724 12.1985
1299 6 5.98557 4.67843 19.1317
1223 2 2.28726 4.9779 10.0522
665 7 5.49758 3.4801 6.32054
3788 22 3.53706 2.28522 7.84853
202 2 3.03333 0.870187 12.0997
1225 4 2.74727 4.66779 11.4394
1382 7 1.373 4.43143 9.79962
1226 4 2.85191 5.84684 12.2373
191 6 5.04825 -0.849991 17.024
2903 7 2.46563 0.823799 20.6166
1454 7 5.72486 3.22985 17.6105
395 1 7.53818 0.137099 8.16914
660 7 5.84054 3.74985 8.22854
2441 7 -0.25513 2.92823 7.53096
349 7 1.24892 0.260361 14.7751
2458 7 -0.925786 2.89982 15.1132
459 6 7.55876 5.19247 10.8361
195 1 2.89445 -0.689474 13.8882
2439 7 3.36607 -0.248797 6.00888
659 7 5.5826 2.96296 10.0906
2297 16 -0.736092 3.83983 17.8371
194 6 3.50716 -1.18856 15.1778
506 2 7.25738 5.42269 7.06985
2901 7 0.441554 0.54983 19.4529
355 7 3.18292 -0.0169506 11.4256
3737 21 2.20375 1.65921 17.5486
501 1 7.53238 4.845 8.40856
2258 15 0.703246 2.11857 5.81841
671 7 6.30052 0.753395 6.5049
345 7 5.50258 1.53632 13.1843
347 7 5.12524 1.50747 15.5901
198 2 5.40272 0.589776 15.0961
197 2 5.03495 0.627686 13.5895
507 2 6.59018 1.13557 7.52486
2443 7 2.61649 3.63229 6.55823
504 1 6.53142 3.22206 6.05625
461 6 7.38963 3.83996 10.9692
3888 21 5.63016 4.94875 14.4616
1453 7 3.46478 4.58979 16.9382
500 1 6.83045 3.48194 8.51113
1385 7 3.20084 5.89417 13.2397
460 6 7.71986 3.12085 12.0401
344 7 3.10334 1.3866 14.2932
203 16 -0.558391 0.404181 12.9667
2102 7 0.962176 4.53929 19.8291
589 7 7.22467 -1.20905 6.49721
398 14 5.33088 -0.478371 9.0387
2749 2 0.448358 0.00444916 20.4664
332 7 5.72155 -0.400311 19.6905
351 7 0.66953 -0.909469 12.1506
1381 7 3.00917 4.66837 9.25427
200 1 0.800863 -0.0338641 12.7534
396 6 6.71207 -0.687007 9.07561
3890 22 4.59955 4.5376 14.1233
341 7 5.86714 -0.266005 17.4992
2265 6 2.8788 5.55262 6.01827
201 2 1.53656 1.15195 12.1014
2455 7 -0.778725 2.96867 10.9215
2259 2 -0.0462149 3.16736 6.43381
2249 6 1.18716 -0.195863 6.08457
2444 7 3.98467 5.55317 6.04654
199 2 1.39254 -0.509901 14.0349
352 7 1.33492 2.05251 12.6391
503 1 7.11176 2.50615 7.32011
2250 12 -0.780083 0.722579 7.02757
1298 6 5.47441 6.0154 19.0635
2260 6 0.67819 4.5055 6.18157
502 2 7.11753 5.82125 9.56701
354 7 3.54901 1.68905 11.5357
353 7 1.06637 1.40379 11.1537
499 2 6.70251 2.92432 9.94038
196 1 3.52048 0.650608 13.5191
3889 22 6.66067 5.35981 14.8
1455 7 4.64119 3.03244 18.8237
1384 7 3.03685 3.67734 11.8291
2248 6 0.360696 0.888265 6.34358
505 2 7.35581 4.50899 5.8668
1303 4 4.25396 4.77075 17.6832
348 7 6.50276 0.546882 15.2914
3738 22 2.83886 0.870212 18.1139
3739 22 1.56874 2.4484 16.9832
3787 22 2.3727 1.08865 9.4593
2460 9 -0.81309 2.93895 17.5845
1305 4 4.44057 6.07452 18.1007
1297 6 7.11059 4.46226 19.8557
1252 18 7.83245 2.94744 19.8494
346 7 5.4514 -0.257377 13.0232
662 7 5.92632 5.73004 9.56202
2264 6 2.05431 4.5009 6.27579
658 7 6.94122 1.83838 10.0118
1301 6 7.75502 5.5194 20.4844
1921 6 0.927997 10.6088 -1.69769
1421 7 5.63622 6.53334 0.000632305
1931 6 2.23523 8.30135 -1.56052
1331 7 3.80626 6.96676 -6.59603
1281 6 6.87193 13.6699 -0.659497
1343 7 3.02974 11.7849 -4.87353
2271 6 4.1111 8.30709 4.5308
1271 6 5.71745 9.09057 0.152034
1924 6 -0.683292 12.8788 -1.8605
1146 15 2.80987 9.06253 -5.13209
1161 3 6.74943 13.1677 -4.23208
1150 2 -0.516618 7.8192 -6.20175
1148 4 0.380027 7.71454 -7.42719
1347 7 6.44359 12.6067 -3.31391
2270 6 3.12917 10.2845 3.56646
1155 6 5.02713 11.9443 -5.64615
1154 2 4.08525 11.8079 -4.4379
2268 6 2.79422 7.85743 4.8033
1272 6 5.28833 10.3406 -0.0513505
1929 6 1.03247 8.46711 1.10675
1932 6 2.31986 7.22565 -0.627104
1145 6 4.96675 9.32782 -4.33928
1340 7 5.1509 10.8227 -2.89562
1280 6 5.85016 12.7845 -0.351538
1933 16 1.93762 6.292 1.63055
1265 6 7.45837 7.41584 0.716287
1918 15 -0.570983 12.8078 1.67696
1420 7 6.9594 6.63515 -2.01261
2261 6 0.858953 6.7714 5.43937
1274 6 6.22364 11.4779 -0.0616905
1273 6 7.57885 11.0994 0.19359
1424 7 4.19593 10.4956 -0.248607
1144 6 6.21371 8.74459 -4.36848
1160 6 5.47342 11.5258 -7.92859
1927 6 1.01529 9.30517 0.0766676
2094 7 0.408573 8.68011 2.01536
2107 7 0.0483021 12.3926 -5.04512
2272 6 4.2308 9.5016 3.85594
2306 6 -0.164428 13.67 -8.79796
2274 3 5.40584 7.5886 4.84584
1140 20 7.35172 9.79157 -3.27114
2310 6 2.06695 12.8839 -8.77433
1212 6 7.80392 12.0708 4.74155
1147 4 1.7888 8.54425 -5.8253
1923 6 0.935504 11.3542 -2.94188
1344 7 3.57363 11.2045 -6.9766
2447 7 5.21711 9.95435 3.55279
2446 7 1.06727 10.5402 3.62635
1151 4 0.471428 8.29771 -5.25092
1928 6 1.41454 9.38688 -1.20567
1336 7 0.145128 8.629 -4.24648
1920 6 -0.578714 12.1923 -0.525722
1158 12 6.75493 12.0283 -7.83698
1925 6 0.0684273 12.429 -2.9854
1930 6 1.83002 7.29891 0.697402
1152 3 2.64048 8.23793 -8.32039
1283 6 4.56841 13.1686 -0.453251
1143 6 4.06355 8.58368 -5.1759
1922 6 0.187292 11.1187 -0.719874
1423 7 4.93033 8.37092 0.0960185
2095 7 2.64793 8.13771 -2.51144
1157 6 6.29405 12.455 -5.48655
1926 17 0.160145 10.3328 0.532781
1149 4 1.72485 8.1701 -7.2164
1210 6 6.724 12.9153 5.24136
1141 6 4.53861 7.51758 -5.95354
1338 7 3.70511 8.42342 -8.17656
1341 7 3.51216 10.2768 -3.11642
2269 6 1.85864 9.88543 3.84864
2093 7 1.30321 11.0512 -3.90977
1153 2 4.39894 10.5373 -3.65586
2445 8 -0.351669 8.2147 4.45579
1142 6 5.76472 6.9672 -5.80043
1433 7 3.84659 12.4262 -0.143685
1159 6 4.58709 11.5888 -6.88575
2267 6 1.67137 8.66519 4.38933
1342 7 4.19984 12.6369 -3.66732
1156 6 7.1559 12.504 -6.62517
2451 7 6.18791 8.36079 4.8789
2096 9 1.6185 6.53865 2.49368
1267 6 7.05123 8.77625 0.497811
2448 9 2.55082 11.9539 2.99479
1333 7 -0.0192699 7.23881 -8.31635
1302 6 7.20711 6.77669 -9.21386
2263 6 2.26751 6.70425 5.53091
2273 16 3.34265 11.4516 2.90132
1139 6 6.71255 7.67165 -5.00301
2266 11 0.473169 7.99347 4.9039
1266 6 7.93798 9.8604 0.584543
2449 7 5.70789 7.01736 3.96111
1949 2 -0.184388 13.1616 -4.30446
1452 7 7.83222 7.48643 -8.6232
2468 7 3.09235 13.0265 -8.57403
1373 7 4.13785 13.3659 5.34226
1337 7 2.43338 7.37936 -8.93972
3828 22 0.909419 13.0027 5.03207
1345 7 7.86688 13.2394 -4.22104
1372 7 7.87298 12.1102 3.68582
1339 7 2.27815 9.07732 -8.89849
1264 2 6.64745 6.31268 0.122372
1362 7 7.93204 10.8253 -9.20744
1367 7 7.05469 9.61815 8.49002
2300 6 0.807782 9.48593 18.5233
1186 6 5.42099 10.3755 18.299
1221 2 2.35996 8.30995 12.0159
62 2 -0.173047 12.532 15.8184
250 7 -0.254601 11.5457 16.3186
2789 7 7.00777 12.453 16.6565
2477 7 -0.470962 10.7188 10.9368
1193 6 5.86229 9.52982 11.4135
1165 15 5.04487 11.1357 20.5588
3827 22 1.82756 11.7985 6.78966
1370 7 6.99034 12.3215 8.5763
2305 6 0.353738 11.5702 19.89
1184 6 5.92888 10.8332 19.5237
254 7 3.18663 12.7647 15.9637
61 2 0.44866 12.3119 14.3753
2301 6 0.41926 8.21361 18.1294
1379 7 1.78863 8.23559 13.0013
1224 4 2.26627 6.4762 10.1534
53 6 -0.0702877 13.3322 13.4147
1203 6 7.60057 9.99412 9.35879
1364 7 6.66184 10.7064 15.2383
1390 7 7.6203 7.76743 16.2138
1450 7 5.38554 7.90932 19.8396
1194 6 6.02246 9.81912 12.6873
3826 21 1.36848 12.4007 5.91087
1198 17 7.37379 10.5497 12.9029
1188 6 7.3107 10.5208 19.6856
1209 6 7.2837 12.2264 7.51878
1208 6 6.49443 12.9635 6.72375
2299 6 -0.892214 7.70624 18.4561
2087 7 3.66318 12.5265 12.713
248 7 1.5642 12.1466 14.4263
3901 22 4.07485 11.7189 7.5318
663 7 7.2517 6.89066 9.42192
2476 7 1.53361 11.144 9.28061
2302 6 -0.0472224 10.2861 19.2998
2467 7 2.51332 11.1024 20.1087
1907 6 4.44152 13.7378 11.0047
1222 4 2.52899 6.94208 11.4679
2083 7 5.76118 13.0894 12.4465
2315 2 0.581533 9.60026 7.83131
1196 6 4.05903 9.31082 13.5574
1200 6 7.05064 9.93579 10.7177
1910 3 3.4403 12.7517 11.6547
1187 6 7.45453 9.50529 17.4821
249 7 0.203021 11.2582 14.0268
2462 7 1.11646 7.75348 17.3816
1456 7 3.81521 6.8292 17.7675
2317 4 0.67819 10.4932 9.05988
2473 7 0.401748 10.1877 6.87922
1195 6 4.62611 8.84425 11.2526
3902 22 4.08696 9.45531 8.04051
255 7 3.48142 12.8799 17.6707
2474 7 1.43607 8.83975 7.75687
2316 4 -0.716207 8.89614 8.17834
1197 6 3.7541 8.77271 12.3252
1378 9 2.23405 9.10229 14.3611
1192 6 5.34788 9.87036 13.8493
3900 21 4.08087 10.5871 7.7861
2461 7 1.77492 9.86386 18.1238
1190 15 5.55752 9.35104 16.1178
1220 16 3.06506 9.55526 14.5361
1365 7 4.42359 8.39814 10.312
1380 7 1.76435 9.01482 11.4393
2085 7 3.44687 11.7917 11.1641
1363 7 5.08513 11.2401 15.419
1361 7 4.36705 10.533 17.9959
1185 6 6.1092 9.82121 17.3078
1199 6 7.83748 10.5182 11.5896
1191 2 5.70681 10.3809 15.1835
69 3 2.67777 12.8094 16.9503
2086 7 2.40448 13.1057 11.5861
253 7 2.13343 11.8534 17.0561
1300 6 5.99738 7.01452 19.9165
2307 6 -0.549189 12.5434 20.4045
2309 6 1.72978 11.8263 20.2212
1383 7 1.85701 7.17939 9.40613
63 6 0.367147 13.777 16.5259
2604 4 7.34016 13.4564 16.5098
2318 4 -0.294714 10.2511 10.009
2450 7 5.39819 7.00294 5.757
1908 6 5.70543 13.7544 11.5621
668 7 7.7312 6.39518 7.05457
1369 7 5.70443 13.59 7.24088
2080 7 1.34661 13.7163 9.67835
2793 7 8.00088 12.4576 13.8623
905 6 11.0129 -22.2857 2.32465
741 6 15.4362 -19.836 -5.5381
1065 7 11.3298 -19.7144 0.0975015
85 6 8.32569 -20.7384 -5.39674
740 6 15.59 -18.1269 -7.36776
3587 7 12.3195 -20.1035 5.52656
899 2 12.1797 -23.6399 5.14387
1176 6 14.2973 -22.6742 -8.20496
1064 7 9.67391 -20.2273 0.723646
3501 7 13.3759 -18.0435 1.28334
914 6 11.4551 -22.3542 -1.3841
932 16 10.5268 -21.4554 -1.92308
2756 6 8.63063 -16.9147 -1.38497
3502 7 14.5907 -17.7362 2.49468
1061 7 9.30767 -21.0135 2.97232
1182 3 15.8532 -23.6924 -6.3656
3308 6 14.5375 -19.4923 -0.435715
946 7 14.9623 -21.9723 -2.99443
902 6 12.5338 -23.6353 0.364155
2758 6 9.69721 -16.9332 -0.583643
960 9 13.0975 -21.1927 -3.70741
3307 1 15.0492 -19.3248 1.00282
264 9 10.5782 -18.8157 -4.8196
3306 2 14.424 -17.9528 1.42742
1066 7 11.0036 -19.7163 1.84338
1063 7 10.8505 -20.7649 3.79207
89 16 10.2952 -19.6955 -4.60707
915 6 12.1147 -23.1045 -2.31276
3581 7 15.4635 -23.6613 4.62857
1085 9 10.7372 -21.3443 -2.8605
2852 7 8.61229 -16.4082 -5.37771
3503 7 16.125 -19.2692 1.05284
88 6 9.95778 -19.8231 -6.92215
3420 2 14.3227 -19.6751 4.79681
3577 7 13.9358 -21.8665 4.21668
3572 7 15.7237 -22.8394 1.96319
901 6 11.6583 -23.481 2.59571
2908 7 9.83484 -17.7762 0.125047
3505 7 15.0397 -18.6163 -2.28522
2845 7 9.14551 -17.3689 -7.78831
1067 7 11.7497 -23.0752 -3.38632
1357 7 15.1907 -23.3648 -5.55389
3305 6 15.0253 -17.0537 -0.851408
904 6 11.8138 -22.4918 0.0153906
3419 2 14.523 -20.506 1.90775
3584 7 15.2853 -19.2667 5.10282
87 6 9.26778 -20.2277 -7.99357
744 6 15.4474 -21.2309 -3.58885
3576 7 16.2509 -20.1488 3.24477
945 7 15.1639 -17.3367 -7.99137
3849 21 9.49195 -18.1387 3.40404
1171 6 12.9441 -23.044 -7.77548
86 6 9.53885 -20.1292 -5.61856
3415 1 15.4656 -20.9177 2.98987
912 3 10.7705 -20.3104 0.866691
737 6 16.8294 -19.7596 -5.42757
1056 7 13.2083 -23.8825 5.09777
911 3 10.2001 -21.5294 3.31129
1180 6 16.5705 -22.4139 -8.35365
765 16 13.3779 -20.7968 -4.58433
3310 14 14.2446 -20.743 -0.909067
2850 7 10.9893 -16.9686 -6.13544
958 8 13.2862 -18.4057 -7.52209
3585 7 13.9134 -19.1288 3.96882
743 6 14.7386 -20.6105 -4.59303
263 7 10.8721 -19.2537 -6.98645
3418 2 16.2944 -23.0236 4.86581
1170 6 10.9023 -23.3664 -8.88513
3417 2 15.7873 -21.6823 5.3804
1432 7 8.93599 -23.7061 -0.581044
1169 6 12.1059 -22.7657 -8.8661
764 11 13.471 -19.0286 -6.8127
3304 6 14.9145 -16.8545 0.562528
1062 7 9.83365 -22.139 4.18617
3412 1 16.4048 -22.0695 2.46372
3851 22 9.95275 -17.7299 2.42109
3583 7 13.5499 -20.1957 2.21252
1179 6 15.531 -22.8927 -7.64683
3850 22 9.03121 -18.5477 4.38699
1349 7 8.39965 -23.7488 -8.38486
3309 2 14.4762 -18.369 -1.38915
3504 7 13.4191 -18.2052 -1.67671
3580 7 16.9248 -23.4475 5.66872
906 6 11.2631 -21.7329 1.05176
3582 7 14.3714 -21.3649 1.38049
742 6 14.8563 -18.9993 -6.57046
3416 1 14.7363 -21.1379 4.37573
959 8 13.0431 -19.9234 -7.11546
1055 7 12.1088 -22.5381 5.10924
1173 6 12.4887 -23.7432 -6.66356
734 6 16.8252 -21.4017 -3.62433
1358 7 16.9381 -23.5911 -6.08162
84 6 8.04672 -20.8248 -7.77944
1352 7 13.1684 -23.9608 -5.8856
266 7 10.8194 -19.2726 -9.17231
3578 7 16.7375 -21.0356 5.27476
3588 7 10.9911 -18.2636 5.75106
890 6 10.842 -21.1601 8.47214
3579 7 15.3009 -21.7408 6.39321
1354 7 15.1541 -20.9631 18.7691
1087 7 16.5013 -22.6687 15.1399
893 6 9.20681 -19.3676 8.19706
1048 7 9.84901 -17.4175 8.79883
3422 6 13.0251 -18.1584 6.1698
1043 7 13.7368 -18.0087 11.4514
878 6 15.2012 -19.6146 12.5106
2799 7 8.74598 -19.0407 11.5971
2613 6 8.7033 -16.9261 13.5326
2786 9 13.8206 -17.5876 19.7081
2590 6 14.5907 -16.7249 17.4895
891 6 9.58697 -20.6894 7.95256
2602 15 9.26401 -22.0043 14.6513
2611 6 8.40517 -18.3083 13.6633
888 18 13.512 -22.5552 15.2447
1038 7 16.1907 -17.6725 14.5771
2594 16 13.5908 -18.1924 19.006
3421 2 13.2549 -19.6304 5.88247
2610 2 8.94341 -19.4123 12.6489
880 6 12.8086 -22.4589 12.136
1040 7 15.1388 -20.5749 15.692
2788 7 11.684 -20.4254 18.2921
2593 6 13.2087 -17.6624 15.5149
2645 6 8.09186 -16.5345 19.5215
2589 6 13.8133 -17.7865 17.7676
1050 7 12.308 -22.6407 8.27456
1042 7 11.2745 -22.6116 10.5963
897 6 9.48228 -22.8146 6.70138
2601 6 10.633 -19.9825 14.4037
1909 16 8.10113 -23.5079 11.5457
2597 6 10.5564 -21.1678 16.5332
2787 7 10.3012 -22.0857 17.0737
644 7 16.4046 -23.2036 8.55921
2818 7 8.76173 -16.8838 17.619
884 6 11.6868 -20.3873 9.2909
1174 11 12.732 -21.9935 19.9438
2600 6 11.5894 -19.2455 15.1454
1353 8 12.5238 -22.1899 18.9678
883 6 12.4889 -20.904 10.2801
896 6 8.92582 -21.6006 7.11033
881 6 12.2398 -22.1038 10.9399
1177 6 15.2011 -21.5061 19.7117
894 6 11.3217 -22.3937 7.95643
2802 7 9.95927 -17.1473 11.832
876 6 15.0429 -20.6173 14.6168
1044 7 11.9475 -17.0454 9.88223
879 6 14.2214 -20.4905 11.9736
90 3 9.8791 -19.809 20.4522
2598 6 11.4091 -20.2861 17.1991
1183 16 10.1459 -23.3143 19.7168
3589 7 15.0421 -17.6621 6.68469
2596 20 12.1635 -18.0309 13.9086
2595 6 11.9423 -19.2181 16.4158
2796 7 10.3309 -20.9984 12.6027
937 6 16.084 -23.2868 15.9999
892 6 10.0987 -18.5079 8.72123
877 6 13.7726 -21.6548 12.6361
933 6 14.6945 -23.4003 16.182
1049 7 8.3128 -19.0257 7.73506
2084 9 8.69148 -22.8627 11.1032
2609 2 10.3211 -19.9353 12.9338
889 3 12.2547 -23.7574 12.7963
882 6 13.3775 -20.0135 10.9296
2797 7 11.1303 -19.4579 12.2573
265 7 10.032 -20.7189 19.836
951 7 16.7401 -18.4403 19.6294
875 6 14.2791 -21.5845 13.9964
3426 6 14.0356 -17.2946 6.58287
874 6 15.6577 -19.7091 13.7866
885 6 11.2769 -18.9748 9.29744
886 6 13.1953 -18.6402 10.7302
895 6 10.7215 -23.2561 7.05595
2591 6 13.0347 -18.3494 16.6239
2599 6 10.1341 -21.0678 15.2052
3115 16 16.8401 -19.9838 7.89714
887 6 12.1236 -18.1099 10.0176
2603 4 8.42969 -22.6791 15.5128
1360 9 10.7913 -22.9569 19.1411
1041 7 15.5121 -18.7457 11.9427
1046 7 11.7094 -23.4993 13.751
267 7 9.23807 -19.0096 19.9992
1052 7 9.00327 -23.4125 5.95586
2842 7 10.3312 -16.6071 19.4868
1178 6 16.4239 -21.7308 20.2819
2798 7 8.30653 -20.3264 12.7333
3586 7 13.5104 -20.1208 6.90449
1175 6 14.0853 -21.966 20.3505
873 2 16.6516 -18.672 14.4261
3424 6 11.7801 -17.58 5.92253
3268 9 16.7377 -20.0225 6.95929
1090 7 12.1629 -23.4727 17.837
2605 4 8.25317 -24.051 15.4599
2592 6 13.9776 -16.635 15.1146
2857 7 13.3542 -14.5231 -7.42399
3315 3 15.9784 -13.6992 -2.07409
2698 6 13.7529 -12.8282 -4.96804
2772 7 15.4428 -12.4237 -8.14577
2702 6 13.8418 -10.4522 -4.92369
3500 7 15.5623 -16.1757 3.32726
2866 7 11.1475 -10.7962 -0.682017
164 6 10.9848 -9.89098 -8.54568
714 7 10.0572 -10.872 3.18406
2907 7 11.4174 -15.8954 0.0961688
2685 1 8.77505 -16.3109 -7.62407
2858 7 14.7265 -15.2216 -5.89903
3302 6 15.7279 -14.7701 -1.14132
2573 6 16.3251 -12.6855 -8.77049
2706 6 14.9376 -10.3734 -5.86786
2684 1 9.45919 -15.4116 -8.65453
2754 6 8.29044 -15.7311 -2.0973
2882 7 9.25867 -9.13097 -1.12461
2689 2 10.6033 -15.94 -5.99129
3296 6 16.6477 -13.284 2.17637
3635 7 12.0639 -15.0905 4.34052
3634 7 9.44807 -13.7295 1.21979
2837 7 8.14352 -10.0454 -4.17961
2853 7 8.74386 -14.8928 -6.02661
2696 6 12.69 -14.1822 -3.37632
2690 2 9.09665 -15.8835 -6.18599
2693 2 13.683 -15.1986 -5.48627
713 7 10.9659 -9.4141 3.66929
2679 2 8.26136 -10.0618 -5.23537
3636 7 11.6568 -14.1805 2.3054
584 9 16.6673 -10.2374 -0.1332
2695 6 12.4241 -13.0593 -2.59822
2859 7 13.5837 -16.1477 -4.95271
2700 6 12.7391 -10.6432 -2.25763
2708 18 11.3197 -13.3295 -1.22797
2760 2 8.73414 -13.5711 -3.11706
3482 6 8.38732 -14.2539 3.01352
2757 6 10.5762 -15.8745 -0.620221
382 16 15.8211 -9.86827 0.314325
2844 7 8.89253 -14.5118 -8.63972
3298 6 16.5266 -13.5044 0.844136
2774 7 13.7252 -12.7411 -8.93944
3513 7 16.6424 -14.6533 -4.87874
563 2 10.3091 -10.2299 4.10843
381 19 14.2896 -9.64808 2.67277
2848 7 11.4173 -16.0632 -8.68741
3481 6 9.75212 -15.1781 4.83316
2694 6 13.336 -14.0514 -4.56211
2699 6 13.5302 -11.6709 -4.2505
3299 6 15.386 -15.6133 1.11109
583 10 13.9713 -9.54026 3.98341
2697 6 12.9369 -11.7852 -2.97975
2863 7 15.4674 -11.2537 -6.24443
2707 6 15.5392 -9.228 -6.07189
2910 7 8.51328 -12.5569 -2.74337
2701 6 12.9362 -9.42975 -2.94078
3301 6 15.6812 -15.4673 2.48982
3303 6 15.5458 -16.0615 -1.64
2692 2 12.8192 -15.2523 -6.75717
2753 6 10.3234 -14.7627 -1.4186
2709 3 12.1839 -10.4853 -0.861142
2703 6 13.3886 -9.28291 -4.35807
2861 7 14.0228 -12.8381 -6.01038
2838 7 8.89897 -9.12807 -5.41479
3511 7 15.4511 -12.8049 -1.82943
2681 4 8.83909 -11.2761 -5.9185
2849 7 11.1793 -14.0301 -6.42853
2867 7 12.7585 -11.0245 -0.0602068
2911 7 9.34161 -13.5534 -4.02621
3483 6 8.54736 -14.787 4.30234
3499 7 16.3407 -14.2787 4.14529
2855 7 11.7537 -13.104 -8.51156
3486 6 10.7587 -14.3392 2.83878
2687 1 10.9301 -15.1193 -8.35625
3484 6 9.5326 -14.0932 2.27192
320 7 11.3307 -10.9169 -8.31864
2851 7 10.8854 -15.7231 -4.91769
3300 6 16.2579 -14.2978 3.02284
2840 7 9.79296 -11.6562 -5.7953
564 1 11.1737 -11.0571 5.07789
2860 7 12.4562 -15.1465 -3.03815
2688 1 11.4001 -14.9616 -6.8418
2755 6 9.2362 -14.6705 -2.20557
3485 6 10.9295 -14.9157 4.09411
559 1 9.19622 -9.66863 5.01491
558 6 8.01195 -9.06797 4.2537
2856 7 13.0449 -16.2564 -7.19101
3297 6 15.7846 -14.6305 0.233671
2865 7 12.148 -9.39963 -0.591068
720 9 11.8976 -12.5555 3.93618
3512 7 15.6408 -13.9021 -3.08273
2864 7 16.4347 -9.22945 -6.69921
567 16 12.2595 -11.8273 4.45883
2841 7 8.09996 -12.7274 -7.40783
3311 15 15.7959 -16.3105 -2.95828
707 7 8.6936 -10.3848 5.78335
3498 7 16.7648 -11.8279 3.65947
157 6 9.79884 -9.70942 -9.24129
321 7 12.7427 -9.10715 -7.68576
715 7 10.4992 -11.7856 5.57827
316 7 9.32954 -11.8796 -9.20201
716 7 12.4761 -9.32824 5.58246
2804 9 14.9576 -15.3581 12.1889
3431 6 14.6029 -13.9335 8.0982
2575 6 15.7378 -14.3488 17.221
2803 7 8.88168 -15.6379 11.8034
3444 6 16.1701 -10.9918 11.6583
2815 7 12.8047 -9.59673 16.4958
2576 6 14.7895 -13.3094 19.1532
14 6 8.7001 -11.2722 10.7811
2808 7 11.047 -11.713 17.2424
12 6 8.18386 -12.4075 10.1504
3425 6 12.4659 -15.5187 7.00822
3439 6 16.404 -12.0809 10.7415
2777 7 13.1547 -13.9887 16.2378
3598 7 14.3594 -11.2177 8.32112
3590 7 12.9618 -12.8477 9.15452
3743 21 13.6267 -12.0609 13.3485
2578 2 13.5679 -12.975 19.8039
2580 6 12.4116 -14.3792 18.2306
2618 5 13.938 -15.991 13.7615
3745 22 14.5845 -11.5913 13.8044
3744 22 12.6691 -12.5305 12.8926
3423 6 11.5516 -16.3636 6.38983
1004 9 15.8544 -11.5108 6.51429
2619 13 13.0255 -15.4211 13.3432
2843 7 9.55073 -15.1054 19.0185
2854 7 10.495 -13.6754 20.0207
2577 6 14.6647 -13.7276 17.8567
217 7 8.59383 -13.3812 10.504
2630 11 8.1024 -9.43187 14.5848
3593 7 10.1236 -14.8296 8.58228
2625 6 8.54348 -10.6589 15.1936
3429 6 13.2292 -13.6784 8.42449
2627 6 9.70983 -10.4425 15.905
2776 7 13.0255 -12.5276 17.29
2785 7 15.1105 -16.3238 18.4077
231 8 9.65221 -12.5347 12.0044
2583 15 15.4525 -15.0341 16.0607
2629 6 10.1073 -11.5774 16.6847
3591 7 16.4213 -16.3673 6.47452
2683 2 9.47182 -15.9629 19.7047
2579 1 12.6604 -14.1217 19.7172
3443 6 14.6867 -9.95994 10.0536
2582 14 11.5474 -15.3503 17.714
719 7 10.082 -9.91765 7.50377
2617 3 9.53102 -16.2747 12.3896
2807 7 9.71793 -13.6239 17.1056
717 7 12.5084 -10.5905 6.63173
841 16 16.1294 -10.7426 5.97858
2775 7 13.1041 -15.0338 20.0999
3432 6 15.7231 -13.3544 8.77775
2624 6 8.16048 -12.8441 15.9195
2813 7 11.8224 -9.51464 17.9363
2581 2 13.2967 -13.6861 17.264
3799 22 15.1764 -10.9112 16.8115
566 2 10.7308 -9.24342 6.8467
2622 15 8.35174 -14.7193 14.5384
3600 7 15.2477 -9.06962 12.0038
3595 7 10.2806 -13.3401 7.68686
36 11 9.53935 -11.5295 11.8844
2620 16 15.0584 -15.8407 12.9709
3594 7 10.9216 -13.356 9.30416
2691 2 11.4166 -13.9172 20.5909
2628 6 9.28883 -12.7022 16.6994
230 8 9.35685 -11.1547 12.7641
3434 6 16.1479 -15.5339 7.12257
3445 6 15.3032 -9.9815 11.3602
3427 6 13.7943 -15.904 6.86285
2773 7 13.1722 -12.0065 19.4232
3798 21 16.2545 -10.6625 16.463
3438 6 15.6341 -12.1752 9.56828
2632 6 10.0638 -9.07115 15.777
2571 6 16.0599 -13.2303 19.7209
3428 6 12.1639 -14.4252 7.89414
2588 6 14.6643 -16.1079 16.273
3599 7 16.6706 -11.0825 12.6297
13 6 8.25577 -10.0515 10.259
3430 6 14.8729 -15.0889 7.2665
3675 22 15.5638 -9.46605 18.8446
3437 3 10.8111 -13.9925 8.40662
159 6 8.97761 -10.84 20.317
3442 6 14.774 -11.0945 9.30208
3436 18 9.87692 -15.8245 6.41795
2612 6 8.18337 -16.1342 14.5962
565 2 11.7921 -10.0123 6.04038
2801 7 10.4405 -15.6484 12.7275
728 7 11.2457 -1.71639 -1.09155
2870 7 11.3149 -7.49391 -3.56657
2873 7 9.45737 -6.15654 -3.21891
586 7 11.1017 -6.41072 3.79495
384 6 11.0418 -4.70856 5.17634
2877 7 9.36352 -5.88242 0.466539
375 6 12.5497 -5.10104 3.10024
581 7 12.5553 -2.88985 3.71067
587 7 10.09 -3.56184 3.61025
166 6 9.42449 -6.07247 -8.82669
579 7 16.7802 -6.38038 -2.3062
1324 9 16.7249 -2.21456 -3.60679
1739 7 14.5161 -2.67249 5.39457
328 7 9.42009 -2.3474 -6.39339
168 6 11.9592 -6.42367 -7.88879
2871 7 14.1464 -3.36944 -4.17907
374 6 13.2391 -5.97079 2.20253
2705 6 14.989 -8.00168 -5.58218
572 6 9.42946 -1.57544 0.988762
722 7 10.2514 -2.13545 1.39518
708 7 10.3857 -7.89049 5.25737
334 7 8.16403 -6.53141 -6.08187
582 7 15.9168 -4.10157 -1.89037
2714 6 11.9393 -6.6469 -3.78519
2883 7 9.88466 -7.69523 -0.133147
585 7 12.6316 -6.20787 4.91651
377 6 14.0128 -4.10987 0.967957
378 6 13.3746 -3.20521 1.85246
2704 6 13.8031 -8.00028 -4.75426
2872 7 12.0221 -3.29901 -3.10446
324 7 11.9622 -4.41894 -7.23477
327 7 9.50084 -4.0615 -5.78291
326 7 10.0368 -2.72557 -8.31225
2874 7 9.56951 -4.45373 -3.30741
580 7 12.688 -7.62086 3.36287
2881 7 8.55966 -8.80685 0.456293
2710 6 13.2279 -6.77848 -4.40191
596 9 14.0104 -2.12649 -1.16886
167 6 10.1372 -4.98488 -8.35656
711 7 8.33025 -6.05745 5.22388
162 6 9.99546 -7.37394 -9.03774
607 7 13.317 -2.56805 -7.4196
373 6 13.9976 -5.48935 1.15078
389 6 9.51488 -2.82801 5.48437
2715 6 11.4749 -5.38899 -3.35558
365 6 16.2766 -8.06314 -1.17077
1733 7 16.1967 -1.94113 4.18436
169 6 11.3943 -5.16137 -7.82123
370 6 15.379 -5.87319 -0.684053
380 6 15.3601 -4.48276 -0.998073
170 2 9.45212 -3.63895 -8.01288
372 6 13.2492 -7.31708 2.50682
2720 2 9.01633 -5.37523 -0.457756
2713 6 15.1462 -5.53532 -5.32378
2716 6 13.5133 -4.34837 -4.03716
383 2 11.7669 -5.68884 4.30628
388 6 10.2311 -3.73753 4.7289
371 6 14.037 -8.16477 1.81745
2719 2 10.2359 -5.12811 -1.31968
379 6 14.6765 -3.59439 -0.214414
368 6 14.6374 -6.38622 0.333181
369 6 16.1556 -6.7257 -1.43944
2711 6 13.9565 -5.58198 -4.60939
2876 7 10.7548 -4.13744 -1.13296
367 6 15.6181 -8.54615 -0.095555
366 6 14.8344 -7.68917 0.690088
2868 7 16.3911 -6.59205 -6.54734
2718 2 10.0767 -5.31039 -2.82255
595 8 13.9115 -1.53296 0.862392
163 6 11.2643 -7.55348 -8.43862
2712 6 15.5711 -6.71609 -5.87084
2717 6 12.3173 -4.30732 -3.49195
323 7 12.9348 -6.60894 -7.42051
606 7 14.8129 -1.99572 -8.24502
376 6 12.6781 -3.71465 2.93148
171 2 8.99562 -3.36128 -6.50956
2875 7 10.9179 -5.99324 -1.09842
422 2 13.7489 -2.28353 -8.41753
2869 7 15.596 -4.5944 -5.58165
1006 7 16.3469 -6.40278 3.15064
400 11 13.2492 -1.85792 1.57651
2731 3 8.98655 -8.32973 -0.462879
724 7 8.47923 -1.37346 2.97039
588 7 8.76233 -2.13802 5.16817
325 7 8.63563 -3.45897 -8.70879
165 6 11.7796 -8.8481 -8.22313
2862 7 12.8833 -8.5173 -2.29576
577 4 10.244 -1.43371 -1.42655
2878 7 8.57967 -4.40082 -0.15785
401 16 14.7001 -2.29339 -0.591631
322 7 8.4306 -5.77074 -9.05232
1129 16 16.122 -1.48206 -3.73508
156 6 9.35736 -8.46346 20.1872
718 7 11.1758 -8.42604 7.44731
402 16 11.8642 -5.82455 7.13848
3448 2 14.6375 -6.2879 9.00453
3914 22 12.9759 -8.66961 13.8079
2634 6 10.0902 -6.35575 15.3028
3820 22 15.778 -7.4022 13.278
2812 9 10.8484 -4.52784 15.5055
218 7 8.09157 -6.91135 11.223
15 6 8.67521 -8.84553 10.7955
420 4 13.4431 -3.30607 20.3619
3604 7 15.8137 -8.04604 9.18537
3676 22 15.0877 -7.19542 18.8253
399 15 8.53153 -4.20175 10.7533
412 20 11.3371 -1.5275 13.9443
3611 7 16.1008 -6.88891 7.31305
434 5 10.9882 -2.40348 11.3634
3468 6 15.9892 -1.56743 16.151
2636 6 11.0105 -6.97528 16.091
232 9 9.96016 -7.67659 11.6393
2810 7 8.05171 -6.58336 14.5586
1740 7 13.2791 -3.50551 7.33071
3453 6 16.4342 -4.93882 8.02374
385 6 10.1689 -4.07844 7.43558
560 1 9.81139 -8.56709 5.85034
3474 2 15.7545 -2.32177 17.4427
436 16 12.1728 -3.07312 11.3836
599 7 11.6368 -5.23316 9.74997
610 7 12.4776 -4.90417 18.6229
314 7 8.60547 -6.33192 18.6654
3617 7 15.2538 -3.25749 15.1416
3450 6 16.5798 -3.27021 10.2599
419 4 12.2854 -1.52693 19.599
3601 7 13.0186 -8.37348 10.1215
404 6 8.66993 -3.45362 11.9187
2811 7 11.7453 -6.31849 16.5623
3455 6 15.113 -4.75877 11.4628
3449 6 15.7227 -5.21594 9.14205
3621 7 16.185 -2.03613 19.5619
424 3 12.2388 -3.85117 18.2724
3473 2 16.4872 -1.62837 18.6186
1581 6 14.5733 -2.07885 6.3312
393 6 8.31971 -2.59292 8.96834
391 6 8.89869 -3.72642 9.54064
407 6 8.86413 -2.54505 14.5142
709 7 9.15271 -7.11649 7.34923
3451 6 15.7849 -4.43484 10.2449
3603 7 15.4179 -7.40354 10.6972
609 7 11.1257 -3.91338 18.0795
2814 7 12.7829 -8.05563 17.6954
3674 21 15.3257 -8.33069 18.835
3605 7 14.1908 -6.49213 7.97334
3912 21 12.7176 -7.74195 13.1611
414 6 8.76695 -2.1642 17.107
387 6 9.52645 -2.93525 6.91357
409 6 9.71525 -2.32268 13.5511
3913 22 12.4594 -6.81424 12.5143
2631 6 9.04081 -8.45434 14.9793
600 7 10.4173 -6.42696 9.21161
2635 6 11.0791 -8.28697 16.3418
3606 7 13.6796 -5.96168 9.50785
411 6 9.33736 -2.16408 15.7873
3456 6 15.1542 -3.95695 12.6014
620 9 12.8203 -2.54524 10.8391
3447 2 15.0082 -7.58096 9.70049
3819 21 16.3869 -7.34789 14.2639
597 9 11.3874 -6.23438 7.8481
386 6 11.0626 -4.80385 6.61374
3464 6 16.2274 -1.98274 13.6959
390 6 9.89344 -4.36557 8.78743
403 3 10.5646 -5.43007 9.63222
421 4 12.5311 -2.8503 19.3537
3608 7 14.4485 -4.20719 13.3947
3458 6 15.8579 -2.77231 12.5464
3609 7 15.6338 -5.52596 6.13017
598 7 10.1795 -5.54595 10.5825
1582 6 13.7586 -2.49032 7.37394
3467 6 15.8077 -2.36101 14.9671
2633 6 9.01056 -7.05658 14.8919
3607 7 14.5315 -5.64665 11.6392
2637 16 10.0621 -5.00066 15.0929
3459 3 16.3761 -5.88372 6.85729
611 7 12.6642 -3.58137 17.2998
392 6 8.77922 -2.10845 7.74998
408 6 9.82582 -2.67442 12.2284
561 2 8.67775 -7.76784 6.53358
605 7 13.8223 -4.31 20.4002
3623 7 14.6389 -2.55579 17.5446
3457 6 16.4999 -2.37098 11.315
155 6 8.23493 -8.37129 19.35
1738 7 13.0808 -2.11077 9.41842
3624 7 16.2566 -3.33934 17.4121
1580 6 13.6082 -1.72662 8.54875
2638 3 12.2095 -8.8637 17.1848
3446 2 13.9686 -8.65107 9.63252
37 16 9.86498 -8.63831 11.5033
416 6 10.5278 -1.61055 15.5352
413 6 9.53096 -1.58017 18.0722
710 7 8.05743 -8.50677 7.04977
603 7 9.27512 -1.54657 19.1979
3602 7 13.7878 -8.61999 8.56022
1570 15 16.2529 1.6113 1.32447
571 6 8.18006 -0.530364 -0.848175
1275 3 8.99196 5.89018 1.90877
626 7 12.5026 6.14764 3.36034
1247 6 10.6808 2.96248 -5.35256
1249 6 12.4489 2.40676 -3.82601
1244 6 9.00648 2.49264 -7.0459
1255 6 10.7635 2.28317 -1.64535
1114 6 15.8771 5.90403 -5.40539
447 6 12.0345 4.43716 4.66457
1451 7 8.82046 5.41346 -8.89179
1106 6 16.6643 0.988787 -5.37843
1128 11 15.9056 0.0210015 -6.08703
629 7 12.8633 0.220456 4.2789
3646 21 12.0659 -0.952225 -5.75818
448 6 11.9912 3.06401 4.83968
453 16 12.9781 4.79743 1.17481
575 4 9.73302 -0.807392 -2.53642
1112 6 16.5153 5.29144 -6.51643
1571 6 16.1321 0.963944 2.58
1566 6 16.6871 3.67866 0.00310328
1406 7 8.87428 1.97744 -5.00162
1245 6 9.47787 2.44064 -5.77027
1315 7 16.6224 5.23799 -8.71437
727 7 8.06266 0.840098 -2.51027
423 4 13.0165 -1.16716 -9.05309
3390 15 15.8924 5.19423 5.54422
1405 7 12.8734 4.32522 -8.32495
450 6 12.6347 4.23316 2.43433
1734 7 16.7117 -1.07726 2.06437
631 7 11.1024 0.384915 4.31606
1246 6 11.5495 3.37677 -6.39291
1326 7 14.1738 5.41668 -3.0108
1250 6 12.8993 3.29634 -6.01067
1416 7 8.27098 2.98475 0.476581
1425 7 10.0123 5.63983 1.70776
1735 7 15.1284 2.76218 3.43428
452 6 12.5653 2.7861 2.54171
1248 6 11.1067 2.74133 -4.03334
1426 7 8.74707 5.84962 3.0408
1427 7 8.43828 5.12231 1.37369
1323 8 15.2748 -0.545427 -5.56216
1575 6 15.5959 1.81453 3.64586
628 9 12.5695 5.64199 1.09132
1408 7 14.4769 2.6804 -4.63739
1322 8 15.5711 0.438547 -6.93658
627 7 12.954 2.1551 1.72006
1576 6 15.3774 1.27842 4.88715
1257 6 11.9986 1.68091 -1.53617
3647 22 10.9816 -0.564784 -5.89786
630 7 11.8229 0.348647 2.81268
1138 16 8.88359 5.42227 -5.84286
1413 7 12.2528 1.18576 -0.615724
1732 9 16.0054 3.65625 -1.75374
1254 6 10.3167 2.93902 -2.81624
1415 7 10.2365 1.82175 0.416398
1414 7 8.89668 4.16339 -3.71157
3648 22 13.1503 -1.3396 -5.61834
1130 16 16.3642 5.56982 -4.12037
1309 7 16.603 2.2496 -7.09341
576 2 8.31594 -0.218289 -2.30467
1116 6 16.0238 5.54217 -7.78285
1258 6 9.07584 3.63098 -2.73856
725 7 10.1113 -1.03932 -3.57654
449 6 12.3245 5.08874 3.4904
1261 6 8.80369 3.01933 -0.487605
1259 6 8.36345 3.69636 -1.59645
451 6 12.2179 2.2261 3.77135
1736 7 15.0025 1.98177 5.66693
608 7 12.8947 -0.167425 -8.56429
1241 6 9.79652 3.09079 -8.03924
454 3 12.0307 0.730275 3.82186
1260 6 9.94616 2.31474 -0.479479
1569 16 15.7702 3.32234 -0.933026
1574 6 15.6043 -0.145768 5.0785
1243 6 11.1017 3.50411 -7.68275
1412 7 13.8849 1.53725 -2.46455
1256 6 12.851 1.8282 -2.55476
1573 6 16.2717 -0.391319 2.78497
1407 7 13.7448 3.48929 -6.67983
1251 6 13.3808 2.77259 -4.84785
1572 6 16.0696 -0.910821 4.00658
1242 6 11.9103 3.95581 -8.6891
3389 16 15.7246 5.73592 2.86401
1107 6 16.8035 -0.378939 -3.24202
1419 7 8.41797 6.13423 -1.12448
3552 9 15.5592 6.24529 2.11639
1330 9 7.96496 5.2409 -5.84548
574 6 8.42992 -1.12521 1.8948
570 6 9.29518 -1.23766 -0.374649
1568 6 16.9172 2.88142 1.24343
666 7 8.42919 4.2934 5.82649
594 8 13.2872 -1.35005 2.4288
1401 7 13.1169 6.15922 19.7315
417 6 11.4102 -1.14405 16.4712
633 7 9.25915 5.70795 13.7026
458 6 8.75061 5.09294 12.9676
433 3 14.0411 1.11279 13.3091
1579 6 14.8372 0.0627325 7.44684
591 7 8.36967 0.534699 8.75413
3632 9 16.2888 4.14752 18.9617
1397 7 9.12578 6.19745 17.2279
623 7 11.6567 0.670576 8.93327
1402 7 13.6222 3.7252 18.8166
624 7 11.9917 0.702328 6.52495
617 7 14.283 1.31533 12.292
394 2 8.08049 -0.894053 7.12118
612 7 13.4267 -0.99938 15.3721
622 7 10.1804 2.23779 10.599
3625 7 15.5455 2.04078 17.3065
3478 2 16.6708 0.573805 19.7643
432 6 10.087 2.63837 14.0667
1583 16 14.1858 0.276572 9.70102
428 6 11.8151 2.19175 12.5713
1240 6 10.4306 3.42465 19.3846
426 2 12.9093 0.99908 16.0471
616 7 10.2982 1.90144 16.0785
3399 6 13.8351 5.12733 11.7632
3554 7 16.3438 3.15693 7.05185
441 6 11.7931 4.0345 6.91365
1395 7 11.4074 5.27427 16.5484
3560 7 16.894 3.62666 13.7334
3553 7 16.0903 3.12094 9.51046
445 6 11.9084 1.63222 7.04454
3398 6 13.6672 4.82186 13.1081
418 15 11.563 -0.645191 18.8451
446 11 11.9252 5.09938 5.96476
3401 6 16.16 4.25988 11.8295
590 7 8.82657 -0.374886 6.50066
1578 6 14.2239 -0.481136 8.5554
619 7 14.1947 0.0849336 13.4274
456 6 8.42205 3.75782 13.1123
455 16 11.6936 5.33311 8.87909
621 7 10.8289 3.8311 10.9647
1403 7 12.3759 3.8735 17.6992
1577 6 15.1369 -0.713707 6.29962
1404 7 10.0953 3.33243 18.3701
3400 6 14.7736 4.47408 13.9022
438 15 12.2012 2.35943 11.2499
435 13 11.0189 -1.38984 10.8886
632 9 11.6304 5.33684 9.8342
415 6 10.8109 -1.14558 17.7618
1237 2 12.7045 4.26928 18.6982
442 6 11.6106 4.02678 8.28725
615 7 12.5681 1.38301 17.0183
614 7 13.9598 1.34475 15.9313
1393 7 10.74 5.87006 18.9148
1239 6 9.50359 3.17189 20.392
1741 9 13.2252 0.370261 9.9997
3465 6 16.8119 -0.728302 13.5822
429 6 12.5936 1.61816 13.6084
613 7 13.3737 -0.656058 17.1373
444 6 11.6311 1.6303 8.39577
1238 6 11.6708 3.84399 19.7474
3630 7 16.0987 0.189805 20.6166
661 7 8.62164 4.73014 8.41778
443 6 11.8943 2.79519 6.27771
3557 7 13.0253 5.36504 11.0805
439 2 11.1122 2.88455 10.4769
437 15 8.81744 3.12079 14.2288
431 6 10.7868 1.98183 15.1116
3470 6 16.6343 -0.344466 16.0053
625 8 12.7213 5.77716 6.22997
430 12 10.7054 2.82277 12.9044
425 2 12.8285 -0.516583 16.2278
457 6 8.36792 5.81201 11.8115
1400 7 13.6985 6.10286 18.1599
440 6 11.4933 2.85966 9.05036
664 7 8.16497 2.44444 6.97838
618 7 14.7264 1.73226 13.8457
3558 7 14.6569 4.30169 15.0205
3620 7 15.227 0.0700695 18.5052
1737 7 15.3132 1.02414 7.5004
427 6 12.086 1.47777 14.8891
3628 7 15.5673 2.57338 19.8158
3472 1 16.2796 -0.131473 18.504
3391 6 15.8143 5.22527 6.90154
3402 6 16.0399 4.11346 13.2275
3392 6 15.9075 4.00873 8.94329
3393 6 16.0875 4.08165 7.59888
3561 9 12.6244 5.47335 14.6475
3397 6 15.0726 4.84785 11.1298
3394 6 15.2624 5.03062 9.68559
1236 2 12.7869 5.79035 18.7482
3477 2 16.6052 2.1216 19.7035
3403 16 12.465 5.07747 13.8038
3475 2 16.6317 1.88449 17.2268
907 6 13.532 12.8218 2.03587
1117 6 15.0155 6.44942 -7.95963
477 16 12.914 9.45516 4.88367
1125 2 12.2871 9.98541 -6.26496
3574 7 16.4687 13.1829 2.75373
1172 6 11.195 13.6986 -6.62382
1359 7 15.7051 13.0299 -6.51681
1118 6 13.8564 6.95535 -4.56237
3842 22 14.9059 8.99808 1.61955
1124 6 11.4609 9.80632 -7.5135
1163 13 10.5518 9.96761 -1.65093
922 6 16.6279 10.4978 -3.13416
908 6 14.2664 12.1445 1.12433
1211 6 8.53515 11.353 5.57732
1428 7 11.4707 7.98638 2.52428
1276 3 10.4292 8.18704 2.95618
918 6 13.8472 13.1012 -2.90758
1115 6 14.457 7.15887 -6.90704
1135 6 8.07037 7.47456 -4.63686
1431 7 10.6069 12.5691 0.618185
1137 6 8.50022 8.4639 -3.9012
1162 5 10.0673 10.1653 -2.67977
1328 7 14.3267 7.17922 -2.53835
1279 6 9.74488 11.8636 0.764585
640 9 12.2635 8.79915 4.63244
1269 6 8.58543 7.25244 1.50502
1120 6 13.6211 8.24701 -7.17108
910 6 14.1443 12.4334 -0.233812
1078 7 16.7802 11.0124 -6.08716
1320 7 11.5542 10.2017 -5.44784
3386 6 16.4578 6.53637 3.66852
1167 2 9.00026 13.3591 -7.76466
3897 22 10.9287 6.42455 -1.9186
903 6 12.5621 13.8114 1.70974
1321 7 12.9763 10.8052 -6.37939
1278 6 10.0692 10.6926 1.41313
1060 7 14.9695 11.4573 1.4855
1296 16 11.3395 10.5275 1.86824
1318 7 14.008 9.93773 -8.38877
1057 7 11.4542 12.5118 3.92745
1121 6 12.9537 8.69567 -6.04054
1430 7 10.4828 8.99857 3.68433
1132 6 10.7701 8.10213 -4.11496
1371 7 9.31381 10.7566 5.0423
3896 22 11.675 6.78748 0.247903
1277 6 8.54357 12.0655 0.105886
1068 7 13.6779 13.3922 -3.96584
1126 14 10.2216 10.247 -7.51508
1070 7 15.6206 11.8173 -4.55092
3841 21 14.1864 8.74033 0.746827
920 6 16.7913 10.1705 -1.84467
921 6 15.7786 11.6018 -3.42749
1429 7 10.1834 7.33706 3.48796
1059 7 13.7141 12.5085 3.06066
1268 6 9.10979 9.59723 1.29527
1329 7 11.1342 6.29942 -5.29265
3895 21 11.3018 6.60606 -0.835333
1134 6 10.4177 7.03001 -4.9176
1398 7 10.3144 8.12919 -8.94756
1127 15 12.123 8.38816 -3.89206
1399 7 11.7367 7.14535 -8.75447
1449 9 11.3653 9.661 2.29306
1133 6 9.10796 6.63224 -5.11668
1136 6 9.75602 8.88327 -3.50458
1270 6 9.33507 8.3606 1.91721
919 6 16.0572 10.887 -0.906912
1113 6 14.7624 6.76344 -5.60402
916 6 15.0671 11.8857 -1.18767
1350 7 8.96401 12.4743 -8.4155
1164 16 9.78892 11.452 -3.04346
917 6 14.9383 12.2218 -2.54089
1119 6 12.9648 7.9832 -4.82029
900 2 11.3084 13.5915 3.96856
1348 9 10.3951 11.9543 -2.48035
1123 1 12.0958 9.30128 -8.80009
1166 15 8.39398 13.1135 -6.50239
1071 7 16.6968 9.1211 -4.72886
1069 7 16.1312 10.5612 0.135522
1351 7 10.815 13.1492 -5.70653
1122 2 13.5106 8.99444 -8.45979
3388 6 16.5919 6.29884 5.0897
909 6 13.2027 13.4042 -0.582822
3843 22 13.4671 8.48267 -0.125924
1282 6 8.22487 13.3521 -0.446282
913 6 13.1255 13.8178 -1.92914
1316 7 14.8828 6.76951 -9.0075
1131 3 13.7588 6.43193 -3.15892
1325 9 16.0226 6.12091 -3.38361
1058 7 10.2766 13.6839 4.26672
1168 6 10.4202 13.8251 -7.72695
1327 7 12.7181 6.42763 -2.81844
2608 3 8.78198 12.7122 14.6299
654 7 16.3805 9.07746 16.2323
651 7 12.9648 11.0833 14.2027
1089 7 12.2203 12.3083 19.5494
1659 16 16.5669 8.61388 19.5719
3555 7 14.8242 7.1383 6.9851
492 16 10.2089 8.48351 13.6488
3395 6 15.1897 6.26516 7.58109
1392 7 12.0274 8.61712 18.5383
1205 16 10.644 11.9073 9.8994
636 7 9.13328 7.59515 9.92814
934 6 15.1131 13.2464 18.2338
3556 7 14.6254 7.15563 9.50517
1396 7 9.53094 6.49963 15.565
475 6 13.9589 10.6233 8.27672
2794 7 8.9069 11.7757 15.214
1394 7 11.9811 6.99122 16.3911
462 15 8.65568 7.14313 11.8028
1319 7 11.9879 10.0257 20.2417
1045 7 13.198 13.5693 13.0902
939 4 13.0063 12.7542 18.9146
2176 9 16.6089 9.35921 13.8029
484 6 16.4922 13.5663 8.20988
469 6 12.1414 9.64517 12.8345
473 6 12.0732 8.8308 7.13276
655 7 13.866 10.2481 16.6611
1201 6 8.9811 11.1741 11.5545
493 2 12.4876 10.1294 14.2045
468 6 11.0068 8.88013 12.6059
1206 15 9.22972 10.7484 7.86617
656 7 15.9872 6.95811 14.7518
3866 22 15.7549 9.09313 9.83612
1092 7 14.6183 12.2926 20.197
478 15 14.7678 11.2121 6.05906
465 6 12.6634 9.72848 10.5008
1202 6 9.48428 11.2688 10.2114
3893 22 15.819 11.55 10.4792
481 6 16.9291 11.1705 7.07401
1387 7 9.91382 10.2063 19.8412
941 4 14.3996 12.6134 19.2527
3892 21 15.876 12.4609 11.1952
652 7 11.6056 10.2201 14.8243
498 4 14.1654 8.11131 14.2156
479 6 15.7435 11.8478 6.82961
466 6 11.703 8.84306 10.418
1228 1 9.86343 8.38303 18.4668
1227 2 9.5224 9.81346 18.8023
1366 7 9.44918 11.4018 12.5234
472 6 13.1096 9.90704 9.16128
1047 7 11.6846 13.4253 12.1609
1388 7 9.19175 7.7032 18.9134
1091 7 12.2877 12.778 16.8613
1386 7 9.99047 10.5295 18.1106
2795 7 9.70034 13.0012 14.0603
495 2 15.4152 8.61146 16.2669
1234 2 9.75839 6.78615 16.5881
1204 6 8.75395 10.6956 9.10651
1368 9 11.1357 12.078 10.784
1229 1 9.63408 8.33248 16.9225
1812 9 15.9236 8.81505 18.863
940 2 12.7712 13.4108 17.6104
463 2 9.72839 7.31106 10.8197
1235 2 11.3019 8.03122 20.5324
1232 1 11.5008 6.42133 18.3871
650 9 10.6959 8.67171 14.491
483 6 15.4991 13.0867 7.42449
1053 7 11.0655 12.5593 6.34736
467 6 12.9074 10.1749 11.8518
657 7 13.9703 7.68667 13.2225
476 6 13.9726 10.3922 6.91507
935 6 14.1952 13.7684 17.3084
638 7 11.3321 8.11029 6.76866
653 7 15.4099 8.18128 17.2917
464 6 10.7782 8.32557 11.2581
1389 7 10.4443 8.89761 16.3951
1231 1 11.3028 7.85917 18.9503
1317 7 13.8171 8.43082 20.4925
496 4 14.2204 9.44581 16.0069
471 6 12.3642 9.12164 8.40832
474 6 13.0155 9.55862 6.25281
494 4 13.5043 9.19127 14.8466
637 7 13.5296 11.0003 12.0781
497 4 15.2066 7.68752 15.0721
639 7 14.5361 11.4627 8.77313
470 17 11.3822 8.37987 9.16148
635 7 10.2271 6.31226 10.5999
1207 6 8.37471 11.4639 6.97426
1233 2 11.1925 6.2978 16.8587
1391 7 8.04779 9.22344 15.5256
936 6 16.4683 13.2521 17.9306
3864 21 16.8934 8.93108 9.68483
1054 7 12.4448 13.3562 7.02063
898 2 11.5343 13.5694 6.39179
3894 22 15.9331 13.3719 11.911
1230 2 8.16994 8.71108 16.4246
3396 6 14.9779 6.24192 8.94182
1189 6 8.0344 9.89415 18.6888
643 7 14.6135 13.7354 7.19154
ITEM: TIMESTEP
350000
ITEM: NUMBER OF ATOMS
3773
ITEM: BOX BOUNDS pp pp pp
-1.8815063496728303e+01 1.6996043717802866e+01
-2.3898088429750786e+01 1.3670680187663379e+01
-9.2411240000702506e+00 2.0613782825754036e+01
ITEM: ATOMS id type x y z
3336 3 -10.0436 -19.9714 -6.38671
3508 9 -15.1062 -17.0882 4.16793
3526 7 -13.2205 -22.5152 -3.19231
3327 6 -14.3382 -19.9143 -5.45385
3329 6 -15.3264 -20.3681 -4.48715
3530 7 -12.4162 -22.7863 -1.56987
3104 6 -16.7196 -20.5444 4.59573
3341 6 -14.4452 -23.4008 -1.16515
3239 7 -12.0915 -17.3766 -3.57535
3100 6 -16.7277 -19.704 2.3265
3337 2 -14.8059 -21.0657 -3.27246
3335 4 -13.162 -21.8519 -7.20435
3517 7 -10.0821 -21.7172 -8.41671
3094 6 -15.9758 -19.1494 1.20953
3082 2 -10.3752 -17.9655 -2.52048
3253 7 -15.0036 -20.3543 3.48498
947 10 -16.328 -22.7073 -6.68446
3085 6 -13.8883 -16.9374 -1.67648
3357 6 -13.8834 -23.9015 4.94338
3090 6 -15.8881 -16.386 -2.83742
3520 7 -14.195 -22.2225 -7.03427
3334 2 -12.2483 -22.4546 -8.24617
3313 16 -15.9839 -17.0104 3.86889
3331 4 -12.5054 -20.9191 -6.40701
3506 8 -17.8819 -17.6203 4.45541
3323 6 -16.9989 -18.9022 -5.75808
3531 7 -13.2056 -21.818 -0.383346
3084 2 -12.4055 -16.7155 -1.53657
3875 22 -11.0193 -19.1453 0.796844
3087 6 -14.5838 -17.8075 -0.824971
3516 7 -16.2425 -18.0175 -7.67042
3525 7 -14.0142 -20.462 -2.81131
3326 6 -16.042 -18.5598 -6.71023
3324 20 -17.6146 -20.4341 -3.56191
3536 7 -12.7923 -23.6724 5.18373
944 7 -18.6761 -21.6085 -7.6762
3240 7 -12.2702 -18.7548 -2.44384
3874 22 -10.6456 -21.4081 0.447358
3529 7 -12.63 -23.4615 0.0315564
3093 6 -16.6337 -18.4081 0.223558
3092 6 -14.5859 -19.2672 1.16397
3345 3 -13.1094 -22.835 -0.707524
3106 6 -18.1262 -20.4382 4.65558
3332 4 -11.0808 -21.651 -7.96311
3339 6 -14.8741 -23.323 -2.49206
3338 2 -14.2421 -22.4467 -3.48594
3328 6 -16.4928 -19.6656 -4.78276
3103 6 -16.0681 -20.237 3.41386
3241 7 -11.9897 -16.9466 -0.550456
3244 7 -13.9701 -19.8408 1.88999
3797 22 -11.9541 -17.969 -8.25891
3527 7 -14.3338 -22.9492 -4.46142
3091 6 -13.9342 -18.5355 0.189217
3515 7 -13.9558 -18.6276 -7.17651
3333 4 -11.1931 -20.7868 -6.86312
3099 6 -18.7213 -17.413 -0.604822
3088 6 -16.6371 -17.0928 -1.84607
3343 6 -16.0675 -23.8707 -2.85588
3098 6 -18.0826 -16.976 -1.78202
3237 7 -10.1094 -18.6557 -1.60716
3873 21 -10.8325 -20.2768 0.622073
3514 9 -18.6161 -16.5409 -7.22105
3083 2 -11.8715 -17.7684 -2.59937
3524 7 -15.5836 -21.1278 -2.53598
3097 6 -18.0098 -18.1847 0.308244
3319 6 -18.3877 -18.7427 -5.58612
745 19 -17.2318 -23.6629 -6.27438
3933 21 -12.4384 -17.9661 4.52036
3312 11 -18.4994 -16.8453 4.62671
3325 6 -14.6994 -19.0157 -6.50921
3521 7 -10.2678 -19.0569 -5.83929
3101 6 -18.0962 -19.6216 2.36351
3330 15 -13.0071 -20.2798 -5.29586
3518 7 -11.9801 -23.5155 -8.22739
3086 6 -15.9964 -17.8561 -0.836494
3243 7 -12.86 -18.5348 0.24635
3234 7 -10.0959 -16.4372 -4.73812
3102 6 -18.7221 -18.823 1.36539
3919 22 -10.2957 -23.6093 -3.15196
3528 7 -16.5202 -23.7762 -3.87219
3535 7 -13.5825 -23.8272 2.94098
766 16 -17.7929 -19.8502 -9.11662
3795 21 -11.1729 -18.2861 -9.05562
3238 7 -10.1603 -18.6702 -3.37898
1034 7 -16.4444 -22.7802 12.8156
3541 7 -11.6635 -23.5331 8.94715
1701 7 -14.663 -23.3524 19.9973
750 6 -18.3524 -20.501 19.6659
3542 7 -12.1293 -22.9038 7.25807
820 6 -13.3248 -19.0674 9.16345
759 1 -17.5858 -23.4215 14.3449
794 12 -10.3722 -18.2998 7.829
865 1 -17.6126 -18.9385 11.7248
775 6 -12.5414 -17.3521 13.8228
965 7 -16.0654 -19.3865 16.3507
1866 16 -10.0179 -21.5002 6.592
1025 7 -18.1596 -19.1978 10.805
1858 16 -10.1114 -22.9652 13.0813
864 1 -16.9371 -20.1697 12.3196
799 13 -10.6664 -20.3527 17.242
796 6 -11.0953 -18.9082 8.80237
3796 22 -10.3917 -18.6033 20.0026
3266 7 -17.9663 -22.7704 8.6677
767 3 -15.375 -20.0504 19.3307
956 7 -14.6958 -22.8343 15.1083
984 9 -12.0988 -22.4504 15.7173
825 6 -15.0998 -19.7164 10.5299
1023 7 -15.2892 -21.4504 11.7011
768 6 -14.0141 -20.2413 16.4109
798 5 -11.4832 -20.8762 16.6015
3256 7 -17.6557 -22.4343 6.16507
3366 3 -12.1477 -23.7963 7.98106
1024 7 -16.2963 -19.925 13.1212
751 6 -18.365 -21.6037 17.5937
3114 2 -18.5767 -21.9522 8.17873
964 7 -15.7669 -18.99 19.2814
871 2 -17.126 -22.2437 13.579
758 2 -18.4889 -23.0916 15.5751
3257 7 -15.9673 -21.5351 7.74187
3519 7 -12.648 -22.294 20.6247
771 6 -13.3181 -18.2013 14.6982
2041 7 -11.9177 -23.8534 14.4746
781 6 -10.2273 -17.3369 12.9564
1027 7 -17.1149 -17.0911 10.9858
755 6 -15.5583 -21.5653 17.4105
1033 7 -18.1571 -18.4705 13.8896
772 6 -12.6092 -20.0713 16.0479
870 2 -18.5946 -18.4358 12.8199
966 9 -15.2422 -16.495 14.4514
3107 1 -18.7662 -20.6489 6.06388
2053 9 -10.9041 -22.6398 13.4461
749 6 -17.6315 -20.9487 18.5734
774 16 -15.6264 -17.3491 14.8019
795 6 -10.6477 -19.1539 10.0601
3108 1 -17.8686 -21.5729 6.84512
3109 2 -16.5075 -20.8399 7.08059
776 20 -10.7913 -19.1758 14.7978
998 7 -13.8457 -21.0982 9.41049
773 6 -12.5404 -19.0717 15.2084
1026 7 -16.1748 -17.4201 12.4012
822 6 -13.4871 -17.7306 9.34218
980 7 -11.3104 -19.779 10.8094
1022 7 -16.6081 -21.3567 10.5269
3267 7 -18.5917 -21.021 8.88898
821 6 -14.6708 -17.41 10.0393
866 2 -16.5888 -17.8613 11.4984
800 16 -11.3617 -22.1555 16.2578
761 2 -15.4453 -23.3133 15.7458
1035 7 -16.3076 -21.6369 14.0067
2058 9 -10.4504 -21.9602 7.27405
3934 21 -13.0534 -21.5594 12.6649
823 6 -15.459 -18.3746 10.7071
824 6 -14.1289 -20.0592 9.6812
757 6 -16.2712 -22.4188 16.6213
867 1 -17.989 -21.257 12.7893
3258 7 -16.6217 -19.8423 7.55859
801 15 -12.3115 -19.5157 8.37952
962 7 -14.3454 -19.9261 18.9996
756 6 -17.6914 -22.3076 16.6381
997 7 -12.959 -16.9486 8.78038
763 15 -14.2172 -21.418 17.1368
770 6 -14.9772 -19.2968 16.035
1028 7 -18.3428 -21.7128 11.8724
754 6 -16.2111 -20.8482 18.4118
2521 7 -13.7836 -16.6083 19.3698
963 7 -15.434 -20.4186 20.3741
769 6 -14.7056 -18.262 15.1391
863 2 -15.9764 -20.7676 11.2062
780 6 -11.2728 -17.7184 13.7738
3260 7 -15.101 -19.9389 5.78826
1032 7 -18.6995 -17.3824 12.6691
3110 2 -15.7928 -20.7657 5.77157
3259 7 -15.256 -21.7122 5.63086
961 9 -16.9166 -19.462 20.5515
3279 6 -15.7414 -12.6383 -0.888032
2779 8 -17.8057 -11.9461 -3.95505
3096 3 -16.553 -15.6144 -3.97611
3836 22 -14.7433 -9.02597 -0.425154
3291 6 -16.2216 -16.0363 2.90603
3294 16 -15.7888 -11.6276 -1.83513
2523 7 -14.598 -12.0694 -6.39315
2769 7 -17.6106 -15.1948 -8.52116
3494 7 -14.1743 -15.977 2.4508
3490 7 -13.6101 -12.7271 -1.06201
2780 9 -18.4735 -9.10398 -3.95315
3246 7 -12.7127 -15.0946 -3.43797
3278 6 -16.8498 -13.141 -0.134119
3947 22 -16.5465 -12.6712 4.87233
2560 6 -18.0675 -13.3349 -6.87073
996 9 -10.5953 -13.911 4.05941
3070 6 -10.9819 -12.6104 -7.32916
2370 6 -14.4839 -13.2768 -8.17193
3063 6 -10.1046 -14.4933 -8.80713
2561 6 -18.4713 -11.1077 -6.43671
3242 7 -12.0183 -15.6896 -1.78585
2765 7 -17.8654 -14.3628 -6.42715
3285 6 -17.7331 -14.572 1.64956
819 16 -10.3223 -14.804 4.35521
3245 7 -14.2676 -14.2261 -3.45379
2406 7 -14.58 -10.2102 4.63342
3247 7 -13.7833 -15.4724 -4.66346
2524 7 -15.1933 -9.81802 -6.34672
3835 21 -14.0401 -9.70235 0.202051
2203 2 -13.8337 -9.54432 4.18236
2374 6 -15.4398 -9.80523 -7.42072
3925 21 -11.0791 -12.1545 0.497267
3228 7 -11.2337 -10.9312 -6.1171
2417 9 -11.8832 -10.9543 3.7017
3227 7 -11.4825 -12.0619 -8.12961
3837 22 -13.3367 -10.3787 0.829266
3277 6 -14.4825 -13.1266 -0.529745
2371 6 -14.7236 -12.1527 -7.45083
3281 6 -14.3304 -14.0371 0.496822
3280 6 -16.7356 -14.1282 0.856303
2562 6 -18.2451 -12.376 -5.89989
2388 16 -14.0079 -14.424 -7.4784
3249 7 -17.2379 -16.2487 -4.52635
1011 7 -17.034 -9.64444 0.836976
3071 6 -10.8057 -11.9636 -6.189
1008 7 -18.1666 -11.1664 1.96188
2778 8 -17.2863 -13.4002 -4.5694
3095 3 -13.7664 -15.2462 -3.62303
2369 6 -15.1352 -11.0155 -8.13539
2206 6 -11.4953 -9.90303 5.28314
3791 21 -13.2381 -10.9084 -3.4423
3927 22 -10.7855 -11.0743 0.801548
2204 6 -12.7307 -9.24346 5.18921
3491 7 -13.2872 -14.2993 0.722662
2559 6 -18.2146 -13.1782 -8.25471
3282 6 -15.4601 -14.5921 1.20906
2584 11 -18.0374 -12.7014 -4.56229
3283 6 -18.1835 -12.7847 -0.486957
3496 9 -14.9731 -11.2375 -2.09039
3069 6 -10.1834 -12.6411 -5.03621
3290 6 -18.6025 -15.9523 3.5282
3926 22 -11.3724 -13.2348 0.193037
3248 7 -17.0447 -14.8081 -3.49309
2222 16 -11.2936 -10.9986 4.46685
3066 6 -10.4401 -13.9339 -7.51448
3945 21 -15.5936 -12.9546 4.27466
3292 6 -15.2077 -15.5908 2.16447
3250 7 -15.8523 -15.2888 -4.73556
2541 9 -14.1619 -15.1387 -8.05173
3792 22 -13.043 -11.6363 -2.56055
3293 19 -18.5824 -11.6823 -1.7465
3793 22 -13.4332 -10.1804 -4.32404
2405 7 -13.4103 -10.2083 3.43472
3289 6 -17.5622 -15.4783 2.72388
2520 7 -12.9328 -15.7129 -9.17558
2401 7 -16.481 -9.21767 4.45632
3946 22 -14.6407 -13.2378 3.67696
2585 16 -18.2564 -10.0072 -4.24348
3076 6 -10.0078 -11.8999 -3.84485
2563 6 -18.6677 -10.0527 -5.55413
2558 6 -18.6567 -11.93 -8.69484
853 6 -17.794 -9.13984 0.181369
3089 6 -14.5283 -16.2941 -2.67688
2567 2 -18.1195 -14.4156 -9.13316
2557 6 -18.7071 -10.8704 -7.80848
3232 7 -10.3189 -10.8505 -3.73541
2522 7 -14.6197 -16.1446 -9.00813
2360 6 -14.3908 -13.2602 20.2603
967 7 -12.0827 -14.5308 12.023
2346 6 -18.0531 -11.4196 12.4257
2498 7 -18.5824 -9.41008 14.1979
2350 6 -17.5342 -11.6519 13.7314
856 16 -13.4537 -13.7877 9.38047
786 2 -9.91647 -11.8005 12.1081
784 4 -9.94503 -12.0247 10.6161
3213 7 -10.3115 -11.6543 15.3533
779 6 -10.5609 -16.1075 12.2699
2511 7 -15.8827 -14.8897 15.4008
2506 7 -16.6857 -11.094 14.0629
985 7 -9.791 -15.9281 7.08847
999 7 -15.3938 -16.2052 8.15614
2781 9 -18.5028 -16.1811 17.4324
2365 6 -15.1468 -10.9509 20.282
830 6 -16.7397 -13.4075 8.16855
1001 7 -15.84 -10.2739 7.84553
2359 6 -14.725 -12.0344 18.2133
857 2 -13.5916 -10.9303 9.11646
2518 7 -14.919 -16.3934 17.4569
2368 3 -13.9109 -15.7453 20.1459
975 7 -10.6047 -14.6062 8.6317
828 6 -15.7367 -14.1219 8.78697
827 2 -15.7575 -15.6556 9.00185
832 6 -14.6159 -13.2398 8.95987
2357 6 -14.5392 -13.1928 17.4304
2512 7 -15.7344 -13.585 14.1658
3062 6 -10.7342 -13.8875 19.9519
1021 7 -14.6035 -11.979 11.7636
3218 7 -11.4929 -9.29339 14.929
2351 6 -17.8629 -12.7885 14.4265
1014 9 -12.7904 -13.1221 9.38801
2340 6 -17.7342 -10.1667 11.753
969 7 -10.1929 -11.2634 9.86637
2364 6 -15.3715 -9.71294 18.2588
2519 7 -14.1642 -15.3822 16.2456
2510 7 -16.8606 -12.1424 16.3133
1020 7 -13.7771 -10.4955 13.8781
2517 7 -13.1882 -16.2071 17.4299
2339 6 -17.4176 -8.97168 12.4466
2367 3 -14.129 -15.6467 17.3117
833 6 -14.7332 -11.8694 8.65986
2341 6 -18.1232 -10.0422 10.4907
835 6 -18.6605 -13.5372 7.28215
3225 7 -11.496 -13.0762 20.084
2362 6 -14.1623 -14.3992 19.4716
3055 2 -11.2795 -9.34213 16.0294
1015 7 -12.6056 -11.4925 8.99625
836 6 -18.3257 -12.2663 7.19066
2770 7 -17.5026 -14.2484 19.8458
858 4 -13.5455 -10.506 10.5529
778 6 -12.8354 -16.1088 13.1878
3223 7 -11.8173 -13.5406 17.3848
2515 7 -15.0075 -10.6589 16.4527
3056 2 -10.4073 -11.9109 17.5481
3057 2 -10.7679 -13.413 17.4951
3219 7 -12.0356 -10.1562 16.3349
2514 7 -14.4683 -12.1388 15.4717
826 15 -14.9599 -16.087 10.1299
1000 7 -16.7354 -16.0739 9.29553
777 6 -11.8296 -15.5329 12.4302
2356 2 -14.6007 -13.111 15.8972
2363 6 -15.0181 -10.8243 17.5284
831 6 -15.8905 -11.3505 8.06864
2586 16 -18.2694 -15.8488 18.3242
2366 6 -15.4468 -9.7346 19.6354
2513 7 -13.6488 -13.6009 15.4819
2354 2 -17.0833 -13.0857 15.6978
834 17 -17.7613 -14.3802 7.96077
2500 7 -17.8967 -8.97812 8.6639
2355 2 -15.8309 -13.7989 15.3369
2343 6 -17.6329 -8.99554 9.7166
2509 7 -17.6672 -13.6866 16.3712
862 4 -14.0525 -11.0407 11.7541
2361 6 -14.3383 -14.3904 18.0982
829 6 -16.988 -12.205 7.73467
2358 6 -14.6849 -12.0709 19.579
970 7 -10.9034 -11.3042 12.2945
3221 7 -11.374 -11.4768 17.9087
2205 6 -10.5633 -9.48932 6.26233
1016 7 -13.5496 -10.0565 8.52915
968 7 -13.8007 -15.587 13.299
3222 7 -10.3742 -13.886 16.5898
860 4 -12.8816 -9.33842 10.8998
859 2 -12.8181 -9.04224 12.345
2353 6 -18.7434 -13.7425 13.8506
3058 6 -10.2773 -14.1135 18.6881
861 4 -13.5935 -10.231 12.8277
788 3 -9.91972 -13.7765 8.80994
974 7 -10.201 -12.9382 8.20665
2420 7 -10.0492 -12.2869 5.92667
2004 3 -17.9911 -3.74904 4.4414
2377 6 -16.2906 -7.53051 -7.39207
1012 7 -16.3953 -8.68151 -1.38907
2527 7 -18.4235 -5.29711 -7.05675
2200 6 -16.5579 -5.00655 0.31568
2192 6 -12.6499 -7.5757 2.33147
2924 6 -11.084 -6.53532 -3.80379
1794 7 -11.2405 -2.53759 -3.62058
1640 3 -12.0232 -1.79038 -3.70571
2926 6 -10.1678 -7.30048 -3.0694
2398 7 -12.6463 -3.67086 -1.95075
2385 2 -17.2225 -2.62774 -5.91908
2195 6 -14.6131 -8.47731 3.42934
2194 6 -14.053 -7.58016 2.53778
2202 16 -11.0597 -4.97602 -0.725476
2201 19 -10.4074 -6.77952 1.28429
2198 6 -16.8414 -7.57699 3.08856
2538 7 -17.9901 -1.9011 -7.8255
3142 8 -10.2879 -8.3517 -1.19857
2923 6 -10.7758 -5.87785 -4.96131
2950 16 -12.4686 -3.30944 -7.77346
2193 6 -14.8774 -6.67974 1.84634
2415 8 -18.8152 -6.82365 3.08413
1668 2 -12.6454 -2.16182 2.22771
2188 6 -14.3308 -5.96058 0.793934
1817 7 -14.6355 -2.86037 3.1992
2537 7 -17.6534 -1.80097 -5.38237
2534 7 -16.6819 -5.88869 -5.2397
2197 6 -16.2718 -6.71886 2.07967
2526 7 -16.1801 -7.49979 -6.32481
1988 6 -10.2181 -3.87549 5.03147
2190 6 -15.1825 -5.14157 0.0201397
2220 11 -18.2507 -7.59636 3.48043
2186 6 -12.9053 -5.90854 0.584405
2384 1 -17.2866 -3.8831 -5.08679
1306 7 -18.6576 -2.8517 0.384295
3145 9 -11.9174 -3.1459 -6.96472
2157 7 -17.8683 -3.04511 3.61561
2400 7 -12.0012 -8.30947 2.78183
1667 4 -14.1205 -2.14903 2.54208
2379 1 -17.3355 -5.23411 -7.26641
2383 2 -16.6033 -4.9972 -5.87926
2386 2 -18.0499 -2.86314 -7.21429
3136 7 -11.6946 -8.23839 -9.07638
3128 7 -9.76853 -4.77564 -7.21208
2185 6 -13.2282 -4.30718 -1.2282
2191 6 -12.1031 -6.6876 1.4549
2948 11 -10.7617 -8.08609 -2.04218
852 6 -18.2363 -7.96857 -1.88561
2931 2 -11.8233 -5.0627 -5.68269
2536 7 -16.2234 -2.4109 -6.27621
2937 6 -11.9965 -7.23747 -8.81565
2144 7 -11.8783 -5.02267 5.44941
2414 8 -18.6669 -8.46102 3.19963
1010 7 -17.879 -7.47724 -2.82332
2540 9 -17.5208 -3.6022 -3.09369
2373 6 -15.9085 -8.68065 -8.09973
2378 6 -16.7614 -6.3937 -8.01944
1819 7 -12.1179 -1.96588 3.19469
2399 7 -15.0874 -3.48647 -1.51777
2221 16 -18.4111 -5.54907 1.58827
1818 7 -12.2882 -3.04247 1.76086
2404 9 -10.9688 -4.54726 -1.57238
2934 6 -12.3787 -4.67551 -8.07141
3133 7 -11.5278 -3.99903 -5.72734
2196 6 -15.9917 -8.54865 3.65203
3695 22 -14.4136 -6.24578 -4.08879
3135 7 -11.7614 -7.79601 -6.80258
3143 8 -11.6914 -7.81935 -1.86159
2199 6 -17.0603 -5.7231 1.344
854 6 -17.4024 -8.61927 -1.01226
3693 21 -14.8488 -7.31584 -3.98326
3134 7 -12.7466 -5.11659 -5.05255
3129 7 -12.1214 -6.37346 -3.43897
3694 22 -15.2842 -8.38569 -3.87786
2533 7 -15.5458 -4.71063 -6.10137
2187 6 -12.414 -5.09848 -0.457182
2380 1 -17.2581 -3.9599 -8.08206
2932 6 -12.1088 -5.59238 -7.10773
2535 7 -18.3351 -4.1974 -4.98402
2189 6 -14.5546 -4.27864 -0.9847
2936 6 -11.9149 -6.94893 -7.51371
2387 16 -16.7761 -3.72302 -3.71209
2528 7 -16.2379 -3.61886 -8.23131
2402 7 -17.2328 -4.3255 -0.229109
1792 7 -12.9171 -2.41951 -3.73834
2156 7 -17.5101 -4.66072 4.12763
2155 7 -17.5925 -5.91986 5.58725
3146 7 -14.2739 -2.55777 -8.87028
2935 6 -12.3838 -6.32466 20.044
2393 6 -17.4247 -2.45604 13.8846
2337 6 -17.8075 -8.71348 13.7776
1018 7 -11.8468 -8.81668 12.837
2329 2 -13.5624 -4.26829 12.1277
2938 6 -13.3419 -4.0848 19.5971
2324 1 -11.0001 -3.85355 12.5861
2525 7 -16.3058 -7.30999 18.6532
2212 6 -10.0249 -7.99851 8.0964
1017 7 -13.3875 -8.12211 12.5625
1019 7 -12.3761 -8.70655 10.1813
3951 22 -18.062 -5.32104 9.94252
2408 7 -12.3819 -6.90483 7.58349
2496 7 -14.9546 -3.86459 14.3981
2940 6 -12.5094 -6.73841 18.746
1991 2 -13.5547 -3.90848 7.9631
2501 7 -18.622 -8.47252 16.0785
2529 7 -17.9206 -3.11409 20.0098
2345 3 -18.33 -7.41986 15.817
2983 13 -10.3191 -3.47074 19.062
2328 2 -12.314 -4.63329 13.001
2502 7 -17.5293 -6.98949 16.5783
3949 21 -18.2894 -4.2527 10.333
2376 6 -16.7933 -6.37968 20.4807
1998 6 -17.4378 -3.18937 5.74586
2495 7 -13.6961 -3.17727 12.0035
1997 6 -16.7434 -4.06729 6.58471
2342 6 -16.7203 -8.13869 10.3303
2543 7 -17.2461 -3.06935 12.9771
2484 7 -11.1435 -4.10368 10.3942
2207 6 -10.8404 -8.34712 7.04861
2499 7 -16.358 -7.28203 9.77288
2330 6 -14.8161 -4.9972 12.6234
2149 7 -15.0639 -5.42383 8.14155
2154 7 -16.7223 -6.27043 7.0996
2344 18 -17.4166 -4.63238 15.5903
2516 7 -15.7683 -8.85449 17.6975
2145 7 -13.9845 -3.94222 5.91047
2410 7 -10.2641 -5.88346 8.08609
1999 6 -15.7098 -1.67601 9.14839
2982 5 -10.6793 -3.57481 17.9685
2945 2 -13.4081 -6.12791 16.4245
2487 7 -11.5689 -2.10797 13.7323
2491 7 -10.9739 -6.26276 11.4913
3950 22 -18.5167 -3.18424 10.7235
2336 6 -17.7251 -7.45774 14.402
2333 6 -16.9864 -6.53658 13.6599
2334 6 -15.4878 -5.9299 11.813
3149 7 -14.5996 -1.81999 15.8311
2942 2 -12.0504 -8.11785 18.2173
2956 6 -11.5521 -2.52512 17.2925
2497 7 -15.0705 -6.12727 10.8544
3147 7 -14.6016 -2.6185 19.167
2151 7 -14.8534 -2.11504 9.61528
2338 6 -16.8069 -8.0147 11.7182
2546 7 -18.1372 -3.00574 18.009
2409 7 -11.2625 -6.66476 9.2761
2150 7 -15.0869 -4.17047 9.43449
2389 6 -17.4826 -2.88449 15.1747
3140 7 -14.4846 -6.19545 16.2043
2331 6 -16.5235 -5.33592 14.2089
2209 6 -12.0838 -7.74406 6.90681
2323 1 -10.3703 -4.226 11.1868
2396 2 -17.347 -2.38774 17.6251
2332 6 -15.3709 -4.70386 13.818
2933 6 -12.7075 -5.0207 20.4605
2951 3 -13.8524 -2.70899 19.8987
2944 6 -12.888 -7.56665 16.0724
2954 6 -13.5444 -1.65024 16.1302
3139 7 -10.8933 -7.20487 16.6989
1994 6 -17.2286 -1.42239 7.34121
2335 6 -16.4054 -6.85485 12.3859
2941 6 -13.1401 -5.87238 17.9026
2494 7 -13.377 -4.50184 11.015
2214 2 -10.2674 -6.72721 8.82509
2492 7 -12.1607 -5.76551 12.9476
3141 7 -12.9085 -5.30643 15.8554
2493 7 -12.4913 -4.45528 14.0804
1993 6 -16.0415 -3.55616 7.65062
2943 1 -11.6688 -8.03765 16.7447
2939 6 -13.4366 -4.55723 18.2898
2947 15 -13.8588 -3.75547 17.2204
2147 7 -12.827 -4.79561 7.89477
1992 2 -14.9557 -4.33488 8.36446
1987 6 -12.1435 -2.98133 6.23191
2325 2 -11.1512 -2.35422 12.7938
1990 2 -13.5432 -3.28308 6.60662
2003 3 -16.7211 -5.52427 6.20386
2952 6 -13.0134 -2.63854 16.9499
2486 7 -11.9437 -1.88465 12.0784
2148 7 -13.1176 -3.32351 8.71951
2946 14 -13.7575 -8.38171 15.5195
2478 7 -10.1802 -2.87019 8.78449
1995 6 -16.3151 -2.22062 8.01571
2531 7 -16.4932 -4.71902 19.108
3148 7 -13.147 -1.81663 19.926
2375 6 -16.3729 -7.4987 19.7769
2146 7 -14.1883 -2.36773 6.56149
1986 6 -11.5655 -1.77809 6.40613
2984 16 -10.3276 -4.59693 17.2351
2382 2 -17.3565 -5.21632 19.647
2372 6 -16.0264 -8.69359 20.3763
2547 7 -16.3913 -2.908 17.7407
2532 7 -18.0278 -5.55056 18.8258
1996 6 -17.7779 -1.88591 6.16175
2391 6 -17.5197 -2.06054 16.2184
2208 6 -12.9924 -8.23298 6.01962
2381 2 -17.9747 -4.13557 20.4676
2153 7 -15.7881 -5.7369 5.64887
1982 6 -10.2451 -1.49781 5.89567
2485 7 -10.2116 -4.15065 13.265
3138 7 -11.2782 -8.68636 18.8163
2327 2 -9.98412 -5.75418 11.2481
3207 7 -9.83187 -7.22231 14.8424
2407 7 -13.9189 -7.59993 5.99407
3137 7 -12.8808 -8.80126 18.395
3168 9 -10.1899 -5.33256 17.8646
1989 6 -11.3943 -4.04476 5.71714
1458 6 -10.7446 3.31803 -5.02397
1557 6 -18.4234 2.13918 2.02407
1813 9 -15.0742 0.102542 -3.36523
1670 7 -14.0138 2.8907 -4.08467
1671 7 -14.4524 3.7221 -6.29424
1588 4 -13.2053 3.13996 4.31398
1109 19 -17.656 1.52326 -2.40609
1634 6 -11.8358 -1.02116 -4.97039
1551 6 -13.5588 5.57219 -0.80221
1638 6 -13.4095 0.967803 -9.13364
1631 6 -11.3847 -0.0874484 -7.51753
1472 6 -12.4326 4.07248 -8.18707
1549 6 -14.9413 5.82626 -1.03458
1642 6 -14.1834 -0.226153 -5.10083
1661 6 -11.5085 -0.340433 0.840317
1747 7 -13.2299 4.17661 4.09441
1474 16 -11.7992 2.22833 -3.0837
1635 6 -11.1202 0.352021 -8.90059
1585 2 -15.7969 2.8924 4.81237
2006 6 -18.7905 -1.11272 5.50788
1815 7 -10.7595 1.38331 -0.464004
1663 6 -12.5805 -0.967587 1.37963
1746 7 -11.261 2.47928 3.43434
1556 6 -17.1908 4.19092 1.31291
1745 7 -11.3651 2.73984 5.14145
1561 6 -16.7206 2.96614 3.49105
1586 4 -14.3733 2.35968 4.67469
1584 16 -15.4325 4.9135 2.84769
1459 6 -11.8858 2.90378 -4.24617
1728 7 -16.8982 4.51876 -0.782953
1311 10 -17.4918 2.50044 -3.29548
1820 7 -15.9394 -0.981043 1.86026
1727 7 -17.7463 5.84267 0.0306711
1755 7 -13.5785 4.65478 1.18863
1593 1 -11.5527 5.30517 0.645515
1729 7 -17.8121 1.22661 3.95296
1814 7 -15.0287 1.21949 0.474587
1590 4 -13.957 0.984746 4.71455
1629 6 -10.3598 -0.644798 -6.73812
1616 18 -10.0393 -1.18587 1.07224
1641 6 -15.0261 0.665495 -7.28662
3565 7 -11.8114 5.75091 5.0291
1587 2 -11.9705 2.3747 4.29495
1465 6 -9.88223 3.92488 -7.19233
1793 7 -12.1062 -1.03777 -2.76949
1816 7 -12.8616 2.53581 -0.392989
1795 7 -16.1862 0.27702 -5.46462
1748 7 -11.8337 0.198167 4.48542
1589 4 -12.5981 0.997484 4.46105
1662 6 -13.8651 -0.412839 1.19376
1555 2 -16.9245 5.10174 0.1228
1594 2 -13.0744 5.47652 0.627466
1674 7 -13.4713 4.07136 -8.60653
1099 6 -18.7968 0.377249 -3.10115
1457 6 -13.1785 3.15784 -4.74289
1669 4 -14.8618 -1.12989 1.94854
1558 6 -18.0877 3.21158 1.27382
1796 7 -17.0991 1.29977 -7.59992
1553 6 -12.6978 5.80462 -1.84665
1460 6 -10.9738 3.79868 -6.31466
1469 6 -10.1355 4.16873 -8.55616
1666 6 -12.8937 1.47193 -0.0466149
1630 6 -12.6848 -0.0492748 -7.02572
1082 7 -17.4702 4.98483 -4.88657
1753 7 -11.3854 4.24865 0.291315
1664 6 -13.9863 0.851119 0.519616
1660 16 -14.4203 -0.514424 -3.78815
1110 16 -17.9043 -0.348896 -0.452635
1665 6 -11.6296 0.86708 0.0551562
1462 6 -12.2579 3.76828 -6.86485
1676 9 -12.6013 2.04917 -2.61966
1552 6 -13.2771 5.84576 -3.12654
1643 6 -15.215 0.272804 -5.93238
1750 7 -10.7441 4.67655 -1.75707
1742 9 -15.5062 5.74262 2.27263
1559 6 -17.6742 2.02405 3.26417
1591 2 -11.1919 5.71745 -1.64646
1646 6 -16.0859 1.13853 -8.06994
1743 7 -15.7343 3.84688 5.39949
1632 6 -12.913 -0.455161 -5.7375
1560 6 -16.4575 4.01051 2.54096
1637 6 -13.7007 0.505136 -7.83469
1461 6 -13.4111 3.58388 -6.00487
1471 6 -11.459 4.38578 -9.04272
1312 9 -18.2802 -0.342194 0.435592
1749 7 -14.6591 0.212152 4.86664
1760 7 -11.2767 4.22125 2.50275
1095 6 -18.6443 -1.22045 -1.16962
1554 15 -15.7309 5.86307 0.126643
1598 2 -11.2013 5.30035 2.09711
1073 7 -18.594 4.6805 -2.68582
930 2 -18.4238 5.44606 -5.31432
1548 6 -14.6119 5.9481 -3.35159
1633 6 -10.5459 -1.02882 -5.47298
1761 7 -11.9504 5.79412 2.70538
1744 7 -16.3987 2.28837 5.54744
1725 7 -16.5348 6.2903 -2.60598
1550 6 -15.5021 6.05477 -2.29709
1726 7 -12.5624 5.89971 -4.06747
2000 6 -16.011 -0.431894 9.60951
1801 7 -15.7211 5.08449 15.4136
2152 7 -15.3902 0.0201303 10.396
2182 7 -12.3545 4.47042 9.24799
3772 21 -13.9641 1.34502 7.90333
2014 6 -18.4115 4.02088 10.5892
1973 6 -10.4249 0.42311 8.08231
1648 6 -15.1567 3.08009 18.112
2958 16 -13.6633 0.475777 15.2155
2027 6 -12.2355 5.29153 11.3181
2953 6 -12.9601 -0.424729 15.9334
2025 6 -11.1882 4.87248 12.1104
1980 18 -10.4331 3.34798 11.5831
2542 7 -17.4207 0.950438 14.4599
2392 6 -17.4872 -0.169131 14.675
2134 7 -10.8052 -0.614478 8.42916
1798 7 -17.6825 2.80762 20.3767
2031 4 -14.0806 5.53793 9.97967
1787 7 -10.0744 0.260218 20.5322
2011 6 -16.9697 2.0549 10.8135
2137 7 -11.0955 0.882264 11.2881
2002 6 -17.0163 0.28733 9.05222
3567 7 -14.0631 5.46463 6.09735
1654 2 -14.7616 3.78883 16.8683
1799 7 -18.1327 3.33537 17.4543
2395 4 -17.2395 -0.983317 18.2397
2016 1 -18.6267 5.61521 12.3423
2959 6 -10.7248 0.782507 16.3181
2544 7 -17.3453 -0.722052 12.6218
3152 7 -11.5306 2.41061 14.9952
1655 2 -18.3441 4.80634 19.1145
2012 6 -17.407 3.28639 11.2428
1650 6 -16.3666 3.27737 18.7127
1652 1 -16.8592 5.15884 17.1919
2008 6 -17.3198 1.60876 9.56549
3773 22 -13.5105 0.285608 7.77127
1644 6 -14.5091 1.63216 20.027
1651 1 -17.4962 4.06107 18.0512
2032 2 -12.9275 4.58811 10.193
1804 7 -14.2799 3.16053 16.1271
1493 16 -11.7845 4.73686 19.555
1649 6 -16.6542 2.68489 19.9423
2138 7 -12.3382 1.65957 10.3384
2018 2 -16.8297 3.87265 12.4972
1802 7 -16.6829 3.69493 15.6455
1803 7 -14.0385 4.59659 16.9814
1653 2 -16.0341 4.39791 16.1972
1805 7 -17.7289 5.39223 19.8269
2962 6 -10.678 2.05187 15.6936
2183 7 -13.2715 3.55316 10.4034
1688 9 -12.5165 5.393 19.6019
1800 7 -16.2144 5.73712 17.8482
2179 7 -9.82691 5.31202 13.6933
2139 7 -12.0133 0.0566485 10.0351
1797 7 -13.217 2.26546 18.3947
2001 6 -17.5788 -0.282224 7.89508
2167 7 -17.2017 3.49822 13.5018
2397 4 -17.3751 -0.00567523 17.2357
3774 22 -14.4179 2.40436 8.03556
1811 7 -18.4905 5.73362 15.9464
1967 6 -9.87396 3.66915 9.99112
3150 9 -13.2433 1.36358 15.3052
2548 7 -17.2442 1.05556 17.4735
1788 7 -11.8927 0.868841 19.0948
2029 6 -10.7262 5.60566 13.1687
2390 6 -17.5052 -0.649336 16.0129
1647 6 -14.2565 2.32649 18.7756
1981 3 -11.5274 0.961544 10.2382
2161 7 -16.3277 1.50987 11.501
2545 7 -17.1318 -0.771524 19.3287
2955 6 -11.6456 -0.263626 16.4522
2017 2 -17.0779 5.39706 12.5785
2168 7 -15.69 3.62119 12.5372
1636 6 -12.1466 0.745113 20.1491
1687 8 -10.0901 3.78177 18.646
1972 6 -10.4947 1.33703 9.14517
2394 6 -17.4296 -1.0996 13.6659
2165 7 -16.7396 5.7554 13.6268
2166 7 -16.4925 5.97229 11.8595
2957 6 -11.0956 -1.29483 17.0116
2009 6 -18.3035 2.36027 8.8941
2005 6 -18.5095 0.547663 7.23284
2181 7 -14.7952 5.55869 9.14497
1645 6 -15.7794 1.77302 20.5669
2142 7 -12.1321 -0.966531 6.8596
1969 6 -9.92799 2.65259 8.9887
2488 7 -9.87174 -0.482009 12.8373
3549 7 -17.4141 5.84746 6.3668
2481 7 -10.0344 -1.23934 10.6169
3377 6 -18.4716 6.22356 4.43953
1542 6 -10.0127 12.1417 4.50909
1711 7 -12.8988 11.8451 -6.00755
1537 6 -10.7962 11.6822 -0.697935
3381 6 -16.6688 7.56693 5.24803
3569 7 -13.61 9.60222 5.43027
1541 6 -11.2184 11.5487 4.17113
1521 6 -14.1355 10.0012 -5.94912
3352 6 -15.6029 13.0975 3.25348
1752 7 -11.2612 7.31026 -0.255028
1527 13 -10.4255 8.96421 -5.15321
1759 7 -9.98357 7.10358 2.57358
3374 15 -18.3976 10.1104 2.05656
3354 6 -16.4933 12.8273 4.25287
3351 2 -16.0037 12.944 1.88965
1520 6 -13.8786 9.50049 -4.66658
3376 6 -17.6018 8.04211 2.94335
3349 15 -17.8817 12.2416 -2.27444
1531 2 -13.1968 9.48681 -2.52217
3350 15 -14.8808 13.3262 1.10455
1522 12 -14.0621 8.2453 -4.34516
1710 7 -14.4188 12.0407 -5.5005
1501 6 -10.2771 10.6522 -7.86384
3409 4 -12.0557 7.99206 5.3788
1714 7 -14.1838 9.11722 -2.23889
3356 6 -14.3313 13.5105 3.63815
1539 6 -11.4236 11.2914 2.86573
1518 2 -15.051 9.46062 -8.3077
3380 6 -16.7175 8.38707 4.04499
1534 6 -13.0578 10.1826 -0.0514583
1530 15 -13.3796 10.2743 -3.67692
3562 9 -15.7568 9.85202 4.81699
3375 2 -17.6881 8.89822 1.69783
3379 6 -17.5089 6.50478 5.44051
1715 7 -11.0591 11.1476 -2.67904
1708 7 -15.145 7.16579 -7.40653
1532 6 -12.6002 10.2968 -1.38215
1538 11 -12.5873 10.7034 2.35306
3404 16 -15.888 9.47929 3.94303
1718 7 -11.7474 11.1594 5.02127
1540 6 -10.5717 11.8466 1.91376
1525 3 -13.8899 11.4356 -6.188
1536 6 -11.5107 11.0343 -1.67649
1754 7 -13.288 6.44477 1.16382
3568 7 -11.1879 8.4827 5.03576
3344 6 -16.7082 12.9115 -1.902
1524 6 -14.6575 7.38422 -5.20726
3548 7 -16.659 9.14819 1.27868
3367 16 -17.756 12.4347 3.8335
3368 6 -18.6218 11.8156 -1.19788
1707 7 -15.2988 10.5146 -8.37977
1533 6 -12.3339 10.7245 0.951571
1592 1 -10.817 6.29865 -0.277851
3545 7 -17.0746 10.4924 -0.211357
1080 7 -17.6622 7.22444 -6.19062
3410 4 -13.3068 8.5262 5.56605
1547 16 -14.1329 9.36993 0.234528
1519 6 -14.6122 9.10292 -6.85325
1706 7 -16.0191 8.95687 -8.3829
3342 12 -16.3441 12.8684 -0.607961
1504 20 -11.7066 9.3147 -8.06523
3370 6 -18.1625 10.9379 -0.19216
1523 6 -14.8558 7.80984 -6.56651
1724 9 -14.2567 9.12723 1.14485
3944 21 -16.7928 9.53695 -2.81589
1717 8 -12.859 9.85816 2.7825
3544 9 -17.8706 12.4809 2.83538
1535 6 -11.2123 11.5893 0.666265
1713 7 -12.528 8.63642 -2.75784
1709 7 -14.2188 11.6589 -7.13726
948 9 -17.9132 11.6067 -6.2991
3533 7 -16.2752 11.9304 1.68546
746 16 -18.2883 11.5587 -5.36242
3547 7 -18.2745 8.41292 0.942557
1499 6 -10.313 11.7233 -8.61994
3534 7 -16.8961 13.5365 1.77973
1751 7 -10.7161 6.38728 -2.46776
3917 21 -10.6228 13.3162 -4.06022
1084 9 -18.6084 7.6643 -8.60677
3378 6 -18.3959 7.02736 3.36742
1072 7 -18.7686 7.2085 -4.01175
1526 5 -9.90538 8.8575 -6.15988
1703 7 -15.7667 13.6644 -8.59033
3353 6 -16.0676 12.9049 5.54586
929 2 -18.2737 6.37612 -6.53256
3918 22 -10.9497 12.6729 -4.96836
3340 6 -15.1916 13.4353 -0.260055
1081 7 -17.6782 5.76599 -7.28388
1529 15 -15.0874 6.22199 -4.66088
1702 7 -14.3011 12.7697 -8.98118
1509 6 -13.2835 10.1345 20.0093
1831 6 -12.1079 11.6023 14.6992
957 7 -14.8387 13.4635 16.2691
1834 6 -13.5031 9.69747 15.3196
489 6 -17.7712 9.16894 9.45831
1516 3 -15.1689 13.3192 20.4417
3408 4 -13.5237 6.41946 6.02702
1835 6 -12.6809 8.23507 17.1294
2043 7 -12.3451 10.8337 11.7731
1503 6 -11.3379 11.6004 20.1678
1824 6 -10.2031 9.60548 17.1017
2180 7 -11.3616 7.38406 14.5114
1512 4 -17.3859 12.7573 19.6915
3564 7 -15.9703 7.46569 7.26022
3360 6 -14.6685 13.218 7.36788
3406 4 -14.2305 7.59754 6.02131
1832 6 -13.2334 10.7958 14.5316
1810 7 -17.25 6.88868 15.9259
488 6 -17.9905 10.3884 11.5194
2026 6 -12.9047 6.41942 11.723
647 7 -17.4967 8.26283 8.92744
1508 6 -12.0435 10.5569 20.455
2051 8 -15.558 9.55587 14.8668
1513 4 -16.0497 12.4988 19.4758
2030 6 -11.4561 6.78359 13.5961
648 7 -16.5407 8.89964 11.1974
1506 6 -11.7549 12.2837 18.9939
2042 7 -13.2388 13.0467 13.5376
3538 7 -17.253 12.5701 9.46352
2033 4 -14.0313 6.59456 10.8636
1705 7 -14.8206 8.66958 19.6164
1657 2 -18.5306 6.85939 17.6953
1856 11 -14.7089 9.0419 15.126
1842 6 -10.2575 13.4511 12.3511
1808 7 -17.8675 7.48353 18.2456
3358 11 -16.8395 12.6752 6.72837
1830 6 -11.0948 11.2363 15.523
1515 4 -17.2587 11.1451 18.1262
3785 22 -12.7611 10.2262 8.74683
1510 15 -14.935 10.6216 18.2528
1828 6 -9.92487 12.0496 15.7341
1517 2 -14.1103 8.93423 20.4094
760 6 -16.5068 13.4437 15.0448
1826 6 -10.3932 8.49551 17.929
1695 7 -13.3589 12.6385 17.6525
2044 7 -10.9851 10.4013 9.95699
1696 7 -11.2932 13.2679 18.7307
2038 7 -11.771 7.02856 18.5752
3784 22 -15.0569 9.91476 8.86867
3355 6 -14.7513 13.2592 5.96885
1857 16 -13.8105 7.46373 17.3069
3566 7 -11.4843 6.27897 6.63255
3537 8 -17.607 12.0736 6.78084
2037 7 -14.0584 11.1544 13.8616
1700 7 -17.4172 10.3355 17.4782
1507 6 -13.7413 10.9381 18.9048
1505 6 -12.9598 11.9861 18.4707
1845 6 -10.6118 11.1303 10.7671
2036 7 -9.76638 12.9675 15.2015
2178 7 -13.1355 8.08722 13.1583
2028 6 -12.5641 7.17138 12.8634
3405 2 -15.668 7.89332 6.33444
3783 21 -13.9091 10.0705 8.80772
762 14 -16.4637 12.1301 14.9984
3361 6 -16.2215 12.6586 9.16306
1511 4 -15.9589 11.4463 18.5659
646 7 -17.6413 10.4352 12.5613
3362 6 -15.3076 12.955 10.06
1720 9 -10.3136 11.8543 6.36014
490 6 -17.3959 9.41852 10.747
1829 6 -11.1735 9.96448 16.177
1840 6 -11.3361 12.5991 12.5963
3359 6 -15.9704 12.8361 7.85416
1833 6 -12.4277 9.28214 16.2257
3365 16 -15.5021 12.9233 11.4348
1844 6 -11.4199 11.4283 11.7925
3563 7 -15.7647 9.0142 6.51369
1836 6 -11.6103 7.87603 17.8835
2184 7 -14.7952 7.30989 10.83
1839 2 -12.1858 12.8933 13.8337
2050 8 -14.9339 8.2465 15.6534
1514 2 -18.3161 11.9084 18.8179
3363 6 -13.5995 13.3298 8.28374
3543 7 -11.665 12.962 7.41117
2052 9 -13.6101 6.52888 17.4324
3407 2 -12.0994 6.52015 5.7342
1658 2 -17.7894 6.17497 16.612
3364 6 -14.0419 13.2921 9.62756
2163 7 -18.4781 6.29012 10.2893
3540 9 -14.9592 13.6727 11.7787
1697 7 -17.7355 13.5015 20.3876
3539 7 -13.2578 13.615 10.3483
955 7 -18.1472 13.4289 13.7044
1704 7 -13.6331 7.98233 20.7147
2062 7 -5.57892 -20.7148 -0.766589
1886 12 -3.49114 -23.1556 3.84041
2822 7 -1.01405 -20.7422 -6.43458
104 6 -5.64667 -21.6318 -6.08048
1884 6 -2.84385 -22.3536 4.60781
2060 7 -9.73578 -19.6878 4.42841
2072 7 -4.63993 -20.9769 1.52415
3522 7 -9.33469 -19.5823 -7.14697
1876 4 -5.75529 -18.7146 -1.37452
1867 6 -7.68077 -19.8911 5.16946
3230 7 -6.57099 -17.0561 -8.102
274 7 -2.53951 -16.8813 -7.32318
1893 15 -4.69969 -23.6246 1.81651
2657 6 -0.96676 -19.7524 -5.93381
1887 6 -4.1606 -21.3854 2.4477
2064 7 -7.49794 -19.9379 1.18402
1875 4 -6.49762 -18.1673 0.704667
102 6 -4.70357 -19.6139 -6.14325
1877 4 -5.82899 -17.6794 -0.418255
1888 6 -4.17143 -22.7521 2.75293
3908 21 -1.66795 -23.1499 0.580209
2658 6 -1.54336 -19.4735 -4.61662
1882 2 -3.57751 -18.9658 2.92846
1881 2 -4.46926 -18.1644 3.86592
3073 3 -7.59737 -17.2997 -7.89059
291 7 -4.74305 -21.7918 -3.4382
1872 6 -6.51223 -19.4115 4.85209
132 4 -5.20767 -22.5695 -2.90083
1873 6 -5.89385 -18.625 3.95165
2110 7 -2.41392 -23.6944 -6.49274
273 7 -7.25385 -19.3024 -4.08129
111 6 -5.27705 -16.3766 -4.5081
271 7 -3.663 -22.2025 -7.64608
2063 7 -7.20177 -20.393 -1.47967
272 7 -3.03051 -20.6028 -8.05373
289 7 -4.21718 -22.8343 -0.877441
1885 6 -2.72546 -20.9718 4.25233
3079 6 -9.70709 -16.6218 -2.60666
2824 9 -2.15337 -21.243 -4.56253
1879 4 -6.77881 -19.4959 0.465267
107 6 -4.01976 -17.5914 -6.00677
287 7 -8.1657 -21.5295 -3.82099
1871 6 -6.88748 -18.1891 2.98848
2061 7 -5.3681 -18.5411 -2.43798
1694 9 -8.19716 -23.4155 -8.89291
2070 7 -2.59298 -18.515 2.92141
1878 2 -6.36924 -19.9292 -0.88462
288 7 -7.89233 -22.7898 -4.90166
109 6 -3.27197 -16.6687 -6.55951
98 15 -4.8097 -21.2266 -9.03468
131 2 -4.60379 -23.4229 -1.78034
105 6 -6.41195 -21.1453 -4.97926
99 2 -3.98662 -21.2079 -7.89596
3229 7 -7.90202 -18.0975 -8.60049
2059 7 -9.00303 -18.3463 2.36012
108 6 -4.97173 -17.6881 -5.13285
130 4 -6.547 -22.8948 -3.17526
103 6 -6.45261 -19.8006 -4.68116
2667 6 -1.45458 -19.1713 -0.538232
129 2 -7.36152 -22.1306 -4.264
1874 15 -6.6315 -17.4569 1.85829
100 6 -4.74759 -20.7971 -6.72512
2827 7 -2.44881 -19.005 -0.258435
128 16 -5.86414 -22.97 -6.53534
2661 16 -2.27194 -20.4694 -4.02966
1889 3 -1.83161 -20.1094 5.13798
2071 7 -3.89499 -18.9306 1.89591
3777 22 -0.954405 -22.1141 -8.0319
286 9 -5.30273 -23.1326 -7.27545
106 17 -3.77357 -18.8085 -6.84379
1722 7 -9.34362 -23.5779 0.642152
1870 6 -8.70964 -19.4849 4.19901
3231 7 -7.62391 -17.7205 -6.86641
2662 15 -1.79763 -18.0173 -2.66394
2663 6 -1.02507 -18.7325 -1.75835
101 6 -5.42759 -18.981 -5.23761
3236 7 -9.06494 -16.4847 -0.561274
3523 7 -9.41188 -20.5607 -5.70579
2073 7 -1.91076 -19.0231 4.93056
1883 6 -3.48396 -20.503 3.19855
1869 6 -8.23184 -18.6579 3.17774
2069 7 -4.57938 -17.1016 3.52913
1446 7 -1.07332 -22.524 -2.11765
2660 6 -1.39381 -18.1959 -4.01499
2068 7 -3.95236 -18.2581 4.85608
2828 7 -1.17103 -20.1827 1.29014
3909 22 -1.13133 -22.2632 1.10103
1721 7 -7.88575 -23.6609 1.75772
2109 7 -2.14222 -23.5126 -4.80985
2054 7 -6.54883 -22.2405 11.9378
3667 21 -3.93027 -17.4439 12.6022
979 7 -7.90676 -19.7423 11.7942
791 6 -9.37563 -18.8466 10.4458
2074 7 -2.01015 -20.2945 6.24705
3719 22 -6.23326 -21.3022 16.0695
2057 7 -8.99383 -22.7262 8.67778
3813 21 -3.14494 -20.9635 12.9715
797 3 -7.18891 -17.671 9.6289
299 7 -3.46332 -19.0304 20.4975
981 7 -6.88615 -17.9371 10.6106
3121 6 -6.95523 -17.3703 16.581
1860 6 -6.93133 -22.1758 8.5479
96 6 -2.51254 -22.3337 17.637
1892 16 -3.91515 -20.0243 8.56641
2055 7 -7.40871 -23.0711 13.2447
46 16 -1.72114 -22.686 10.2083
295 7 -1.53247 -20.2766 16.1615
793 6 -8.62808 -18.1441 9.53411
3669 22 -4.53548 -18.0302 11.805
792 6 -9.20911 -17.9948 8.26551
3271 7 -7.58702 -18.2331 16.4921
95 6 -3.4201 -20.6314 19.0052
3720 22 -4.4074 -20.0182 15.436
986 7 -9.90743 -17.2477 5.80186
3718 21 -5.32035 -20.6602 15.7529
1859 3 -7.52528 -22.6929 12.1814
1863 6 -7.7173 -20.5955 6.3254
3117 6 -7.01938 -16.6877 17.741
1847 6 -7.47594 -23.8902 9.92714
306 7 -1.55057 -18.2676 15.1872
1861 6 -8.73206 -21.3383 7.03487
978 7 -9.66062 -20.0739 12.2519
269 7 -4.98821 -23.5158 19.6083
3686 22 -7.49435 -20.1571 17.8978
1868 20 -5.03201 -19.9511 5.98002
304 7 -2.9739 -17.066 20.3709
976 7 -8.54553 -18.2903 13.8967
3122 6 -6.22546 -16.931 15.486
2039 10 -7.72923 -23.7531 16.3211
305 7 -3.60242 -16.6676 18.749
137 1 -2.27923 -18.3866 18.9987
296 7 -2.89073 -18.2591 17.0781
1890 5 -4.45855 -21.2732 8.29446
3192 7 -2.33679 -17.3859 6.38531
97 6 -2.60243 -20.9915 17.9998
1855 15 -6.59564 -22.9031 9.6005
789 2 -8.93518 -18.0544 12.8798
92 6 -3.46568 -23.2187 18.0704
298 7 -4.37819 -18.6003 19.1087
135 2 -1.69516 -20.0481 17.2302
3814 22 -2.25807 -20.2267 12.844
270 7 -1.84062 -22.5512 16.8138
3668 22 -3.32503 -16.8575 13.3993
1864 6 -5.88038 -21.3803 7.86084
93 6 -4.14322 -21.6177 19.6709
1846 6 -8.04572 -23.8003 11.2291
136 1 -1.91867 -18.6225 17.5491
142 2 -2.72239 -16.9637 19.2774
3032 6 -2.1048 -16.9721 7.45897
1865 6 -6.47178 -20.7784 6.77408
2076 9 -4.64032 -19.4476 8.7669
1862 6 -8.26669 -22.0996 8.16091
3685 21 -7.72042 -20.6359 18.9299
1891 13 -3.93724 -22.2138 8.82373
790 2 -8.95711 -19.2959 11.8599
94 6 -4.2783 -22.8625 19.125
3072 18 -7.96255 -17.3215 19.0435
297 7 -1.43739 -18.724 19.6192
138 2 -3.49751 -19.1897 19.4103
238 9 -1.21101 -22.0809 9.64408
802 15 -8.4229 -17.4587 7.24109
3031 6 -3.17293 -16.4462 8.15987
977 7 -8.18344 -17.4051 12.4677
3272 7 -6.3785 -17.5978 14.6262
983 7 -7.06352 -16.553 9.48634
3191 7 -4.19058 -16.4936 7.7006
3687 22 -7.94662 -21.1146 19.962
3815 22 -4.03186 -21.7003 13.0991
982 7 -6.50926 -18.296 8.86665
803 2 -9.23993 -16.6088 6.42861
2056 7 -8.11819 -21.7249 12.2952
1894 15 -2.07669 -22.9049 5.67754
3078 6 -9.8097 -15.9742 -3.79266
2999 6 -2.94232 -10.4132 -8.17127
806 6 -8.97298 -14.8387 4.55794
547 3 -2.75368 -11.3966 -2.79786
3075 6 -9.01503 -13.8489 -2.83595
992 9 -5.61471 -11.9715 -1.57138
3064 6 -8.59152 -16.1713 -7.98919
3068 6 -9.75695 -13.9883 -5.19861
3080 6 -8.79326 -14.6345 -1.67508
809 6 -6.17638 -14.8044 4.82681
810 11 -8.55863 -13.3679 2.54625
2234 6 -1.69702 -10.0248 4.25898
120 6 -6.8617 -12.707 -7.30283
536 2 -0.946227 -9.18256 -2.07852
2424 7 -1.41128 -11.0842 4.35812
994 7 -4.26536 -15.0209 3.08978
2066 7 -5.45066 -15.4446 -0.0798618
700 7 -2.35686 -14.7164 -0.915647
811 6 -7.39085 -12.9678 1.88651
3081 6 -9.19384 -15.9537 -1.51007
275 7 -6.04496 -16.1737 -3.74533
3074 6 -9.43065 -14.6096 -3.99899
988 7 -5.09694 -14.9517 4.94284
693 7 -1.12436 -9.2182 -3.21417
115 6 -5.62447 -13.2045 -5.28191
119 6 -6.11483 -13.5371 -6.53359
123 6 -7.15445 -10.3562 -9.05894
814 6 -5.84731 -12.0356 0.295485
804 6 -8.38321 -15.7475 5.45065
3175 7 -1.97588 -11.8108 -6.89854
548 3 -2.29026 -14.0276 -1.81201
991 7 -3.78564 -12.4857 0.666174
110 6 -3.60196 -15.3894 -5.9342
805 6 -8.20487 -14.0753 3.70009
3000 6 -2.15225 -11.4845 -7.91707
3226 7 -8.12081 -15.8544 -5.92921
283 7 -9.01694 -9.27458 -6.39098
813 6 -7.18591 -12.2203 0.762622
816 6 -4.76762 -12.6003 1.01326
990 7 -7.99372 -11.7901 0.183184
116 6 -6.74442 -11.1061 -5.48562
3065 6 -8.83957 -15.5723 -6.7698
2065 7 -4.1026 -16.4124 -0.643468
3067 6 -9.70577 -14.552 -6.4885
280 7 -7.21071 -13.0331 -8.30286
541 6 -1.57947 -11.6355 -1.86761
807 6 -6.74574 -14.0661 3.82578
689 7 -3.24934 -9.67669 0.133236
2231 6 -2.8972 -9.53876 4.84817
993 7 -3.06527 -14.4 2.05743
699 7 -2.83983 -12.2081 -3.49217
815 6 -4.97322 -13.3554 2.13759
697 7 -3.7173 -11.4724 -2.28839
1880 3 -5.18013 -16.3074 -0.704748
279 7 -5.82081 -14.5494 -6.94805
702 7 -3.29738 -13.5692 -1.92722
3061 6 -9.18589 -15.5511 -9.04078
118 6 -7.24862 -11.4431 -6.80648
818 3 -3.81214 -14.0947 2.73695
3235 7 -8.49938 -14.1792 -0.761748
542 6 -1.30322 -12.9127 -1.45425
3233 7 -9.01535 -11.7657 -1.99187
278 7 -5.53463 -11.6928 -3.78504
3177 7 -3.2023 -10.1613 -6.0337
812 6 -6.26532 -13.4269 2.62412
817 16 -5.63253 -11.2909 -0.8399
989 8 -9.50732 -13.2558 2.33545
2419 7 -8.84328 -11.5791 4.90953
698 7 -2.79198 -10.5876 -3.53543
3002 3 -3.42725 -9.64419 -6.94839
2422 9 -2.88968 -12.4073 5.48017
3178 7 -4.52376 -9.58946 -6.94876
3885 21 -7.10463 -9.20171 2.72384
121 6 -7.70998 -10.4021 -7.73722
808 6 -6.93784 -15.7048 5.53557
276 9 -2.26679 -14.6256 -6.98401
117 6 -5.98652 -11.976 -4.81449
112 6 -4.58436 -15.2248 -4.96153
114 15 -4.82542 -13.934 -4.47465
3077 6 -9.16117 -12.4188 -2.86044
277 7 -6.80983 -10.069 -5.13872
113 16 -2.89949 -14.3091 -6.34792
995 7 -3.33273 -13.5319 3.54194
125 6 -8.57351 -9.31474 -7.37834
701 7 -2.0179 -14.4928 -2.74888
3887 22 -6.66512 -9.88178 3.55435
2998 6 -1.59361 -12.1637 -8.99225
2227 6 -3.93674 -10.0435 5.64703
2067 7 -5.46423 -16.1008 -1.79867
3144 9 -8.93268 -9.12476 -1.7408
721 9 -1.11888 -15.598 -1.47367
691 7 -3.14794 -9.00082 -2.00549
3173 8 -2.14238 -10.0305 17.4562
3118 6 -5.50836 -15.1202 16.782
2223 3 -9.16973 -11.614 5.88355
301 7 -1.84318 -15.7295 16.8829
2995 6 -2.67651 -10.7747 19.2986
3224 7 -9.15064 -15.4436 17.3946
2418 7 -8.35403 -12.1049 6.36969
2230 16 -3.60265 -12.5098 6.04306
3220 7 -9.63184 -11.6907 18.3437
3050 2 -6.57974 -9.16301 13.897
140 1 -1.09796 -16.0993 17.5356
3125 4 -5.02508 -13.7675 17.022
3025 16 -6.43965 -14.6909 11.4842
2228 6 -6.04749 -8.94594 6.49408
3274 7 -6.96754 -14.4397 19.5727
785 4 -9.87571 -13.3164 10.1981
3217 7 -7.59964 -11.4971 14.0169
358 7 -2.62822 -11.5272 12.1689
3212 7 -9.31587 -9.3273 17.0548
3059 6 -8.91451 -15.8758 19.4684
3816 21 -2.04187 -14.0668 14.0353
3054 2 -7.36493 -11.1919 15.027
972 7 -9.57938 -13.6065 13.5176
3051 1 -9.82447 -9.77044 16.1174
2989 6 -3.7501 -8.97708 18.3581
3048 1 -8.88845 -9.13484 14.9736
3818 22 -2.28356 -13.3765 14.9357
3123 4 -5.35055 -13.5008 18.3399
3053 2 -8.36733 -11.8337 16.0821
3022 6 -5.4621 -13.8404 11.0023
787 4 -9.79557 -13.2591 12.5013
3187 7 -2.7376 -13.843 8.94944
3120 6 -5.52805 -15.7561 15.5107
3270 7 -5.1233 -15.2507 14.636
3817 22 -1.80004 -14.7571 13.135
127 16 -6.86125 -9.47793 18.6798
303 7 -2.26288 -14.9552 18.9281
2994 11 -2.97689 -10.1585 18.0552
122 6 -7.47134 -9.38165 19.9013
3209 7 -7.11994 -9.24672 15.9301
3119 6 -6.24745 -15.5857 17.8665
3188 9 -6.91373 -14.2418 12.163
3023 6 -3.53913 -13.4161 9.56689
2219 15 -7.48654 -10.5694 7.76825
2211 6 -8.6906 -9.86292 7.51967
3019 6 -4.65629 -11.7418 10.6431
3026 15 -4.28206 -15.6823 10.08
3185 7 -1.34351 -10.7772 8.34483
3024 6 -4.34208 -14.2985 10.2349
3014 6 -3.85991 -9.79812 10.1626
3049 1 -7.5002 -9.65653 14.9759
3215 7 -8.59547 -12.9175 15.7564
210 6 -1.89493 -9.94563 13.5492
3273 7 -5.24132 -12.5437 18.7335
2225 6 -4.26942 -11.3566 6.2353
2421 7 -5.79767 -12.4306 7.18621
3208 7 -9.4228 -9.40139 14.027
3018 17 -4.92326 -10.3308 10.9238
3210 7 -6.84316 -9.67635 12.9979
3180 9 -3.77331 -9.06801 16.0803
2412 7 -7.66776 -9.5298 9.87365
3214 7 -7.937 -11.9116 17.0774
3216 7 -6.31854 -11.5519 15.324
360 7 -2.79044 -9.39271 13.7373
2226 6 -5.44103 -11.3349 6.97179
2224 6 -6.32377 -10.2606 7.12484
3013 6 -3.07723 -10.6977 9.58556
973 7 -8.9548 -13.9864 8.42452
783 4 -9.75224 -14.1383 11.3687
3052 1 -9.78797 -11.2975 16.245
3124 2 -6.06746 -14.7046 19.0049
3275 7 -5.36159 -15.1672 19.6627
3029 6 -1.87443 -16.3235 10.1774
3060 6 -9.36375 -15.0898 18.436
3276 7 -4.46634 -13.1464 16.2834
3021 6 -5.59161 -12.3982 11.2587
3211 7 -5.50137 -9.49105 14.0884
208 6 -1.8271 -10.9714 12.6127
281 7 -6.57811 -11.2262 20.4522
2996 6 -3.27669 -10.0785 20.3842
2991 6 -3.84286 -8.9225 19.7449
3020 6 -3.68411 -12.0024 9.79321
3015 6 -2.03874 -10.1455 8.83953
3186 7 -6.36056 -11.9317 11.8663
141 2 -1.72429 -15.9178 18.8809
2997 6 -1.84495 -11.799 19.5741
3190 7 -1.81575 -16.158 11.2405
2229 6 -4.82569 -9.12447 5.83705
2210 6 -9.44419 -10.3246 6.49272
782 15 -9.57255 -15.4818 11.4374
3174 7 -1.2168 -12.1858 18.8196
3027 6 -3.11349 -16.1009 9.50922
971 7 -9.08437 -11.3235 12.4783
987 7 -6.45592 -16.3226 6.29654
2921 6 -8.41038 -6.53269 -4.57844
529 6 -5.80675 -4.38645 1.70362
3932 22 -3.96585 -4.41419 -2.38909
532 6 -5.63679 -6.49608 0.621578
2141 7 -8.24189 -2.87706 3.40625
2403 10 -9.78804 -7.58156 2.12683
2930 16 -4.95741 -4.69285 -7.45706
2922 6 -9.43593 -5.93827 -5.42846
1621 6 -2.37955 -1.76361 -4.13309
2949 16 -8.0955 -8.66026 -1.59595
1619 6 -3.60078 -1.7238 -4.78493
3126 7 -3.29862 -5.83298 -5.82921
1624 6 -3.59503 -2.04852 -6.15718
2925 6 -8.78394 -7.19128 -3.42894
2929 19 -7.5221 -4.21856 -8.41496
2235 6 -1.1223 -7.78873 3.3646
2249 6 -2.02175 -2.78749 5.31984
678 7 -1.55129 -5.09916 -0.970464
1985 6 -8.67672 -2.24599 4.16356
1780 7 -4.58383 -1.53637 -8.03053
526 6 -3.66835 -5.16861 0.835215
2915 6 -5.32904 -5.40568 -6.34887
3132 9 -4.02932 -4.5621 -7.33723
2916 6 -7.09492 -6.35082 -4.9706
2919 6 -7.77496 -5.06335 -6.8855
3127 7 -3.98459 -7.28838 -3.84476
1773 7 -8.33817 -3.23861 -1.80019
2251 6 -4.19058 -3.53 5.54848
2897 7 -1.79871 -5.2556 -8.24691
2920 6 -9.08093 -5.22163 -6.53257
685 7 -6.85792 -4.59293 2.0011
528 6 -5.11021 -3.22687 2.07953
284 7 -9.30445 -7.38978 -7.96443
1983 6 -9.6271 -2.58098 5.12348
126 6 -8.76361 -8.28714 -8.26016
2918 6 -6.12115 -6.99278 -4.24263
2248 6 -2.56372 -1.48961 5.45626
534 2 -2.65155 -8.64272 -0.0285695
2927 6 -7.80786 -7.86891 -2.6896
687 7 -6.67487 -6.69327 0.811286
519 6 -1.78948 -3.53108 0.646798
2914 6 -6.75063 -5.59507 -6.1123
2928 6 -6.5389 -7.64369 -3.07937
2433 7 -2.03281 -5.28529 3.25708
531 6 -3.53055 -7.5225 0.349101
3931 22 -6.26074 -4.07481 -2.41938
527 6 -5.07498 -5.30445 0.921306
1639 3 -9.39448 -1.40295 -4.54972
2440 9 -7.78712 -8.05573 5.03485
2256 16 -7.62759 -7.29157 5.54854
1770 7 -6.81888 -2.04766 -2.69185
1786 7 -8.69637 -1.89258 -6.67556
2245 2 -2.71596 -5.83373 3.9208
3886 22 -7.54428 -8.52153 1.89329
3172 7 -4.68811 -7.90489 -8.33786
688 7 -5.35798 -8.56422 0.139529
2917 6 -4.76785 -6.86265 -4.55213
533 6 -4.91593 -7.56138 0.300195
1625 6 -4.59152 -1.52919 -6.90218
2913 6 -4.36538 -6.01005 -5.61055
530 6 -2.94636 -6.32726 0.535468
2432 7 -3.71839 -5.7677 3.55935
2237 6 -2.33516 -7.27836 3.93555
2747 2 -1.21299 -5.31573 -9.16876
686 7 -1.78419 -6.30167 0.515298
684 7 -5.69975 -2.47581 2.63514
1617 3 -8.63041 -2.51133 -1.03508
3930 21 -5.11328 -4.24446 -2.40422
1774 7 -8.63169 -3.04252 -0.141334
520 6 -3.04335 -3.87849 1.04241
2143 7 -9.66678 -4.56352 4.39711
1779 7 -2.75235 -2.55979 -6.60137
521 6 -3.76262 -2.92906 1.77678
692 7 -2.35538 -7.50117 -1.88991
2236 6 -3.10136 -8.24587 4.54352
690 7 -1.71758 -8.63627 0.64927
1777 7 -1.64207 -2.3694 -4.66805
1775 7 -9.63512 -2.21269 -1.28478
517 6 -1.04964 -4.30907 -0.39301
2232 20 -4.58732 -7.41148 5.17893
523 6 -3.15639 -1.69743 2.05363
3130 7 -5.73733 -8.00671 -2.40163
2247 6 -2.84815 -3.84143 5.37534
2436 7 -4.84165 -4.48522 5.52123
3131 10 -8.56309 -3.74665 -8.993
1789 7 -9.08991 -2.4453 -4.66358
518 6 -1.12498 -2.32373 1.06178
535 2 -2.25203 -8.54479 -1.48343
2246 2 -2.42797 -5.24495 5.34291
3179 7 -3.03613 -8.59444 -6.98659
522 6 -1.90687 -1.42192 1.73757
2900 7 -2.17201 -2.92067 -8.81571
2434 7 -1.3492 -5.32235 5.46755
2252 6 -4.68012 -2.2681 5.65031
2985 15 -6.77846 -3.42553 13.5597
3738 22 -2.21504 -2.37656 15.6998
3167 7 -6.04416 -2.41885 19.5617
2489 7 -9.19858 -2.0625 13.4535
3007 6 -6.66781 -7.67777 13.7278
3181 7 -5.02912 -5.07918 12.2428
2454 7 -7.75795 -3.35432 7.00766
3016 6 -2.85062 -7.92972 9.41652
3165 7 -4.31281 -2.66299 19.0093
2979 6 -6.43881 -1.66637 15.228
2901 7 -2.09353 -2.15055 19.4709
3739 22 -2.79042 -4.39293 16.6924
3171 7 -5.60993 -6.08598 19.9681
2215 1 -9.35045 -6.46317 10.0941
2990 6 -4.32198 -8.02984 17.5557
359 7 -0.895862 -8.80187 15.0476
2321 1 -9.34863 -1.82465 11.2551
2257 15 -6.0745 -1.99464 5.66446
3005 6 -5.64641 -6.95391 13.0639
2479 7 -8.95084 -4.20977 8.8318
3003 16 -4.20604 -8.21927 16.2122
2993 6 -4.45912 -7.80971 20.4249
3008 6 -7.78293 -5.57987 14.206
3040 16 -2.70107 -6.54188 9.36184
2255 13 -6.6412 -6.92825 7.39659
2216 6 -8.86515 -7.80443 10.5348
2276 6 -6.4953 -1.70511 6.94894
200 1 -2.045 -3.44496 11.5308
199 2 -1.35471 -4.1322 12.7729
3169 7 -4.8444 -5.6545 16.4381
3009 6 -7.78972 -6.98158 14.1967
2987 2 -5.50461 -5.86454 17.2319
352 7 -1.61846 -2.53215 9.63199
2977 6 -5.77788 -2.30875 17.3759
2748 1 -1.76529 -4.39749 19.5946
3183 7 -5.94933 -8.14536 11.0487
3004 6 -6.76913 -4.81866 13.5416
282 7 -8.25489 -7.34262 19.6855
2904 9 -3.31776 -5.41875 20.0052
2981 3 -5.31599 -2.14168 18.7855
124 6 -8.20672 -8.29739 20.304
3012 6 -3.90998 -8.49877 10.2459
2751 16 -3.06779 -4.71984 19.3481
3017 6 -2.04225 -8.79557 8.71784
3011 2 -4.93511 -7.73194 11.0587
2978 12 -6.14904 -3.96657 15.7041
351 7 -2.85507 -4.1372 11.1308
2217 2 -8.09236 -8.60698 9.50791
2986 15 -5.66545 -4.65401 17.9465
3010 15 -4.6141 -7.65399 12.4867
3170 7 -6.44928 -6.12163 16.7816
3786 21 -5.2106 -4.27132 9.09437
2490 7 -9.37794 -5.89866 12.066
3788 22 -4.39127 -3.89412 9.82365
2480 7 -8.2604 -3.65304 11.0238
3787 22 -6.02995 -4.64865 8.36507
3006 6 -5.79563 -5.59767 12.876
2320 1 -9.2257 -3.22499 10.744
3737 21 -2.50281 -3.38471 16.1961
3182 7 -8.67507 -4.95797 14.5219
2988 6 -4.92574 -6.92932 18.1302
2281 6 -8.03444 -2.2212 8.7693
2280 6 -7.4856 -2.45927 7.53767
2749 2 -1.63708 -2.8831 20.0842
2980 6 -6.49059 -2.98945 14.8646
2319 2 -9.17907 -3.1818 9.22692
3041 2 -0.927473 -8.16165 7.88676
2326 2 -9.81715 -1.6109 12.6914
3184 7 -4.95302 -6.66749 10.7199
2435 7 -2.95422 -5.73713 6.21835
356 9 -2.40861 -1.49966 11.5377
2992 6 -4.98741 -6.88412 19.531
2254 5 -6.79804 -7.67109 6.5245
2898 7 -1.18631 -6.36525 20.3589
3200 7 -1.37468 -7.33698 7.3082
285 9 -6.63416 -8.59481 18.3495
2218 14 -9.24309 -8.28901 11.692
2976 6 -5.87525 -3.67539 16.9683
350 7 -1.55103 -5.22021 12.672
2413 7 -7.23783 -8.02267 9.21283
349 7 -1.88714 -3.64732 13.5507
2411 7 -8.48744 -5.8173 9.83387
3206 7 -8.50122 -7.29992 16.0529
3047 2 -8.84959 -7.63836 15.066
3198 9 -2.44959 -6.31441 8.43693
203 16 -2.70705 -2.30983 11.9925
2482 7 -7.18383 -1.44288 11.5528
2899 7 -1.13764 -4.56173 18.7109
201 2 -1.06838 -3.19527 10.3706
2213 6 -8.98304 -8.79423 8.3124
1782 7 -6.15203 0.839027 -7.7763
2100 7 -2.60278 1.62847 -5.53132
1596 1 -8.7918 5.77657 1.27554
1940 6 -1.58851 1.46891 -5.135
1784 7 -8.31978 0.95446 -7.79384
1605 6 -7.75799 -0.297516 -0.0372621
1627 2 -8.02908 0.192656 -7.09877
1766 7 -8.85941 3.4608 2.84717
3767 22 -4.93905 3.75368 -1.89579
1466 6 -8.59052 3.89639 -6.73946
1758 7 -9.43935 5.64015 3.29323
1623 6 -5.60156 -0.722286 -6.34997
680 7 -3.73808 -0.90087 2.70869
1677 7 -5.48195 3.86698 -8.23979
1611 6 -5.66501 -0.455497 -2.01369
1927 6 -2.00693 5.84331 -1.01774
2262 6 -2.37784 3.19468 4.63898
1768 7 -9.76397 1.49285 2.06321
1612 6 -4.57626 -0.596398 -2.88792
1765 7 -7.40496 4.53942 0.295833
1626 2 -6.52134 -0.198311 -7.4881
2140 7 -7.5644 -0.754774 3.1149
1764 7 -8.96327 3.68241 0.34711
2261 6 -1.54815 4.32356 4.30861
2096 9 -1.22378 3.34615 1.60175
1628 2 -9.01176 -1.01953 -7.30382
1622 6 -5.7017 -0.558055 -4.98908
1610 6 -5.5394 0.29281 -0.830157
1672 7 -7.31849 3.05032 -5.19276
3768 22 -5.26082 4.80246 0.148361
1615 6 -3.11988 0.170419 -1.0231
3766 21 -5.0998 4.27807 -0.873706
2260 6 -1.74033 1.98029 4.82949
2101 7 -2.54645 1.02483 -7.70116
1771 7 -4.0509 0.769785 0.716525
1614 6 -4.22802 0.489405 -0.276032
1613 6 -3.24517 -0.402106 -2.35214
1148 4 -1.17653 4.22625 -9.00636
1675 10 -7.74012 2.09782 -2.8484
2442 7 -3.48028 0.737522 4.78102
1772 7 -2.17526 0.178514 -0.441537
1778 7 -6.48307 0.0944926 -4.49931
1607 6 -6.63834 0.610218 0.00630578
1979 6 -7.8058 1.10754 4.95593
1334 7 -2.93585 3.39596 -8.05826
1600 2 -8.24369 4.29389 0.976877
1984 6 -8.30658 -0.925547 3.83964
679 7 -1.5635 -0.481023 2.12126
1943 6 -1.55798 0.743 -8.12375
1606 6 -6.68522 1.69984 0.927872
2266 11 -2.01483 5.59083 3.91209
1769 7 -5.81644 2.36348 1.00444
1929 6 -1.93349 5.07336 0.10435
1783 7 -8.01375 0.644496 -6.07434
2094 7 -2.33624 5.39551 1.09721
1680 7 -5.39879 5.69317 -3.08047
1150 2 -2.40421 4.36994 -8.21017
2123 7 -6.43169 5.04647 5.48041
2275 16 -3.71037 3.30105 4.52717
2250 12 -3.79152 -1.22057 5.59562
1678 7 -5.88131 2.95324 -6.7483
1928 6 -1.60217 5.75283 -2.27781
1476 6 -5.81169 5.19229 -6.38611
2259 2 -2.47246 0.778033 5.33878
1603 6 -8.80076 -0.0124623 0.853706
1463 6 -9.40333 3.0324 -4.63996
1618 6 -4.68381 -1.0608 -4.14634
1977 6 -8.62149 0.00185155 4.82896
1604 6 -8.85208 1.2236 1.52041
1679 7 -5.17509 3.92109 -4.7618
1939 6 -1.45032 2.00903 -3.90443
1602 6 -7.84509 2.12332 1.50982
1475 2 -6.09769 3.94274 -7.29813
1467 6 -7.53865 4.05809 -7.65824
1767 7 -7.10478 3.73754 2.75163
1781 7 -6.50993 -0.958037 -8.29386
2136 7 -6.94942 1.22839 4.20024
1464 6 -8.37395 3.40542 -5.44676
2099 7 -2.32502 2.45026 -3.41773
1480 6 -5.47584 4.96668 -5.08624
1601 2 -7.95319 3.39717 2.1906
1609 6 -6.79395 -1.27424 -1.97531
1336 7 -2.23434 5.13334 -6.01859
1473 19 -9.12123 2.23605 -3.11653
1151 4 -1.72706 4.91441 -6.94228
2452 9 -4.02955 2.42054 4.42095
2445 8 -2.85271 5.55244 3.31803
1335 7 -3.18192 5.02761 -8.63704
1756 7 -8.93415 5.43545 -0.779833
1468 6 -7.78931 4.08614 -8.97785
2258 15 -1.78687 -0.397281 5.11809
1608 6 -7.68502 -1.33424 -0.954534
1776 7 -1.3003 -1.36189 -2.37565
1930 6 -1.23639 3.83135 -0.19111
1933 16 -0.958631 2.94497 0.779963
1597 2 -9.84228 5.99248 2.36609
1790 7 -8.48108 -0.885439 -4.75734
1620 6 -2.19129 -1.16982 -2.95701
1961 2 -5.98856 6.08249 5.45744
2124 7 -4.97341 5.63465 3.57004
1481 6 -5.59336 5.90832 -4.14149
1791 7 -9.67488 -1.17751 -3.54776
1785 7 -9.17304 -1.40144 -8.30029
2453 7 -5.30573 0.0917625 7.32605
2283 2 -4.65672 0.802375 9.9857
2967 4 -6.91835 4.06473 15.6791
2441 7 -2.74632 0.915052 6.42518
1379 7 -1.17365 5.15168 12.8367
2294 6 -2.64804 1.0908 15.6916
2972 3 -7.44009 2.82835 13.2846
3160 7 -7.32989 -0.202038 18.5394
1470 6 -9.07118 4.04999 20.3663
2470 9 -4.6385 2.38874 8.11983
3158 7 -6.8088 1.9585 13.3161
2296 6 -2.59838 2.49395 15.9732
1492 11 -9.19967 4.11651 18.9744
2312 16 -4.53955 3.33046 8.40077
2475 7 -2.31825 4.44775 7.44983
2128 7 -6.75782 5.5943 7.71946
2277 6 -6.48945 -0.471035 9.05628
3157 7 -8.48699 2.49379 13.5376
2966 15 -7.27586 3.12431 16.651
2455 7 -4.29465 -0.0362353 10.6193
2292 6 -3.313 2.98241 13.6946
2133 7 -8.67086 4.62183 6.51797
2458 7 -3.18803 -0.424242 14.0827
2286 6 -3.95126 2.36433 11.7294
2463 7 -4.37489 4.10514 18.1291
3153 7 -6.81939 5.3524 12.7229
3159 7 -7.50448 3.20011 12.2405
2456 7 -4.17392 0.555436 9.04843
2299 6 -2.30202 4.17804 17.4487
2965 6 -8.31566 1.03372 17.0941
2289 6 -3.96567 4.58139 10.3201
3164 7 -6.63185 -0.858383 14.5284
2304 6 -3.53752 6.08436 18.2649
2460 9 -2.1453 0.455292 17.4617
2282 15 -6.03043 0.614565 9.83546
3161 7 -6.73361 1.37351 18.4776
1947 16 -2.43878 1.17029 19.6216
1971 6 -9.39813 2.92977 7.74129
1974 6 -9.092 1.86419 6.84153
1673 7 -6.92453 3.86859 20.171
2295 6 -2.94236 3.45892 14.9895
1970 6 -9.03334 4.29915 7.49416
2457 7 -3.34946 5.53485 12.0683
2969 4 -7.0126 3.94399 14.2772
2960 20 -9.30695 -1.28587 17.6487
2135 7 -7.57617 3.05706 6.00739
3162 7 -4.99362 0.516225 17.3406
2471 7 -4.36941 5.67677 8.54098
2285 6 -3.68284 3.44011 12.4176
2314 4 -2.45536 6.02819 9.00483
2293 6 -3.15533 0.628377 14.4445
2288 6 -4.24312 3.35418 9.68889
2971 4 -6.39563 5.32108 15.9969
3151 7 -9.54593 3.77065 15.3619
2287 6 -3.77925 4.63433 11.6356
2483 7 -8.15759 -0.0240808 11.2885
1978 6 -8.08244 2.10475 5.83493
2291 6 -3.32922 1.66816 13.6632
3156 7 -6.24493 5.69723 17.0724
1966 6 -9.07145 5.23315 8.47702
2298 15 -2.21725 2.80558 17.2305
3163 7 -6.01563 0.751134 15.9321
2973 2 -7.11591 0.590682 17.8459
3900 21 -0.941866 0.962659 8.51851
2961 6 -9.52316 2.75262 15.8277
2301 6 -1.19452 4.97068 17.2656
2303 6 -3.5463 4.75969 17.9064
2963 6 -8.36088 2.34521 16.4735
2284 6 -4.26132 2.10375 10.4493
2322 2 -8.045 -1.09 10.962
2974 2 -5.94532 0.223104 16.8709
1333 7 -1.0729 4.04747 19.7378
3902 22 -1.58394 1.78808 8.01647
2297 16 -2.31147 0.10424 16.6275
1942 6 -1.32451 0.93758 20.4325
2316 4 -1.85149 5.23384 7.99892
1968 6 -9.47309 4.94635 9.71781
2290 17 -3.79418 1.13091 12.3767
2968 4 -6.62346 5.18305 13.7564
2964 6 -9.55366 0.410051 16.8304
2459 7 -2.94634 4.5874 15.1322
3166 7 -5.04223 -1.11548 18.8936
2313 2 -3.91303 5.76946 9.49754
1686 8 -8.50907 3.61631 18.4019
2278 6 -5.98827 -0.664302 7.77111
2105 9 -3.29045 0.768927 19.8774
1976 6 -9.53969 -0.267866 5.91108
2132 7 -9.57299 5.80084 10.4882
1975 6 -9.75319 0.633291 6.90325
2279 6 -7.53066 -1.22888 9.55919
2975 6 -6.07758 -1.30861 16.5245
2122 7 -4.99023 6.00771 6.00731
1681 7 -6.30394 7.72823 -1.31438
1950 4 -2.3756 10.9135 -5.51423
1723 7 -8.05748 12.569 0.597899
1487 1 -8.30273 8.17214 -1.7332
1716 7 -9.88398 12.2189 -0.919519
1949 2 -3.02245 9.55135 -5.49072
2119 7 -4.06714 7.73807 2.09346
1486 2 -6.97471 7.48319 -2.14434
2106 9 -4.74135 10.7474 -2.45945
1921 6 -2.11909 6.9482 -2.86794
1498 6 -8.30169 12.1679 -7.43373
2093 7 -1.62731 7.30089 -4.95234
1528 16 -9.65881 7.60492 -6.67799
1496 6 -8.41563 11.0319 -6.64205
1437 7 -1.69513 12.3628 -1.36659
1952 4 -3.0687 12.134 -5.35228
1956 1 -6.15342 8.89279 4.62003
1925 6 -2.88958 8.80732 -4.14569
2090 7 -5.23198 12.7496 4.08982
2446 7 -1.66463 8.08681 2.52557
1918 15 -3.2179 9.76211 0.321056
1922 6 -2.74398 7.57873 -1.90977
1488 6 -7.96291 9.62463 -1.79623
290 7 -3.73314 13.5247 -2.04455
2115 7 -6.03031 10.9684 5.31114
1712 9 -8.96682 7.75279 -7.3137
1489 2 -7.69435 10.2283 -3.07166
2116 7 -7.0438 8.97525 4.04571
1926 17 -2.76742 6.989 -0.613441
1691 7 -7.19775 9.37241 -8.25909
1546 3 -8.62431 13.3268 1.22468
1599 2 -8.66795 7.63509 -0.32753
1954 4 -1.00019 11.2099 -5.77473
2125 7 -6.57162 6.47309 3.41629
1955 2 -5.36949 10.26 4.78658
2091 7 -4.64194 8.34899 0.0984197
2117 7 -4.2624 8.15027 4.5427
1689 9 -6.33915 7.62105 -8.30448
1962 2 -5.6601 6.47071 4.01716
2118 7 -5.75156 8.23641 1.81392
2077 7 -1.31811 13.2951 4.37441
1477 6 -6.17786 7.50148 -5.95933
1915 6 -4.56868 9.86694 2.4572
3828 22 -1.49421 9.17981 5.39822
1924 6 -3.62259 9.33423 -3.02502
1763 7 -7.71659 7.68126 0.205567
1595 1 -9.27489 6.24417 -0.125551
1491 15 -7.45708 10.8624 -5.6287
1495 3 -6.3097 9.47274 -7.60378
1482 6 -6.51961 8.83363 -6.26854
1762 7 -9.33245 8.36229 0.17021
2108 7 -4.04678 9.86131 -5.60105
1683 7 -9.13817 8.04973 -2.36269
1948 16 -4.28581 10.5004 -3.2533
2089 7 -3.46174 12.1914 0.169296
1483 6 -6.9867 9.63495 -5.27303
1497 6 -9.18171 12.5513 -8.43942
292 7 -5.89318 12.4428 -0.703263
1544 6 -9.21453 12.7394 3.5379
1494 16 -6.20112 6.67278 -8.25815
1690 7 -6.10239 10.5723 -7.48685
1913 6 -3.95147 10.4341 1.30149
1916 6 -4.88173 12.1075 3.26766
1919 2 -4.21831 9.16292 -0.495488
1920 6 -3.5529 8.66629 -1.76481
1484 6 -6.69414 7.95578 -3.52959
1685 7 -8.66987 10.6288 -3.43346
2466 7 -2.40156 11.1558 -8.54708
1693 7 -7.46802 12.8645 -7.20877
134 4 -6.89306 13.6695 -2.20104
1490 14 -7.77257 10.3099 -0.701358
1478 6 -6.0209 6.47326 -6.92179
1895 2 -1.75128 13.2894 5.40015
1479 6 -6.0605 7.17993 -4.55585
2092 7 -4.93828 9.95301 -0.610434
1692 7 -5.35013 8.99836 -7.86645
1958 2 -4.80438 8.37343 2.49477
1543 6 -9.47945 12.5919 2.21563
2107 7 -2.76086 8.96862 -6.41837
1957 1 -5.10286 7.94336 3.9198
1917 6 -4.86675 10.7519 3.47359
1684 7 -7.07251 11.1406 -2.88708
1485 6 -7.06623 9.17758 -3.95726
1912 6 -4.53123 12.6505 2.02791
1914 6 -3.95082 11.8046 1.05319
1951 2 -2.1825 13.3374 -5.59706
2111 7 -4.12806 12.201 -5.30975
2114 7 -4.5224 10.0541 5.48623
1923 6 -2.21036 7.66083 -4.08136
1682 7 -7.12903 6.40809 -2.21249
133 4 -5.79309 13.2835 -1.47534
1500 6 -9.57379 10.1056 -6.85403
1440 7 -0.968156 10.2012 -1.19577
2308 6 -2.36431 10.2418 -9.14194
2310 6 -1.21194 9.41913 -9.20393
1719 7 -8.35421 13.4098 3.81942
293 7 -7.86834 13.3717 -1.95634
3910 22 -2.20461 13.5324 0.0593908
2078 7 -2.61548 12.6428 5.2251
1502 16 -8.88178 13.5674 -9.26878
1757 7 -7.84606 6.34321 1.54067
2121 7 -7.93095 6.89066 5.62497
2302 6 -2.33405 6.86224 18.2566
2040 9 -6.59515 10.6255 16.8634
3154 7 -6.66402 7.15331 14.8082
1960 1 -6.97767 7.01533 6.1428
2127 7 -8.56812 8.90431 6.60708
1838 16 -6.68013 10.2317 17.7035
2046 7 -9.37675 9.68781 9.07389
2311 16 -4.61163 10.704 19.9708
61 2 -1.72593 8.99092 13.887
243 7 -8.44356 7.19989 12.3568
2472 7 -4.28236 6.69868 9.97919
239 7 -5.05341 10.8068 11.148
2129 7 -6.41487 7.11696 8.18858
1964 2 -7.16716 6.60204 7.58363
1841 6 -9.22996 13.0583 11.4669
2130 7 -9.36607 6.93874 7.26711
2464 7 -4.38872 6.55487 18.7556
249 7 -2.02502 8.04764 13.3504
55 4 -5.66286 8.88745 12.5722
1827 6 -8.98552 11.6613 16.6287
2469 9 -4.45835 11.5575 20.317
2048 7 -7.49234 12.5012 6.90409
2465 7 -4.13066 8.86848 18.2192
2045 7 -9.52766 10.5873 7.65251
1851 1 -7.46521 9.95173 8.03337
49 6 -4.08725 10.9512 11.5889
73 15 -3.69817 13.2029 17.4118
2300 6 -1.16333 6.26753 17.6299
67 6 -2.8785 11.1789 16.4608
3155 7 -5.01015 6.2819 14.6627
1963 2 -7.66434 9.49301 6.588
62 2 -2.28311 8.96423 15.3693
251 7 -3.29828 8.56974 15.3434
68 6 -2.69504 12.2866 17.2554
246 7 -5.66193 11.6812 13.6022
2049 7 -6.10394 13.1065 7.77057
1837 19 -7.66206 12.7377 16.9782
60 3 -6.38498 10.9976 13.9219
1843 6 -9.46028 11.9803 10.5291
245 7 -7.30041 11.6236 13.8366
2126 7 -7.88242 10.3619 5.93014
63 6 -1.94485 10.24 16.1877
53 6 -2.26607 10.138 13.1092
2035 7 -9.54099 7.14118 19.4013
240 7 -3.71329 12.8097 10.5538
51 6 -3.59321 9.9673 12.4808
242 7 -8.19302 7.96386 10.8065
2477 7 -1.58179 7.60931 10.2638
2309 6 -1.21431 8.25955 19.9263
59 4 -6.35422 7.85477 11.8825
1823 6 -7.92351 9.83781 17.9009
1852 6 -6.45163 10.9889 8.11057
250 7 -1.73214 8.13851 15.825
1821 6 -8.11166 8.73425 18.7509
56 4 -7.83693 9.37035 12.6632
1822 6 -9.04654 10.4126 17.3022
2047 7 -7.08898 9.06817 8.68573
66 12 -1.49153 12.3908 17.9361
54 15 -4.29696 8.83232 12.8164
52 6 -1.73014 11.3497 12.8061
2120 7 -5.65674 8.67609 6.70235
1965 2 -8.66048 6.60378 8.08238
1848 6 -8.75051 11.7179 9.38093
2305 6 -2.25464 7.9797 19.1117
244 7 -5.90917 7.0342 11.3971
1545 16 -9.61068 12.1794 5.80612
58 2 -7.85426 7.99919 11.9035
2307 6 -3.39091 8.94636 19.0444
252 7 -3.86825 10.9323 16.0246
1959 1 -6.57022 8.49898 6.04175
1900 6 -1.1227 11.7865 7.45764
1854 14 -5.18735 10.6865 8.43326
1853 2 -6.90903 12.4446 7.81846
1850 2 -8.88147 10.4889 8.54162
1849 6 -7.75064 12.6152 9.06211
2034 7 -7.2873 8.2499 19.3157
2131 7 -8.79188 7.19137 8.99666
241 7 -8.7334 9.90347 13.1124
43 6 -1.09908 13.2647 11.9477
57 4 -6.57107 9.87862 13.0121
2079 7 -2.10497 11.3662 7.32485
247 7 -6.23372 10.8235 14.9397
2318 4 -1.44535 6.87975 9.42743
47 6 -2.12462 12.3172 12.007
50 6 -3.39036 12.1161 11.2889
2306 6 -3.43946 9.96558 19.9234
1825 6 -9.32769 8.08267 18.802
2970 2 -6.12742 6.1674 14.7913
1294 2 0.00495562 -22.8428 -2.21484
3637 7 2.51719 -18.2563 2.40729
1448 9 3.24555 -22.9869 -5.19454
3488 2 4.49595 -17.9583 3.77366
2659 6 -0.768625 -17.1069 -4.60973
2686 2 5.03202 -19.09 -8.64911
2832 7 1.56435 -21.7819 4.14694
2666 6 0.779988 -19.8194 0.206488
3489 4 4.23989 -17.3487 1.42575
88 6 7.3472 -22.6538 -7.2175
87 6 6.66217 -22.9865 -8.3779
1292 1 2.25197 -22.6235 -3.50977
2664 6 1.20244 -19.2079 -0.994434
3194 7 2.66606 -20.0297 5.39744
3776 21 -0.512028 -21.8217 -9.06363
3483 6 5.80551 -17.5148 3.18407
2906 7 5.80898 -21.0059 -3.44721
2671 6 2.97247 -20.7618 0.815873
3634 7 6.54358 -16.4628 0.0337652
3640 7 3.84369 -17.2821 0.347659
2759 4 5.06814 -17.0935 -4.41137
2833 9 5.53046 -22.0942 2.02522
2829 7 3.54229 -20.3809 -0.0740938
3639 7 4.23155 -17.2539 4.56087
2650 6 0.773081 -17.7879 -7.82472
3195 7 -0.181843 -16.9134 5.30264
1293 2 0.76419 -22.2262 -3.42907
2656 6 -0.20856 -17.345 -5.94967
3638 7 4.48069 -18.979 4.20089
2852 7 6.5883 -19.785 -6.6418
2756 6 6.52138 -20.2646 -3.14055
2758 6 7.64568 -20.4121 -2.41957
1295 16 2.79138 -22.2332 -4.80901
2685 1 6.57567 -19.0939 -8.60642
1445 7 0.807279 -21.0656 -3.44633
89 16 7.74786 -22.6149 -4.94191
1447 7 0.483811 -22.4564 -1.25382
2672 6 3.32011 -21.8487 2.91841
3484 6 6.68929 -16.688 1.08441
3196 7 1.26941 -18.3943 4.24766
3487 4 3.59945 -17.9045 2.53533
2846 7 4.65388 -18.1711 -8.33929
264 9 7.33866 -22.8217 -4.13021
2845 7 6.86801 -20.0988 -8.92007
2648 6 1.53278 -17.8573 -8.9478
2912 7 4.23943 -19.1773 -4.54752
2649 6 0.630181 -16.8581 -6.9194
2669 6 1.60101 -20.498 1.10329
2826 7 0.882413 -18.6766 -2.89334
3038 6 1.14808 -18.5039 5.28169
2825 7 2.27863 -19.2574 -1.27762
2668 6 -0.626772 -19.7595 0.400586
86 6 7.01265 -23.0592 -5.98463
2853 7 6.69725 -17.9866 -6.83025
1063 7 7.53739 -23.7793 2.47024
1443 7 2.82075 -22.0411 -2.66173
84 6 5.42627 -23.6974 -8.14701
2754 6 6.14659 -18.9268 -3.55793
2075 7 -0.776834 -20.4331 5.0405
2670 6 3.83737 -21.394 1.6971
1444 7 0.172614 -22.539 -4.32005
3436 18 7.29919 -18.2032 5.3489
2673 6 1.19129 -20.9359 2.32064
2674 6 2.00025 -21.56 3.19324
2755 6 6.97741 -17.8371 -3.39657
2690 2 7.07427 -18.9551 -7.22686
2665 6 0.352883 -18.8685 -1.97226
2908 7 7.94278 -21.3374 -2.00695
2654 17 0.189083 -18.9713 -7.59461
2761 4 4.95316 -18.4833 -4.23197
2831 7 0.203184 -20.6975 2.68757
2652 6 2.29234 -16.6888 -9.12965
2675 16 5.15256 -21.5803 1.36846
2847 7 4.62995 -19.7207 -7.83094
2830 7 3.82942 -22.4599 3.66218
3481 6 7.03061 -17.7766 3.67552
2909 7 4.30602 -16.428 -4.82283
3482 6 5.61175 -17.0544 1.88569
2760 2 6.40981 -16.5455 -3.92175
2655 6 -0.406932 -18.5774 -6.3455
1064 7 7.1233 -23.8378 -0.612295
3486 6 7.97186 -16.8934 1.61811
1066 7 7.79927 -23.0997 0.767618
2088 9 0.222482 -22.8704 5.32562
222 7 5.13409 -17.1074 8.02652
260 7 4.78905 -23.1785 18.8899
20 6 4.27844 -17.0546 9.98442
3193 7 0.630792 -18.8999 9.14228
2642 6 3.28573 -20.6577 18.2167
237 7 0.556067 -21.5897 10.738
1911 16 0.845131 -22.9818 6.08061
235 7 3.71947 -22.5061 10.763
227 7 1.37398 -17.5587 15.3054
892 6 7.52683 -21.4705 7.62791
267 7 7.37126 -21.8079 19.7757
143 2 -0.722457 -17.6248 15.6058
2818 7 6.15109 -19.7574 16.6876
2799 7 7.01376 -21.8008 11.3548
233 9 5.48296 -18.711 8.81282
40 6 1.30802 -22.9156 12.3208
3039 16 2.32664 -20.6035 7.96484
2613 6 6.50512 -19.6569 13.0924
32 6 0.717999 -19.6036 15.2299
3593 7 7.79969 -16.5286 7.23249
90 3 7.31649 -22.8673 20.188
2798 7 6.29539 -23.0577 12.4613
234 7 3.90805 -21.4549 9.40497
2641 6 3.5129 -20.0216 19.4414
2647 2 1.54998 -19.04 19.9818
2820 7 0.472387 -19.5108 19.8949
2615 6 5.46788 -21.5278 14.1774
2621 15 4.03435 -21.1758 16.0484
2683 2 7.03768 -18.6642 18.8771
23 6 2.37024 -18.1604 11.7775
26 6 3.15826 -20.3791 11.2354
2805 7 5.3475 -17.4927 15.8539
3778 22 -0.0697224 -21.5293 19.7596
3197 9 1.84954 -20.9854 8.66721
2684 1 7.26528 -18.1809 20.2873
300 7 0.229839 -17.8852 17.62
3035 6 0.915537 -18.6846 8.05437
19 2 5.34332 -16.6161 8.96976
2081 8 2.95975 -23.0976 7.9481
39 3 3.94571 -21.4672 10.5382
3189 7 0.271479 -16.7761 9.82105
29 6 1.50574 -19.9913 13.0633
3034 6 1.61435 -19.648 7.31009
30 2 0.306439 -17.9116 13.4035
1049 7 5.54455 -22.1083 7.27675
2616 6 4.81396 -20.6973 15.0289
42 6 0.350525 -22.5266 11.3095
34 14 1.08485 -20.1367 16.3981
236 7 5.04101 -21.5471 10.776
3036 6 1.88302 -19.4513 5.94416
2801 7 6.77892 -18.0717 11.5316
81 6 4.09866 -23.6881 19.5742
38 16 4.98867 -19.2525 9.38103
2819 7 1.75616 -18.8603 18.9467
2800 7 5.27091 -22.6144 14.2258
2623 2 5.21524 -16.8757 14.9552
259 7 2.51886 -23.6368 18.0539
2834 9 2.76268 -17.1695 18.9214
2617 3 7.28533 -18.9679 12.0103
21 6 3.25626 -18.9906 11.0559
28 6 1.42405 -18.6778 12.7107
2645 6 5.61337 -19.2468 18.7684
27 6 2.37477 -20.8193 12.3032
35 15 2.44935 -22.1478 12.5749
2806 7 4.17203 -16.6773 14.8513
221 7 6.34293 -16.9528 9.35304
2640 6 4.2625 -20.592 17.2548
2622 15 5.57332 -17.5067 13.7142
2612 6 5.63176 -18.9188 13.8936
2843 7 7.15146 -17.8638 18.0741
2817 7 2.29363 -21.1604 18.2211
2842 7 7.75041 -19.4592 18.7168
2614 12 4.86957 -19.3762 14.8306
3033 6 0.198555 -17.7096 7.38204
25 6 2.60364 -16.7673 11.6902
3037 6 0.321895 -17.6188 5.9779
3030 6 -0.904214 -17.1297 8.0992
2676 16 3.12951 -16.609 19.5985
31 1 0.508968 -18.1173 14.9228
2643 6 4.71523 -19.4022 19.7869
2803 7 7.61035 -19.6719 11.1837
229 7 1.18726 -21.4283 14.5756
33 2 0.714188 -20.5241 14.1358
228 7 -0.334434 -20.7993 13.8398
1048 7 7.44655 -20.3821 7.60024
2611 6 6.41234 -21.0409 13.2646
225 7 -0.752938 -18.1672 13.064
22 6 4.19396 -18.4417 10.1714
893 6 6.54587 -22.421 7.5588
2644 6 5.43256 -19.8409 17.5362
2610 2 6.96678 -22.1198 12.464
226 7 0.358252 -16.8071 13.1202
265 7 6.82272 -23.5533 19.5128
294 7 -0.731807 -20.3368 17.6245
891 6 6.93208 -23.771 7.38699
3028 6 -0.808511 -16.8183 9.49264
41 6 -0.872684 -23.086 11.2276
2646 15 2.53144 -20.0118 20.4558
139 1 -0.7924 -17.6075 17.1163
2792 7 5.14162 -23.8324 16.0846
307 7 -0.860471 -16.6283 15.1799
2844 7 6.88668 -17.1648 20.513
2881 7 4.75182 -14.2739 -1.5578
551 6 1.42237 -14.7812 0.166377
2888 7 -0.17194 -9.651 -7.25537
2715 6 7.8462 -9.39674 -4.21435
2873 7 6.20479 -10.7719 -4.07081
2733 6 0.916229 -10.1181 -5.41169
561 2 6.64452 -9.9086 5.52701
2836 7 2.34042 -13.5551 -7.96957
2887 7 -0.0329488 -11.91 -6.22488
335 7 5.68271 -8.94437 -7.01198
2721 6 4.36905 -10.9766 -2.20859
554 6 3.20116 -13.9863 1.6651
546 6 2.25748 -11.3406 1.27093
2837 7 5.74456 -13.568 -4.9251
2734 6 1.13288 -12.3721 -4.46653
2882 7 6.11057 -13.2913 -2.29361
2886 7 4.02165 -14.5707 -3.2014
712 7 4.7129 -9.09099 4.97193
2823 7 -0.513821 -16.1427 -4.19873
2423 7 0.101342 -9.49216 3.18937
2821 7 1.43593 -14.8051 -6.35286
552 6 3.29096 -11.6264 2.17534
703 7 1.86044 -15.7553 0.386479
2735 6 0.5725 -11.521 -5.41384
2875 7 7.44643 -11.0403 -1.95104
2729 6 1.77345 -9.63724 -4.4361
549 6 2.17385 -13.7322 0.791403
538 6 0.609638 -12.2252 -0.279813
704 7 3.5832 -14.9348 1.90037
562 2 5.61911 -9.56624 4.46112
2723 6 3.43719 -10.0975 -2.81058
539 6 0.375194 -10.9052 -0.717688
2905 9 0.11109 -13.8126 -5.15638
2681 4 6.37778 -14.3471 -6.72415
556 6 5.05207 -10.789 3.69929
2884 7 2.62881 -14.5961 -4.31488
559 1 6.9167 -12.2611 4.5573
2678 4 4.28092 -14.402 -7.66068
2877 7 5.73879 -11.2336 -0.536595
184 3 3.4474 -10.37 -8.40777
2720 2 5.48955 -10.4607 -1.26641
2724 6 2.16129 -11.8988 -3.60852
540 6 -0.191431 -13.2595 -0.706081
2653 6 2.16291 -15.613 -8.20295
544 6 2.04911 -10.0486 0.778553
2682 4 5.5553 -15.0503 -7.60116
2726 6 3.04258 -12.7987 -3.01435
550 6 0.223867 -14.6539 -0.427201
2679 2 5.74716 -13.2457 -5.97174
3001 16 -0.760923 -13.2692 -8.77501
708 7 8.03782 -10.4954 3.92283
705 7 3.48101 -9.60953 2.92898
2883 7 5.45017 -13.0909 -0.686888
557 6 4.98349 -13.0864 3.17136
543 6 1.08314 -9.83128 -0.162554
2876 7 7.22308 -9.31916 -1.69687
2725 6 4.13635 -12.3608 -2.30843
558 6 5.65852 -12.0691 3.77933
2885 7 2.36797 -14.8903 -2.51661
2911 7 7.1345 -16.0118 -4.61942
2677 2 2.97976 -14.3801 -8.38307
2732 3 2.96679 -14.2943 -3.27646
2680 4 4.42477 -13.4311 -6.59217
3920 21 -0.547593 -14.6384 3.20957
2839 7 3.5377 -12.793 -6.24141
2841 7 5.9273 -15.8025 -8.30602
553 6 3.79223 -12.9279 2.35935
555 6 3.82604 -10.6408 3.01386
2722 6 2.43308 -10.5519 -3.64623
2651 6 1.38861 -15.6309 -7.08244
2752 16 0.62183 -13.655 -4.35368
2838 7 6.15911 -12.2495 -6.08061
2910 7 6.27913 -15.8008 -3.15213
706 7 5.45725 -14.0668 3.1458
545 6 1.69913 -12.4222 0.530656
2731 3 5.19254 -13.295 -1.70823
338 7 4.45253 -10.6699 -8.11956
560 1 7.62388 -10.9549 4.89499
337 7 2.77679 -10.6286 -7.55315
3936 21 7.36568 -9.24836 1.65616
2719 2 6.7491 -10.1953 -2.04016
220 9 1.2172 -11.3764 4.22352
17 19 2.05104 -14.6582 5.05949
334 7 4.06512 -9.34843 -6.36079
18 16 1.35447 -12.1414 4.90806
537 6 -0.665961 -10.5977 -1.6151
219 10 2.13486 -15.9826 5.04115
3921 22 -0.505405 -15.7072 2.7607
2840 7 7.48734 -14.433 -6.77828
696 7 2.49528 -9.18362 1.25834
707 7 6.74882 -12.7974 5.52731
2718 2 6.52374 -9.86183 -3.55596
3922 22 -0.589921 -13.5697 3.65853
568 16 -0.399153 -15.7667 -0.887417
2738 6 0.483198 -9.25012 -6.45277
714 7 7.51511 -14.0295 3.55556
2878 7 5.11008 -9.62547 -0.622166
3937 22 6.99487 -10.2797 2.03596
2874 7 5.73213 -9.15881 -3.85614
178 6 3.44298 -8.95561 -8.83689
563 2 7.95105 -13.0907 3.80368
2233 6 -0.840902 -9.12983 3.61006
336 7 3.19632 -10.9632 -9.29852
212 2 1.85701 -11.5114 12.3613
362 7 2.43467 -10.909 11.6978
6 6 3.69672 -10.7905 8.07212
217 7 6.99419 -15.3416 10.2697
155 6 5.61014 -11.4438 18.501
2633 6 7.25004 -9.98714 13.7297
312 7 0.528919 -12.2133 15.0766
4 6 3.89927 -12.0962 7.66479
166 6 6.77256 -9.04306 19.9651
2624 6 5.90105 -15.5888 15.1101
2626 6 5.3784 -14.4637 14.435
2807 7 7.36775 -16.3471 16.4833
3 6 2.12596 -11.7 5.95257
12 6 6.41103 -14.5005 9.75219
710 7 6.34969 -10.3525 6.49948
314 7 6.1823 -9.56088 17.557
37 16 6.6755 -10.2568 10.2441
154 6 4.78911 -12.5586 18.3342
313 7 2.88315 -14.6055 17.7285
2632 6 7.7564 -11.8875 15.1929
7 6 2.99968 -13.9913 6.40234
207 6 0.628548 -10.9352 12.9894
3203 7 0.509664 -9.69961 9.74941
216 7 3.7102 -15.9047 7.13475
10 6 4.68929 -14.2833 8.128
223 7 3.48658 -15.1403 10.5791
316 7 7.0115 -14.9236 19.508
315 7 4.81796 -14.7407 18.4131
36 11 7.68122 -12.7158 10.8273
16 6 4.63114 -10.1253 8.98342
230 8 7.38878 -12.0276 11.5019
310 7 -0.101198 -14.4577 15.5262
206 6 -0.515174 -11.469 12.3274
2629 6 7.75855 -14.3816 16.0153
2628 6 6.9845 -15.5019 15.9208
2639 16 4.26151 -14.4028 13.6447
186 6 1.47091 -9.10963 19.4113
218 7 4.59996 -9.04539 9.18727
213 4 -0.198965 -12.5892 11.5421
224 7 2.0632 -16.0349 12.3212
162 6 7.29858 -10.3986 19.9494
3844 21 0.373872 -13.4543 8.12523
153 6 5.53048 -10.4634 17.4929
363 7 2.61912 -11.9561 13.1205
204 16 1.0567 -10.3628 19.7267
151 6 3.729 -12.5237 17.367
3846 22 1.39981 -13.8125 8.53107
149 6 3.44987 -11.342 16.5896
150 6 2.86232 -13.6395 17.0898
709 7 7.25812 -9.01071 5.77667
156 6 6.69155 -11.4878 19.407
13 6 5.73353 -12.2985 9.20366
2627 6 7.27326 -13.2573 15.3538
357 9 1.83399 -10.7984 20.1379
309 7 0.708643 -15.2691 18.3315
157 6 7.24822 -12.7883 19.6737
159 6 6.53001 -13.9681 19.2653
311 7 1.15915 -15.6127 15.9765
3845 22 -0.652148 -13.0961 7.71952
145 2 0.681805 -14.6773 16.2806
2816 9 4.38181 -13.6793 13.0437
3176 9 -0.519871 -13.6692 20.2177
14 6 6.62819 -13.1425 9.87265
146 6 1.6731 -13.571 16.3347
152 6 4.40813 -10.3123 16.7186
8 6 3.79359 -14.8387 7.17899
211 4 1.20251 -12.6626 11.5844
148 6 1.45127 -12.356 15.6961
5 6 2.62878 -10.0208 7.51013
2630 11 5.82859 -12.1262 13.7755
205 6 0.403865 -10.0431 14.01
308 7 -0.480857 -14.095 17.948
144 2 -0.0122599 -14.9956 17.6327
339 7 -0.26615 -9.07988 18.3435
15 6 5.66106 -10.9075 9.45365
2625 6 6.05875 -13.2748 14.5478
24 6 3.44075 -16.2275 10.7178
2 6 2.99867 -12.5729 6.63344
11 6 5.47401 -15.1004 8.90782
160 18 1.76542 -9.76441 15.094
158 6 5.32972 -13.8252 18.6702
361 7 1.71659 -13.4053 11.0361
9 6 4.81094 -12.865 8.31996
2810 7 6.59973 -9.42951 13.0241
147 6 2.34161 -11.2958 15.7852
2809 8 4.91614 -11.6924 13.8815
1 6 1.92599 -10.421 6.41698
2631 6 6.92464 -11.2362 14.2179
209 6 -0.810036 -9.51306 14.258
3914 22 7.69349 -16.0355 12.3302
318 7 4.09938 -9.37055 14.9509
214 7 1.09811 -9.79851 6.0534
302 7 -0.82361 -16.0382 19.6047
232 9 6.28558 -9.41495 10.3975
364 7 -0.847336 -13.2464 10.9173
161 3 4.38469 -9.00995 15.9458
3199 7 -0.645607 -8.86562 7.12201
2835 7 3.22468 -14.1686 20.4527
231 8 8.01046 -13.5219 11.2862
215 7 2.51943 -8.99226 7.9168
513 6 0.846057 -2.89742 -0.222524
2438 7 -0.260781 -2.03516 4.4516
2737 6 0.822003 -7.89683 -6.48125
327 7 6.86596 -7.04924 -7.47249
694 7 -0.0996581 -8.52012 -1.97339
333 7 4.69903 -7.8301 -5.94404
330 7 5.03689 -4.79464 -7.95654
727 7 5.3982 -2.34184 -4.09203
2902 7 0.107367 -1.51654 -9.34609
711 7 5.9469 -8.7653 3.78229
2880 7 3.19309 -6.78709 -3.36113
2253 3 -0.548613 -2.86349 5.13165
515 6 0.280443 -2.22392 0.931964
2728 6 2.82521 -7.84157 -3.23379
2743 1 0.163289 -4.92946 -8.71112
171 2 6.69289 -6.1222 -8.0489
2740 6 1.34519 -5.2853 -6.44349
2239 4 0.859519 -6.78687 3.22079
2879 7 4.18572 -8.32234 -1.69454
524 18 2.99613 -3.05086 -1.98627
673 7 3.05207 -1.46387 3.622
2894 7 2.47757 -3.74056 -8.45135
514 6 1.05968 -1.43663 1.78549
723 7 4.10819 -4.01159 0.54492
2736 6 1.5512 -7.41855 -5.33275
569 6 4.68794 -3.49778 -1.45484
2872 7 7.29045 -7.28962 -4.71643
574 6 6.22296 -4.39798 0.17179
573 6 4.92745 -3.94589 -0.173756
2896 7 2.91193 -3.84859 -5.93331
2428 7 0.367831 -7.00481 5.39289
571 6 5.6038 -3.6815 -2.46842
683 7 1.0013 -3.89499 -2.90648
2893 7 2.07037 -2.26435 -7.6922
2730 6 2.00781 -8.25679 -4.29505
2892 7 -0.410678 -3.26395 -7.48536
2240 4 3.07099 -6.36779 3.4592
328 7 7.18381 -5.29735 -7.59774
2430 7 3.12805 -6.15796 0.756777
516 6 0.140517 -3.86436 -0.889726
512 6 2.82853 -1.47639 0.193939
590 7 5.60622 -2.69815 5.18898
2431 7 1.52404 -5.30131 0.84644
2746 2 1.84234 -3.88926 -6.31456
511 6 2.19241 -2.44911 -0.576354
389 6 7.31392 -4.90799 4.47635
681 7 1.29943 -5.4471 -1.87537
177 6 4.12815 -8.07216 -8.08005
2241 4 2.06355 -6.43875 2.54658
172 2 5.27031 -5.82049 -7.66217
329 7 5.20145 -5.96541 -6.56424
525 3 0.601876 -4.62674 -2.11669
1253 3 5.37012 -1.43243 -8.07797
726 7 4.77472 -3.99737 -4.52069
2238 15 -0.313062 -6.97088 2.62623
577 4 7.59423 -4.41975 -3.26851
2890 7 -0.199698 -7.5154 -8.38821
682 7 -0.239486 -5.06541 -2.66185
2244 3 2.09687 -6.20656 1.09776
570 6 6.8295 -4.22108 -2.06121
2437 7 -0.148788 -3.86762 4.78932
724 7 6.37563 -4.74901 1.20949
2744 1 0.290732 -3.4983 -8.29794
2745 2 1.79037 -3.31797 -7.72135
2739 6 1.7571 -6.04901 -5.38241
173 6 4.35512 -6.73872 -8.43801
2242 2 2.64064 -6.70346 4.8393
2741 6 0.339173 -7.10524 -7.48813
576 2 5.54288 -3.43071 -3.94341
2717 6 8.05551 -8.04005 -4.60748
2425 7 4.11905 -6.10893 3.27863
572 6 7.20358 -4.58452 -0.776583
2727 6 3.53225 -8.67685 -2.49556
695 7 1.00818 -8.74137 -0.359543
2889 7 2.37103 -5.54527 -4.62177
575 4 6.90625 -3.92024 -4.36235
725 7 7.16105 -3.99957 -5.39212
2429 7 1.58928 -6.96568 0.624229
588 7 6.66186 -4.29912 3.82835
2895 7 1.30639 -3.24907 -5.5709
2243 4 1.1881 -6.94245 4.58654
2742 6 0.65718 -5.8068 -7.53458
183 3 4.72029 -8.58763 -6.80068
1409 7 5.3003 -2.30892 -8.73043
624 7 7.98078 -1.68371 5.32235
3938 22 7.73651 -8.21693 1.27641
1410 7 4.7468 -1.59617 -7.11359
671 7 2.68859 -2.10207 5.46121
589 7 4.23203 -3.74532 4.98543
1415 7 7.75246 -1.21543 -0.643608
2426 7 2.89991 -5.85184 5.40261
2427 7 3.14995 -7.65951 5.2374
407 6 6.09511 -5.33512 13.4205
411 6 6.41675 -4.81469 14.6746
3042 4 0.186158 -7.78225 8.81408
179 6 3.79799 -4.89162 19.8363
623 7 7.75321 -1.60332 7.7087
395 1 4.2109 -2.63941 6.88416
176 6 2.60267 -8.40557 19.9817
317 7 5.43362 -8.61005 15.9018
345 7 2.75144 -2.1131 11.7934
3201 7 2.73871 -8.34453 10.6883
175 6 3.66467 -6.2663 20.2721
416 6 7.62765 -4.17537 14.5162
414 6 5.97105 -4.69655 16.0897
340 7 -0.559838 -7.40641 16.374
343 7 0.526194 -4.82727 12.0362
202 2 0.294989 -2.51585 10.692
192 6 1.83806 -3.58183 14.6315
599 7 7.54293 -8.03856 9.35971
3044 4 0.825347 -8.65018 9.7498
385 6 7.81088 -6.08695 6.46574
182 6 2.34738 -5.37855 17.859
408 6 7.02982 -5.28148 11.1093
392 6 5.91671 -4.54941 6.43483
601 7 4.05864 -7.11034 11.4682
189 6 0.658049 -5.59094 16.1339
344 7 0.229634 -1.91574 12.6641
603 7 6.33253 -4.03767 18.1181
195 1 0.174223 -4.05835 12.7686
393 6 5.57104 -5.03612 7.67881
332 7 3.5317 -3.59458 18.3741
167 6 7.54984 -7.95457 20.2854
3045 4 1.6651 -6.55298 10.0366
2903 7 0.39682 -2.92337 19.4642
410 16 4.25974 -6.82238 13.9951
3202 7 1.37131 -8.07695 11.7147
181 6 2.03386 -6.57454 18.4566
399 15 5.77725 -6.61292 9.47423
3205 7 0.580387 -5.56785 8.44305
174 6 2.76728 -7.05358 19.5246
355 7 1.05399 -2.90337 9.97311
604 7 4.9881 -5.22803 16.2582
507 2 3.24717 -1.63068 6.33421
197 2 2.22354 -2.84313 12.4995
191 6 2.35605 -3.89804 15.8161
187 6 0.676137 -8.50706 18.4855
331 7 4.50469 -4.16103 20.203
190 6 0.251287 -6.78722 16.8231
391 6 6.33939 -5.94865 8.37911
326 7 7.80893 -5.71005 20.0155
188 6 1.83179 -4.94233 16.6004
322 7 5.75401 -8.831 19.5286
413 6 6.70956 -4.08056 17.0517
602 9 3.34537 -7.02136 13.6138
346 7 2.65511 -3.87248 12.2213
404 6 5.92462 -6.15237 10.7614
387 6 6.96834 -5.17859 5.79927
319 7 3.72933 -8.2631 16.3815
3204 7 1.96178 -5.56697 10.4406
342 7 -0.809664 -5.7284 14.5681
353 7 -0.991157 -4.18678 9.8666
196 1 0.721596 -2.75453 12.1427
198 2 2.53426 -2.46274 13.9167
592 7 3.79104 -5.51781 8.7314
394 2 5.04019 -3.43281 5.77968
180 6 3.2341 -4.5401 18.648
593 7 4.53368 -3.95806 9.31946
3043 2 1.73065 -7.95024 10.6594
397 2 4.3364 -4.5902 8.47936
185 6 1.00685 -7.28715 17.8889
396 6 3.46065 -3.74488 7.55224
354 7 0.246292 -1.41824 10.4562
3046 4 0.752888 -6.51517 8.96769
2891 7 0.766038 -5.06342 20.2518
194 6 0.73489 -4.23651 14.1022
390 6 7.5104 -6.42907 7.77319
405 6 5.05444 -6.24398 13.0307
348 7 3.63371 -2.565 14.026
406 6 4.97266 -6.49163 11.7214
193 6 0.133526 -5.23932 14.8683
398 14 2.12861 -3.95762 7.44103
670 7 2.37919 -1.35466 6.95681
591 7 4.84569 -2.11212 7.57195
2750 2 -0.134991 -2.60626 20.3919
409 6 6.96665 -5.0152 12.5041
347 7 2.29174 -1.46995 14.274
341 7 3.11999 -3.18326 16.2206
170 2 7.08333 -6.49826 20.3307
325 7 6.32899 -6.42791 19.5219
435 13 7.84446 -3.86192 9.4913
415 6 7.98164 -3.50683 16.7211
2439 7 -0.0056704 -2.69769 5.99986
1938 6 -0.468441 0.891961 -5.80232
1414 7 6.45953 1.16805 -4.77083
1267 6 4.14567 4.93288 -0.510943
1416 7 5.48747 -0.300277 -0.954298
1932 6 -0.876968 3.56718 -1.53506
1138 16 6.84083 2.6759 -6.79956
1427 7 7.12301 2.09188 1.50156
1262 2 4.4684 0.963729 -3.01977
1418 7 4.0891 0.774942 -4.04719
1146 15 0.40146 5.41467 -5.97505
1411 7 4.81915 -0.513749 -8.44832
1149 4 -0.00330244 4.55127 -8.33768
1264 2 4.14959 2.47138 -1.02726
1145 6 2.66835 5.96476 -5.23211
2451 7 3.11664 4.24547 3.19748
1139 6 4.54671 4.49006 -5.87478
1937 6 0.854849 1.36348 -3.75501
1245 6 7.29087 -0.877139 -6.47011
1422 7 4.36669 1.59022 -0.477495
2268 6 0.310551 5.43924 3.51857
1941 6 -0.451537 0.668511 -7.21147
1332 7 4.05563 2.64406 -6.87644
1259 6 5.89306 0.529947 -2.91035
2449 7 2.70332 4.97043 4.7718
1420 7 3.78085 3.07722 -3.0541
2264 6 -0.355859 1.94817 4.59132
508 2 3.62885 -0.548383 3.38389
667 7 4.42182 1.93628 3.33784
2444 7 1.50053 2.84903 4.20569
1271 6 2.88782 5.15516 -1.08284
1945 6 0.84911 0.501113 -7.8029
2097 7 1.63914 0.329494 -5.26719
672 7 4.58953 -0.826631 3.04272
1330 9 5.8994 2.57392 -6.81727
1142 6 3.66125 3.57805 -6.52087
1258 6 6.84326 0.601141 -3.88871
1276 3 7.29915 4.30859 2.33341
668 7 5.52438 3.12278 5.31826
1935 6 -0.288497 1.91842 -3.11245
1425 7 5.42761 1.69239 1.37495
1331 7 1.57332 3.25213 -6.9378
1270 6 6.31033 4.65512 1.23511
1430 7 7.37442 5.09229 3.04584
1143 6 1.76255 5.0911 -5.90536
1417 7 3.72581 0.44994 -2.29957
1275 3 6.27332 2.16509 0.801989
1421 7 3.06392 2.5132 -1.08711
1934 15 -0.251316 2.34608 -1.85422
1337 7 1.8434 5.61624 -9.04916
505 2 4.54032 1.55072 4.40293
1144 6 3.95953 5.56579 -5.33758
1936 6 0.699729 0.808824 -4.97049
2103 7 1.65949 0.447301 -7.1191
506 2 4.53295 2.64052 5.49358
1135 6 5.89402 4.44316 -5.46271
1423 7 2.22997 4.34305 -1.33718
1419 7 5.50497 2.89038 -2.76998
2095 7 -0.255524 4.53585 -3.4069
1406 7 6.50087 -1.0957 -5.6916
1426 7 6.48292 1.4798 -0.0548414
674 7 3.67658 0.743425 1.72472
1261 6 6.19797 -0.179336 -1.74845
2274 3 2.84199 5.20561 3.66315
1147 4 -0.344132 4.97708 -7.01172
675 7 2.20828 0.909786 2.42793
510 6 2.33922 -1.01498 1.40224
1269 6 5.83731 3.57679 0.538078
1244 6 6.84239 -1.02056 -7.80524
509 2 2.94569 0.117808 2.17214
1265 6 4.75952 3.65033 -0.313647
1260 6 7.46262 -0.684949 -1.56208
677 7 0.610625 -0.894057 2.64116
2263 6 -0.127483 4.27027 4.18198
2450 7 3.622 5.95513 3.57669
1133 6 6.97076 3.62961 -5.88198
2271 6 1.58611 5.87837 3.12214
1263 2 4.5427 2.46928 -2.5757
2098 7 1.74246 1.30831 -3.18238
1141 6 2.29886 3.97498 -6.55423
1268 6 5.98508 5.87375 0.821718
1136 6 7.30879 5.99886 -4.21956
1152 3 1.25529 4.65382 -9.23546
1429 7 6.98585 3.35642 2.88698
2265 6 0.43937 3.03208 4.40159
666 7 5.57402 1.17411 4.4413
1137 6 6.20075 5.47719 -4.73205
2443 7 0.284186 1.08373 4.76575
1241 6 7.69721 -0.438894 -8.84643
665 7 2.66642 0.708556 4.70235
504 1 3.70503 0.360436 4.59879
1266 6 4.84233 6.05004 -0.029861
631 7 6.97639 -1.0492 2.5218
1931 6 -0.898171 4.56087 -2.51477
676 7 3.8164 -1.22978 -0.131713
1946 6 1.03094 0.818342 -9.08271
669 7 3.74581 3.38718 5.32391
1339 7 1.79803 3.78108 -9.04112
1304 2 2.95301 -0.309808 17.4758
437 15 5.47878 0.182848 12.8344
1303 4 1.85193 0.502066 16.8533
663 7 5.13966 3.74679 7.82768
3890 22 4.49822 1.59132 15.0892
458 6 5.54123 2.28871 11.5544
1299 6 3.78794 0.805688 18.1125
502 2 4.4655 2.93932 7.99243
462 15 5.72049 4.25611 10.2447
1388 7 6.47677 4.93196 18.2985
662 7 3.43805 3.32963 8.21596
1225 4 0.335298 1.31564 13.3894
1224 4 -0.0274041 2.37748 11.3857
1226 4 0.14081 2.64758 13.6012
457 6 5.40018 2.90172 10.3713
1396 7 6.60675 3.63202 15.1174
430 12 7.31685 -0.247986 11.5431
1197 6 0.912966 5.49804 12.1066
660 7 2.65727 0.994403 6.80709
464 6 8.05542 5.25557 10.1719
1229 1 7.11594 5.33361 16.2815
661 7 5.59329 1.62804 6.89155
459 6 4.79093 2.19446 9.31301
499 2 3.9347 0.0502783 8.33791
1223 2 0.371056 1.03563 11.9507
659 7 3.13333 -0.583026 8.76084
2473 7 -0.288735 5.96426 6.59942
1390 7 5.59107 5.79005 14.8326
1234 2 6.8573 3.85956 16.1475
664 7 5.14457 -0.59204 6.02035
3901 22 -0.299807 0.137332 9.02058
3889 22 3.08538 3.26085 14.3152
501 1 4.58384 1.94316 6.82962
1300 6 3.76053 3.1587 18.6138
460 6 4.5649 0.270656 10.6615
1220 16 0.507699 6.03918 14.41
1384 7 0.416729 0.526444 14.1119
2104 7 2.11162 0.811219 20.4496
1298 6 3.17093 2.03555 17.9433
636 7 7.01491 4.1364 8.65416
2315 2 -0.441093 5.66816 7.67343
3888 21 3.79178 2.42613 14.7022
461 6 4.28773 0.966358 9.50686
1228 1 7.31311 5.4995 17.8355
1453 7 0.856511 0.190038 16.3995
500 1 3.71604 0.708926 6.97949
1239 6 7.30548 -0.366662 19.6212
1397 7 5.99627 3.48859 16.7719
1385 7 0.0323543 3.14597 14.5719
633 7 6.11029 2.73052 12.412
634 7 4.33899 -0.791662 10.6855
635 7 7.43227 3.16048 10.0288
1305 4 2.00058 1.86743 17.165
1302 6 4.91958 3.06392 19.425
616 7 7.05032 -0.599007 14.8625
1190 15 3.185 6.12724 15.5002
1365 7 1.33551 5.03779 10.0934
1196 6 1.3763 6.08901 13.3179
1450 7 3.28619 4.14284 18.6177
1456 7 1.39859 2.66663 16.7925
650 9 6.75325 4.63243 12.0992
658 7 4.90247 -0.487791 8.25561
1195 6 1.63331 5.61673 10.9783
1297 6 4.97645 0.744551 18.7726
1222 4 -0.065745 3.34848 12.4189
1301 6 5.53153 1.84582 19.4211
1383 7 -0.39051 2.6865 10.4099
1381 7 1.32686 0.778971 11.4929
1252 18 5.72447 -0.801712 19.0227
503 1 4.02603 -0.340653 5.90798
456 6 5.1829 0.918022 11.7243
1452 7 5.39773 3.90729 19.9464
1338 7 1.03099 4.66534 19.5846
1451 7 6.49201 1.77832 19.9339
492 16 7.49346 5.11838 12.461
463 2 7.03941 4.15049 9.72395
1944 6 -0.0464617 0.889062 19.8992
1455 7 2.44561 -1.06713 18.073
2462 7 -0.280143 4.54224 16.8761
432 6 6.72646 -0.243388 12.6881
431 6 7.46433 -0.611472 13.8564
1221 2 -0.401795 4.74349 12.1374
622 7 7.27904 -0.0725745 9.39471
2474 7 0.228085 4.81253 7.70142
1454 7 3.55252 -0.819339 16.7308
1404 7 7.77128 0.298878 17.5777
2102 7 0.0653065 1.12415 18.8199
1380 7 -0.804725 4.76525 11.0638
1395 7 7.89544 2.04635 16.4217
1382 7 -0.366081 0.236405 11.664
1389 7 8.10356 5.62458 15.8002
1278 6 6.93246 6.9866 0.725667
268 9 0.576478 11.5501 -8.35545
1218 6 4.14251 12.0038 1.36572
1375 7 5.55673 10.5781 2.20619
1281 6 3.78889 9.90004 -1.24739
1343 7 0.503636 8.20873 -5.40865
77 6 3.4459 12.8987 -8.18966
1210 6 4.10085 9.69912 4.29274
1347 7 4.19057 9.06522 -4.25967
1341 7 1.19137 6.72448 -3.85931
1161 3 4.38695 9.70487 -5.13253
1162 5 7.44401 7.21306 -3.32637
1212 6 5.03383 8.63952 3.92622
1215 6 2.39634 11.3015 3.40066
2270 6 0.483101 7.82414 2.25041
1155 6 2.46244 8.61161 -6.40386
1154 2 1.60886 8.39157 -5.20098
3826 21 -0.4775 8.6746 5.63641
1272 6 2.46516 6.43711 -1.15211
1277 6 5.35885 8.42469 -0.267219
1373 7 1.77221 11.0638 4.24683
1350 7 6.21369 9.1533 -9.17701
1340 7 2.71098 7.52961 -3.72975
1280 6 2.76437 8.88691 -1.17168
1282 6 5.11426 9.61947 -0.932525
1208 6 3.81473 9.80266 5.66755
1213 6 3.70986 10.7073 3.3332
1285 6 3.30495 11.2002 -1.50831
262 7 5.79454 13.3149 -4.66034
1274 6 3.22156 7.57311 -0.911461
1273 6 4.443 7.36801 -0.286313
1424 7 1.47012 6.52262 -1.41401
1289 2 -0.54681 12.1716 -1.40513
1160 6 2.87176 8.13464 -8.65743
1441 7 2.01185 12.8823 -4.16116
1286 6 2.0356 11.4732 -1.91298
2273 16 0.626718 9.10995 1.74752
2272 6 1.62017 7.0145 2.38556
1217 6 4.53531 11.006 2.18818
82 11 3.8689 12.7449 -6.85653
1140 20 4.8798 6.6599 -4.21121
1284 6 1.04382 10.4532 -1.83518
91 16 1.36922 11.7951 -7.85981
932 16 8.06619 12.6468 -2.52582
1434 7 4.17714 11.884 -1.42349
1344 7 0.969595 7.9111 -7.64007
2447 7 2.51726 7.54593 2.07298
1291 2 2.41639 13.4768 -3.31311
1432 7 5.86401 10.3686 -1.15812
1436 7 0.00498108 12.9179 -3.28399
1279 6 6.61545 8.1504 0.201981
1371 7 6.14978 6.93749 4.44628
1158 12 4.01173 8.83234 -8.69094
1214 6 2.0112 12.1869 2.46646
1372 7 5.20884 8.45004 2.84745
1377 9 0.722582 13.4382 1.88307
1283 6 1.44822 9.24928 -1.3593
1287 1 1.67069 12.9459 -2.12738
1431 7 7.34284 8.96827 0.386978
1166 15 5.61599 10.0386 -7.48131
1376 7 4.90929 12.3626 0.661805
1157 6 3.72406 9.18107 -6.34951
2113 7 -0.203012 10.3949 -5.96216
1346 7 4.07203 10.7567 -4.83905
1219 16 0.745728 12.7248 2.4368
1216 6 2.93342 12.6072 1.47197
1345 7 5.46735 9.83324 -5.21441
1442 7 3.49353 13.2105 -3.26771
1211 6 5.57079 7.78475 4.88772
1348 9 7.32162 9.10311 -3.19737
1153 2 2.04986 7.05243 -4.43187
1085 9 7.45394 12.8166 -1.8344
1167 2 6.35377 10.0694 -8.69538
1433 7 0.678316 8.47437 -1.14448
1159 6 2.02323 8.17605 -7.59842
1435 7 1.93049 13.4786 -1.19903
1342 7 1.51117 9.21856 -4.51218
1156 6 4.4004 9.39229 -7.54821
2448 9 1.50368 9.32652 1.54954
1290 2 -0.416171 10.7731 -1.97545
2269 6 -0.77606 7.43396 2.68387
1164 16 7.40533 8.43019 -3.86529
1288 1 0.181341 13.1797 -2.29747
2112 7 0.0666236 13.0503 -5.88224
83 6 5.10075 13.4453 -6.78328
261 8 3.26136 12.8782 -6.10343
1168 6 7.7709 10.4368 -8.46053
1052 7 6.06351 11.1627 5.33951
1439 7 -1.0616 10.7312 -2.89916
1126 14 7.47574 6.4807 -8.33044
78 6 2.21578 12.5194 -8.66336
1438 7 -0.150689 12.1556 -0.384402
1953 4 -0.853371 12.6087 -5.7649
2468 7 -0.332962 9.65069 -8.62331
1058 7 7.57575 10.2776 3.43584
1374 7 2.67155 13.5164 0.838073
2267 6 -0.866641 6.23117 3.36259
911 3 7.56694 12.6902 2.59025
1351 7 7.89082 9.81486 -6.37059
79 6 4.36207 13.5455 -9.00078
1061 7 6.5334 12.4716 2.51251
1163 13 7.84489 7.17945 -2.22162
85 6 5.92973 13.6811 -5.76048
72 16 3.21801 12.7579 13.7687
1897 6 1.19743 13.1773 7.92006
1186 6 2.87821 6.96574 17.7583
1206 15 6.16267 7.41967 7.1545
2085 7 1.24695 8.96526 10.515
2794 7 6.90524 9.10684 14.4945
1907 6 2.24227 10.8857 10.6274
1902 11 2.49946 13.6033 8.20587
65 6 -0.694901 10.4401 16.7757
2790 7 5.42794 11.9981 18.3338
1909 16 5.81197 11.7125 11.3693
1370 7 4.40738 9.3296 7.65447
2606 2 5.06164 11.7431 17.2655
1184 6 3.36305 7.33596 19.0227
1386 7 7.39895 7.6261 17.6231
1906 6 4.47716 11.768 10.8485
896 6 6.07784 12.9429 6.53686
2789 7 5.65713 9.5232 17.1074
1202 6 6.35082 8.25841 9.44767
1391 7 6.39669 7.21735 15.3093
1203 6 4.54617 6.69556 8.75319
1364 7 4.09813 7.87466 14.6816
1901 6 -0.354654 11.4564 8.55259
1204 6 5.67321 7.49737 8.50781
1194 6 3.09036 6.89553 12.0851
1205 16 7.50744 8.89935 9.11269
1198 17 4.29745 7.69301 12.177
1188 6 4.69091 7.25303 19.2088
1209 6 4.54417 9.09837 6.59298
80 6 2.87876 13.5464 19.0743
257 7 -0.182465 12.6691 20.0795
2087 7 1.54909 9.38127 12.0996
1349 7 6.05472 10.8345 20.4237
2086 7 0.251268 10.2507 11.3331
1378 9 0.722955 6.45886 15.2445
2605 4 6.74428 10.8296 15.7971
2461 7 -0.266508 6.92183 17.696
253 7 0.241687 8.61235 16.2271
1908 6 3.47572 10.9571 11.2237
254 7 1.30104 10.0783 16.2194
2603 4 6.68343 12.2311 15.555
2607 4 5.61184 12.8242 16.3249
248 7 -0.638869 8.84902 13.8739
1200 6 3.95095 6.74706 10.0874
1910 3 1.28767 9.85788 11.1355
1187 6 5.05288 6.64813 16.8907
2604 4 5.82986 10.5846 16.8242
1189 6 5.53451 6.96308 18.1823
1227 2 6.99585 6.89584 18.3307
70 5 1.93994 12.8642 14.1676
1904 6 1.99834 11.7937 9.61476
1899 6 0.868413 12.0543 8.78742
2791 7 4.02124 11.5045 17.2289
255 7 0.841656 9.31861 17.6453
1362 7 5.20541 7.39452 20.1545
1896 6 -0.757957 12.781 6.51758
1366 7 6.13126 8.80706 11.6262
2080 7 -0.763162 10.6597 9.15853
1192 6 2.59388 6.93524 13.3282
256 9 3.69188 12.4151 14.5661
44 6 1.03673 13.5213 13.143
895 6 7.95623 11.4486 6.22779
2602 15 7.29452 13.0073 14.585
1183 16 7.78755 11.4909 19.2332
1903 6 3.03298 12.7076 9.22939
2083 7 3.75868 10.2084 12.0235
1363 7 2.41399 7.99916 15.1542
1361 7 1.79202 6.90073 17.5474
1185 6 3.66528 6.55996 16.693
1199 6 4.74096 7.48973 10.855
1191 2 3.1093 7.3662 14.6367
69 3 0.459012 9.57143 16.6764
1387 7 7.45431 7.12902 19.3234
48 20 -0.120968 11.3625 13.6845
1201 6 5.82082 8.27029 10.7511
1207 6 5.43264 8.0734 6.2611
2467 7 -0.338933 7.61096 19.9867
2476 7 0.601115 7.29364 8.88745
45 6 -0.155535 12.9587 12.7664
76 6 1.98404 12.9134 19.8821
74 15 0.596552 11.5659 18.599
1369 7 3.11396 10.651 6.05479
1165 15 2.43709 7.57695 20.0283
2084 9 6.34638 12.2979 10.8117
1905 6 4.2441 12.6927 9.81703
64 6 -0.546771 11.4798 17.7317
897 6 6.65929 11.8273 5.97476
1051 7 5.13787 13.3446 6.25152
2082 7 5.09915 13.3206 9.49009
71 13 1.60468 12.7819 15.2692
1367 7 3.90736 6.34087 7.93502
75 2 0.54281 12.7684 19.2986
2317 4 -0.2349 6.61118 8.74866
1193 6 2.84378 6.3767 10.9042
258 7 0.218329 13.677 18.7314
2608 3 7.55596 9.79276 15.075
1898 6 0.424916 13.4693 6.81147
1230 2 5.99975 6.2459 15.7438
3827 22 0.539224 8.16942 5.87458
3578 7 13.4637 -23.2921 4.50683
741 6 12.7895 -22.4333 -6.5532
960 9 10.1168 -23.0446 -4.93077
3636 7 8.78163 -16.6615 0.945738
740 6 13.1827 -20.9273 -8.37347
3305 6 12.7733 -19.6203 -1.99423
747 2 15.2444 -19.9585 -8.98623
2859 7 11.3295 -19.2362 -6.04474
3587 7 9.84769 -22.3915 5.06943
3501 7 10.8106 -20.257 0.453409
3302 6 13.4182 -17.2273 -2.25812
2857 7 11.3038 -17.1999 -8.3763
3485 6 8.16685 -17.4085 2.85599
3502 7 12.3338 -20.5075 1.28118
736 6 16.3925 -22.2169 -7.1146
2860 7 10.0848 -18.3324 -4.16256
3308 6 11.6401 -21.7535 -1.72359
3588 7 8.51184 -20.4937 4.71527
3416 1 11.824 -23.3831 3.18627
3513 7 14.4159 -17.4001 -6.01134
2849 7 8.94343 -16.826 -7.45789
3307 1 12.1633 -21.8286 -0.29119
958 8 10.2688 -22.2251 -7.69434
3306 2 11.9045 -20.4321 0.310198
3316 6 14.8002 -18.7855 -4.46304
3254 7 15.9555 -19.8575 3.58264
3635 7 9.22515 -17.6444 3.10919
738 6 15.0307 -22.0358 -7.34555
3512 7 13.208 -16.4981 -4.24836
2858 7 12.5987 -18.1784 -6.74152
737 6 14.1651 -22.7562 -6.49326
3503 7 13.2375 -21.9766 -0.12427
1065 7 8.80895 -23.2226 -0.723823
3420 2 11.5907 -21.9738 3.68875
3801 21 16.6243 -22.8888 1.05596
2692 2 10.7486 -18.0247 -7.87932
739 6 14.5315 -21.0177 -8.22168
3320 6 15.8478 -19.5893 -3.89081
3505 7 13.2889 -21.5489 -3.02111
2851 7 8.99793 -19.0238 -6.10376
3299 6 12.6727 -18.0759 -0.164999
3507 8 16.4344 -17.2566 4.76198
959 8 10.856 -21.3282 -9.01516
912 3 8.06834 -23.7532 -0.0713618
3419 2 11.4963 -22.9542 0.513684
3584 7 12.5558 -21.5014 3.84587
3532 9 15.113 -20.5349 -0.929024
3348 16 15.735 -20.0526 -1.47365
3576 7 13.2054 -22.6655 1.78515
2689 2 8.60438 -18.9666 -7.15284
949 7 15.9409 -19.586 -8.21393
2696 6 10.3342 -17.3188 -4.43764
2693 2 11.5035 -18.1909 -6.48096
3415 1 12.3632 -23.3673 1.75229
3317 6 16.3792 -18.0132 -6.20156
3297 6 13.3379 -17.0296 -0.88258
3943 21 8.52481 -20.3647 1.80722
3424 6 9.31261 -19.8492 5.06692
2757 6 8.43146 -19.3168 -2.11157
765 16 10.5953 -22.6918 -5.67058
3310 14 10.6309 -22.5248 -2.14773
2850 7 8.872 -19.8921 -7.67726
3321 6 17.025 -19.3976 -4.5671
3585 7 10.9272 -21.3839 3.02524
743 6 11.9029 -23.0061 -5.60634
3261 7 15.7346 -22.0087 5.09645
3322 16 16.5935 -17.258 -7.33995
3803 22 16.9721 -22.9278 2.16189
3421 2 10.8289 -21.8935 5.05632
3301 6 12.451 -17.8197 1.20177
3346 5 15.6497 -20.5332 -2.72089
764 11 10.946 -21.5522 -8.07399
3311 15 13.4841 -18.8705 -4.04298
3500 7 11.8864 -18.4221 1.85634
2856 7 11.0339 -18.8556 -8.56671
3318 6 15.1233 -18.0587 -5.61544
3583 7 10.5467 -22.6421 0.85759
732 6 14.6349 -23.7536 -5.68056
2907 7 9.32279 -19.4877 -1.54762
3304 6 12.4806 -19.4006 -0.675491
3309 2 12.4621 -20.9502 -2.71713
3504 7 11.9701 -20.659 -3.63262
2688 1 9.2494 -17.8179 -7.89183
3802 22 16.2764 -22.8497 -0.0499099
2708 18 9.03848 -16.6336 -2.18731
742 6 12.2723 -21.6442 -7.66022
3303 6 13.1707 -18.5303 -2.7252
2694 6 11.1242 -17.0894 -5.56842
263 7 8.30585 -22.0783 -7.22112
3347 13 15.5636 -21.6324 -2.92694
3252 7 15.9691 -18.6463 1.39064
3300 6 12.8888 -16.6703 1.80481
3422 6 10.5355 -20.4283 5.32646
3423 6 9.03528 -18.5676 5.41297
3251 7 15.991 -17.1637 -0.499367
3262 7 15.0656 -20.364 5.33482
735 6 16.8666 -23.2826 -6.39852
2753 6 8.10382 -18.02 -2.63772
3105 6 17.0384 -19.9397 3.55333
945 7 12.7709 -20.3354 -9.21343
3427 6 11.3192 -18.1958 6.00332
2601 6 8.68206 -22.6008 14.2348
3440 6 14.5625 -16.9687 10.0192
2587 3 15.9743 -17.4185 16.4036
2597 6 8.45157 -23.5493 16.5264
953 7 16.5189 -22.4727 15.1916
3913 22 8.98181 -16.5221 14.1973
1043 7 11.0193 -20.6666 10.3122
878 6 12.4703 -22.4935 11.6639
2618 5 11.85 -18.4051 13.1283
2785 7 13.2836 -18.7509 17.6801
2786 9 11.0944 -21.3698 18.5348
3433 6 14.0803 -16.8643 8.66454
2582 14 9.43481 -17.8411 17.1578
752 6 15.3989 -21.0357 18.6266
1030 7 15.5989 -19.4787 11.8407
3112 1 14.996 -21.5548 7.05895
1038 7 13.4237 -20.6632 13.1444
2594 16 11.6642 -20.5941 18.4911
869 2 15.9758 -19.3743 12.85
872 2 15.3588 -21.6497 12.8715
2796 7 8.48487 -23.6964 12.4849
3115 16 13.738 -22.1777 6.76616
2788 7 9.62399 -22.6644 18.0615
2593 6 11.1439 -20.075 14.9485
3264 7 15.9412 -23.3679 7.40435
2589 6 11.757 -20.144 17.1648
2804 9 11.2328 -16.8907 13.9493
3591 7 14.0896 -18.6039 5.85705
2574 6 14.9256 -16.6342 17.1254
3265 7 15.2069 -22.8211 8.75101
1039 7 13.9014 -21.5876 14.5639
3113 2 15.8433 -22.4904 7.92914
2609 2 8.4047 -22.6437 12.8024
1041 7 12.6918 -21.5087 11.1404
2691 2 9.17586 -16.735 19.7624
884 6 9.00792 -23.3767 8.38059
2599 6 8.12225 -23.5801 15.1387
2600 6 9.55701 -21.816 14.8058
887 6 9.67868 -21.0692 8.7955
883 6 9.81184 -23.7746 9.44778
2775 7 11.1932 -17.6245 19.3299
952 7 15.4936 -22.1514 16.8386
3592 7 15.2905 -18.5684 7.76601
2583 15 13.3792 -17.3804 15.3337
3428 6 9.8219 -16.5016 6.72501
2782 7 16.4723 -18.0338 17.1796
3430 6 12.4239 -17.3888 6.48236
879 6 11.4903 -23.3397 11.1448
1031 7 15.2256 -18.9069 13.4432
2598 6 9.43366 -22.6926 16.985
1044 7 9.42203 -19.9791 8.80823
2592 6 11.8503 -19.0355 14.5134
2596 20 10.091 -20.5315 13.4877
2595 6 9.99566 -21.697 16.0759
2579 1 10.5607 -16.7628 19.072
873 2 13.9646 -21.6219 13.4289
1356 9 14.9854 -23.5054 19.4743
3744 22 9.43159 -18.0245 9.8787
3596 7 15.3274 -17.689 10.3913
2588 6 12.7306 -18.5332 15.576
951 7 14.3577 -21.2129 18.7799
3589 7 12.5254 -20.2083 5.83333
3435 6 14.5107 -17.814 7.64734
882 6 10.6388 -22.8637 10.1029
2797 7 9.12337 -22.1283 12.0626
3434 6 13.6669 -17.9674 6.58071
2590 6 12.6308 -19.11 16.8397
2848 7 9.31537 -18.9242 20.1796
3263 7 14.7454 -20.6965 7.71932
874 6 13.1113 -22.7272 12.8873
885 6 8.82692 -21.9322 8.08887
886 6 10.5125 -21.4956 9.79868
2784 7 15.6652 -18.1359 15.6507
2591 6 10.9763 -20.7236 16.1316
2575 6 13.6671 -16.6434 16.5409
1036 7 15.263 -21.4295 11.7966
2620 16 11.4794 -17.0966 13.0768
2619 13 12.3267 -18.8075 12.154
2802 7 8.19858 -18.6594 12.5266
868 1 16.4293 -20.6934 13.4025
748 6 16.0729 -20.555 19.6736
1037 7 15.7528 -22.6746 12.9838
3268 9 13.2328 -21.5711 6.27463
753 6 16.0723 -21.5414 17.5655
3425 6 10.0354 -17.6562 5.95566
2687 1 8.79912 -17.9995 20.5002
3743 21 9.78346 -16.9506 10.1401
266 7 8.40221 -23.187 20.386
2580 6 10.3425 -16.9126 17.545
3255 7 16.9882 -19.694 6.58787
1029 7 16.4839 -20.5773 14.4962
3111 2 15.6828 -21.1215 5.81555
1354 7 12.7801 -23.6917 19.209
2777 7 11.1886 -16.687 15.5833
2783 7 16.7111 -16.816 15.9009
3426 6 11.5141 -19.5972 5.83113
3586 7 11.3867 -22.2657 5.95238
2854 7 8.47334 -16.5208 18.903
950 7 14.6612 -19.1524 20.605
3853 22 14.5362 -14.1088 -5.57799
372 6 11.3745 -8.98947 1.64929
2698 6 11.2236 -15.741 -5.94776
2552 6 16.4347 -9.71251 -8.25441
2702 6 11.2951 -13.3305 -5.4256
2712 6 12.1472 -9.41821 -6.67054
2866 7 9.2298 -12.7951 -1.34425
567 16 10.1194 -14.1258 3.79337
3497 7 13.9936 -13.5511 1.45591
321 7 9.94708 -11.8319 -8.31299
2772 7 13.1509 -14.7768 -8.9193
381 19 11.9629 -11.5625 1.16678
2572 6 15.2303 -14.9108 -8.86155
847 6 16.2818 -11.4038 3.49962
2706 6 12.0896 -13.0557 -6.56124
3286 6 16.7489 -14.1515 1.30243
716 7 10.1692 -11.1918 4.2007
2862 7 10.1398 -11.722 -2.75135
845 6 14.3608 -9.95252 3.34165
2865 7 9.93248 -14.3369 -0.828805
2771 7 15.3091 -14.616 -7.78515
3287 6 15.7317 -14.7395 2.09001
2703 6 10.9205 -12.2182 -4.60747
2564 6 16.2984 -9.05689 -5.83582
2705 6 12.0003 -10.6938 -6.11474
842 15 14.5089 -11.4291 5.1288
1006 7 13.4544 -9.56348 3.80521
3495 10 15.9528 -11.4762 -1.88704
844 6 14.7942 -9.32343 2.23186
3852 21 14.475 -13.3596 -4.69436
849 6 16.5922 -9.11266 0.478639
2695 6 9.89839 -16.2254 -3.65874
3298 6 13.7737 -15.8538 -0.222602
2700 6 9.9398 -13.867 -3.06167
848 6 16.722 -10.8008 2.33204
382 16 13.1333 -11.6609 -1.03728
2864 7 12.8901 -11.6318 -7.87228
3296 6 13.5796 -15.6752 1.12554
367 6 12.873 -10.3369 -1.41733
843 6 15.0786 -10.9521 4.03268
2714 6 8.82044 -10.3226 -4.42449
2704 6 11.1091 -10.8989 -4.98162
3498 7 13.6671 -14.6313 2.86873
3493 7 15.0402 -15.6923 3.79385
2707 6 12.481 -11.7962 -6.86541
720 9 11.0798 -13.9783 3.94171
578 7 13.8628 -10.4879 -3.32337
366 6 12.1943 -9.45036 -0.53897
2699 6 10.8519 -14.6642 -5.09189
584 9 12.4009 -12.1102 -0.555076
3295 2 14.2513 -14.5638 1.84478
2697 6 10.1113 -14.9093 -3.92746
2863 7 12.4958 -13.8077 -7.24043
2868 7 12.7811 -9.25253 -7.59369
3284 6 16.5521 -13.2129 0.25991
2701 6 10.2068 -12.557 -3.46783
3509 9 14.6858 -14.1818 -0.284367
371 6 11.9043 -9.88536 0.761254
3492 7 15.5473 -12.7085 0.0972184
564 1 9.25396 -13.2654 4.58014
2709 3 9.34604 -13.867 -1.61336
565 2 9.84773 -11.9275 4.93481
2861 7 11.7129 -15.5901 -6.88555
583 10 11.9116 -11.9378 2.42783
3511 7 13.0446 -15.2516 -3.13976
3510 7 14.7532 -15.9078 -3.48161
715 7 9.25369 -13.7013 5.63007
2710 6 10.1046 -9.97607 -4.76275
713 7 8.17133 -12.6512 2.8411
3314 16 14.4632 -14.8774 -0.874471
3854 22 14.4137 -12.6106 -3.81083
2867 7 8.32357 -14.2423 -1.63029
846 6 16.0295 -9.69697 1.70329
2870 7 8.46873 -11.3103 -4.12055
580 7 11.1036 -9.34149 2.6336
320 7 8.85187 -13.8721 -9.33118
3315 3 13.6282 -16.1447 -3.32923
3288 6 15.9266 -15.5688 3.14916
323 7 10.353 -9.66391 -8.54042
168 6 9.37499 -9.48551 -9.00679
365 6 13.1811 -9.86396 -2.64326
1004 9 13.3767 -13.405 5.22996
717 7 10.8669 -12.2032 5.3304
165 6 8.91386 -11.8545 -8.8013
1007 7 16.9513 -12.2557 3.70391
3499 7 12.5476 -16.5162 2.82234
3269 9 16.269 -15.7861 -2.19101
3116 16 16.9281 -16.2697 -2.67552
163 6 8.48571 -10.5514 -9.19178
841 16 13.9889 -14.083 5.62451
3600 7 12.1512 -12.0835 11.9295
3597 7 14.3831 -16.1243 12.0561
1002 7 16.0172 -15.2374 7.07407
3603 7 13.0958 -10.0467 9.84005
3444 6 13.0565 -13.9728 11.5554
3442 6 12.3492 -13.6056 8.95835
2576 6 12.6317 -15.623 18.4586
837 6 16.1011 -14.212 6.9302
3594 7 8.58629 -14.9542 7.52051
2813 7 10.7213 -11.2134 16.8982
3675 22 12.7785 -10.4895 17.9756
3439 6 13.3644 -15.0301 10.6134
2550 6 16.3731 -9.38057 20.2346
3598 7 11.907 -13.5251 7.94843
3590 7 10.457 -15.06 8.08889
2808 7 8.78275 -14.3915 16.5214
3940 22 10.5495 -12.5701 14.0503
718 7 9.20866 -10.144 6.13093
3447 2 12.3893 -10.3256 9.04693
2636 6 9.10365 -9.94295 15.3224
3745 22 10.1353 -15.8766 10.4015
2578 2 11.3255 -15.3987 19.1502
839 6 16.5589 -11.481 6.37975
2565 19 16.3208 -10.3346 17.6743
3674 21 12.6549 -9.46156 18.4988
2634 6 8.38732 -9.42332 14.256
566 2 8.84247 -11.1816 5.80969
3599 7 13.3549 -14.0734 12.5887
3432 6 13.0679 -15.8635 8.36263
3437 3 8.52473 -15.8334 6.84277
3939 21 9.99825 -13.2045 13.2508
2504 7 16.3021 -10.6965 8.8934
2348 6 16.7343 -10.9987 9.92694
2776 7 10.7721 -15.2364 16.4517
3800 22 13.7658 -13.1163 17.142
3799 22 14.9728 -14.0553 15.3974
2507 7 15.8116 -14.2783 12.1881
3820 22 12.5581 -9.91865 14.814
3941 22 9.44708 -13.8389 12.4512
3611 7 14.3162 -9.30352 6.57238
2555 6 16.5506 -10.4641 19.3729
3443 6 12.0348 -12.6418 9.87193
3819 21 12.9124 -10.9736 14.4866
3602 7 10.565 -11.4102 8.69439
2505 7 15.5893 -12.8062 10.2128
2508 7 16.844 -14.6704 14.2959
2635 6 8.81443 -11.1791 15.8066
2811 7 9.93356 -9.38309 15.8722
2855 7 9.12271 -15.8701 20.463
2352 6 16.537 -13.5641 12.5911
2767 10 16.8049 -11.3338 16.9214
2638 3 9.76478 -11.7545 16.8169
719 7 8.51854 -11.7246 6.74676
3912 21 8.33763 -16.2787 13.2638
3798 21 14.3694 -13.5857 16.2697
3446 2 11.3041 -11.3262 9.52552
3821 22 13.2667 -12.0285 14.1592
2573 6 14.0552 -15.1443 20.4467
3429 6 10.7631 -15.8836 7.4189
2349 6 16.3373 -12.1322 10.6106
2774 7 11.0868 -14.9954 20.1561
3441 6 14.1377 -16.1207 10.957
1003 7 16.9629 -10.4977 6.06961
2814 7 9.96172 -12.8365 16.5941
3604 7 12.9178 -10.6494 8.13331
3445 6 12.3281 -12.839 11.2098
3601 7 10.8366 -10.8672 10.4513
2773 7 10.7576 -14.6622 18.5622
2571 6 13.8719 -15.5715 19.1002
3438 6 12.9371 -14.8481 9.27248
2815 7 9.34538 -11.7009 17.9229
2570 6 16.2728 -15.6346 18.9169
2568 6 16.3786 -15.0094 20.1904
838 6 15.1206 -13.5429 6.12664
2569 6 15.0222 -15.9184 18.3629
2581 2 11.1768 -16.1968 16.5848
840 6 15.406 -12.1406 5.90171
3609 7 12.4951 -9.30056 6.2891
3448 2 11.7003 -8.94247 8.7876
3605 7 11.2362 -9.06241 7.80825
2577 6 12.5797 -16.1018 17.1961
2347 6 16.8342 -12.3752 11.9197
3595 7 8.09811 -15.4485 5.8732
2764 7 16.7387 -12.527 18.9973
3431 6 12.1603 -16.1998 7.38633
2556 6 16.8298 -11.743 19.7914
164 6 8.36427 -12.9541 20.4219
1322 8 12.8364 -3.64533 -6.72193
1108 6 14.5867 -3.81733 -3.22135
1574 6 12.5212 -2.23018 4.1962
3647 22 9.16218 -3.89672 -6.29594
1739 7 11.9989 -4.75383 5.1012
1098 6 15.6246 -3.03496 -2.6447
375 6 10.7124 -6.67241 2.37812
581 7 10.6807 -4.59872 2.94719
2024 16 16.2631 -1.6317 4.52318
3646 21 9.98236 -3.46982 -5.59535
2869 7 11.3408 -7.40755 -6.70745
400 11 11.0965 -3.43775 0.668513
1106 6 14.0459 -1.97939 -6.41214
2763 7 15.3452 -6.74768 -7.00657
2766 7 16.1578 -8.27754 -5.07833
2871 7 9.20884 -6.68557 -5.7032
374 6 11.1539 -7.63544 1.39302
1324 9 12.5829 -4.08833 -5.6512
376 6 10.852 -5.29036 2.1131
594 8 11.4887 -2.94637 1.45307
1013 9 14.6711 -6.85337 -1.85154
1310 7 14.1547 -4.60177 -2.72347
582 7 11.917 -6.16206 -3.56547
607 7 10.9032 -4.43778 -8.74076
3648 22 10.8024 -3.04306 -4.89491
401 16 11.1476 -4.18776 -2.07752
377 6 11.1294 -5.86542 -0.24605
378 6 11.0405 -4.82885 0.796395
586 7 10.1014 -8.1616 3.69107
2416 9 17.0994 -4.86813 1.0427
1101 6 15.401 -1.40299 -4.42992
1128 11 13.2566 -2.85285 -7.16113
1733 7 13.5373 -4.04421 3.71624
596 9 11.0599 -4.31447 -2.98145
728 7 8.53516 -5.02397 -3.35668
384 6 9.34038 -6.29905 4.47823
585 7 11.3215 -7.10827 4.53827
1009 7 14.6174 -8.48697 -0.270652
1093 6 16.819 -2.4616 -0.650546
369 6 12.8104 -8.61964 -3.04465
1734 7 14.3936 -3.26955 1.5674
169 6 8.93358 -8.17107 -9.20451
373 6 11.3705 -7.22449 0.0583392
2554 6 16.0307 -8.8132 -7.23786
1005 7 14.24 -8.47409 1.83654
1572 6 13.3347 -3.02285 3.383
324 7 9.60679 -7.34866 -9.03628
3612 7 14.4107 -6.06163 5.30418
370 6 12.0459 -7.73798 -2.13073
380 6 11.6979 -6.42241 -2.50649
855 16 15.2861 -7.31286 -2.44591
587 7 8.37202 -5.45447 2.74337
1573 6 13.6953 -2.60183 2.09975
2713 6 11.2924 -8.45441 -6.24006
2716 6 9.2319 -7.69776 -5.26857
383 2 10.428 -7.11657 3.83063
2530 7 16.7687 -4.34402 -9.16255
1129 16 13.1379 -4.41794 -4.9576
1097 6 16.1575 -3.40333 -1.35763
379 6 11.3023 -5.45853 -1.60358
722 7 8.16044 -5.02607 -0.536238
629 7 8.18863 -2.12528 3.19857
2711 6 10.2286 -8.71086 -5.38304
1323 8 12.737 -2.45162 -7.96725
1105 6 14.527 -2.34102 -5.13102
1107 6 14.0781 -3.54308 -4.48088
2553 6 15.4965 -7.57634 -7.68966
595 8 11.4888 -3.18886 -0.215033
2549 6 15.4167 -7.23081 -9.00976
388 6 8.40012 -5.50538 3.80203
368 6 11.849 -8.14186 -0.804352
1577 6 12.2527 -2.65987 5.52039
851 6 15.7725 -8.4833 -0.444479
850 6 16.1931 -7.99746 -1.64741
1307 7 15.94 -4.34369 -0.921894
2158 7 16.7473 -4.00248 4.57987
2539 7 16.7405 -3.10276 -7.08258
3610 7 13.4472 -8.14856 5.41774
579 7 12.9811 -8.29349 -4.09871
1096 6 15.9417 -1.79923 -3.21627
3613 7 15.3585 -7.42266 5.61425
630 7 8.12818 -1.67941 1.39866
612 7 10.1973 -3.31302 14.1519
3460 3 15.0557 -6.47266 6.07992
402 16 9.85624 -7.4049 6.49862
433 3 10.7923 -1.45957 12.1375
3464 6 13.7209 -4.33784 13.0365
608 7 10.2404 -2.21014 19.6759
3468 6 13.8466 -3.96785 15.3757
3472 1 14.1148 -2.23103 17.6569
3621 7 14.4333 -4.18542 18.5702
3623 7 12.4808 -4.34822 16.8593
3473 2 14.5402 -3.72063 17.6373
2812 9 8.50416 -8.00323 12.781
3465 6 14.2744 -3.07267 12.7625
3461 6 14.4891 -3.61452 10.3694
613 7 10.3952 -3.10502 15.777
3480 16 14.9468 -3.75595 6.76507
434 5 8.09153 -4.81673 10.1355
403 3 8.15573 -7.73236 8.51425
3616 7 15.0345 -1.75343 11.2737
3466 6 14.5779 -2.72303 11.4511
422 2 11.1339 -4.24754 20.0927
1740 7 11.2351 -5.33415 7.32048
3453 6 13.3727 -7.64488 7.55221
3478 2 14.7947 -1.41953 18.8037
1582 6 11.5347 -4.32255 7.14943
3474 2 13.5298 -4.52018 16.7501
436 16 9.3878 -5.26771 10.0972
2503 7 16.5592 -6.73484 15.9565
610 7 9.55736 -6.09033 16.023
386 6 9.00661 -6.55889 5.81175
3617 7 13.3369 -5.82714 14.3591
1581 6 11.9497 -3.9727 5.91113
3614 7 15.9561 -5.9028 6.2429
619 7 10.7596 -2.42626 11.8234
3676 22 12.5314 -8.43366 19.0221
3633 9 14.3819 -4.10674 6.07282
3455 6 12.4812 -7.28898 11.1662
3449 6 12.6848 -7.83209 8.71464
417 6 8.45933 -3.57101 15.3953
424 3 9.40168 -6.22784 17.1457
3620 7 13.0487 -2.23784 17.8472
3452 6 14.2463 -5.50455 8.34677
3469 6 14.5276 -2.21672 13.8507
425 2 9.66163 -2.90025 15.0112
412 20 8.42627 -3.98729 12.8808
423 4 10.3586 -3.24417 19.41
3451 6 12.9394 -7.01069 9.79895
3631 7 15.8796 -1.53634 18.6499
609 7 9.90076 -7.1469 17.4135
2566 16 15.4587 -7.85228 18.5484
2768 9 14.6775 -7.22745 18.5687
597 9 9.82097 -7.39589 7.49689
419 4 9.56633 -3.74293 18.3063
1738 7 11.0186 -3.61563 9.15282
2637 16 8.77031 -8.19734 13.7354
605 7 11.3232 -6.28458 19.1761
1580 6 11.2615 -3.33973 8.08585
3450 6 13.7417 -5.83437 9.64388
420 4 10.8538 -5.3075 19.0728
3471 1 14.4187 -1.61964 16.2749
3630 7 14.5514 -1.9076 19.7998
3622 7 15.6481 -3.81169 17.2866
3456 6 12.7318 -6.3407 12.1059
418 15 8.68469 -2.89336 17.7314
3454 6 14.2433 -6.55988 7.39127
3470 6 14.284 -2.68295 15.1321
2551 6 15.7798 -8.12922 19.8611
3462 6 14.7095 -4.15899 8.0538
3624 7 13.766 -5.58617 16.8527
1579 6 12.1578 -1.69969 6.54142
600 7 9.15382 -7.58501 8.96247
421 4 9.90798 -5.10591 18.0546
3608 7 12.2266 -6.37448 13.0783
3458 6 13.5118 -5.19224 11.9352
620 9 9.43691 -5.88208 10.8484
3606 7 10.9452 -8.65698 9.54317
3457 6 13.9273 -4.89362 10.6717
3467 6 13.5197 -4.73308 14.3211
598 7 8.19003 -8.5862 7.82576
3607 7 11.8687 -8.21369 11.4672
2762 7 15.1247 -6.23108 20.6426
3459 3 13.4578 -8.71768 6.44226
611 7 8.34081 -6.35053 17.3421
3463 6 14.7532 -3.23597 9.03572
3615 7 15.1222 -2.23102 8.83437
606 7 12.2083 -3.94832 20.0372
1578 6 11.6227 -2.07757 7.74413
3619 7 15.4575 -1.33184 16.2299
1314 7 16.3087 2.01101 -6.43862
1115 6 12.3834 4.56864 -7.50796
1567 6 15.3908 0.497702 1.40987
1247 6 8.54423 -0.389405 -6.20095
625 8 10.4576 2.95602 5.42517
1249 6 10.3401 0.013521 -4.60739
1131 3 11.7359 3.96807 -3.71231
1428 7 8.30199 4.06491 1.92825
3841 21 11.2068 5.65688 0.141257
447 6 9.54495 1.95395 3.71797
1103 6 15.1237 0.199626 -6.24541
1326 7 12.0343 2.87367 -3.55451
1120 6 11.3293 5.49518 -7.70914
3550 7 14.8685 5.68081 1.06183
1116 6 14.1621 3.15148 -8.37497
448 6 8.89707 0.709101 3.75566
453 16 10.6394 2.12388 0.304063
1132 6 8.41275 5.2082 -4.69611
1328 7 12.3022 4.45593 -2.9671
1255 6 8.45742 -0.575901 -2.6062
1251 6 11.2191 0.103204 -5.7376
1327 7 10.6759 3.82219 -3.30345
1111 2 15.4652 1.50629 -6.97639
1576 6 12.116 -0.906595 3.71133
3389 16 13.0933 3.68345 1.88969
1256 6 10.8224 -0.366728 -3.29922
1104 6 14.4042 -0.746519 -6.93181
1118 6 11.7506 4.47573 -5.1764
450 6 10.1777 1.61759 1.47373
628 9 11.0657 2.94799 0.523177
1565 6 15.3115 2.31935 -0.828591
1246 6 9.44819 -0.107687 -7.29536
1102 6 15.722 -0.157229 -5.02667
1250 6 10.798 0.0466997 -7.01045
1130 16 13.9966 2.58382 -4.74562
3384 6 16.3114 5.32819 4.1173
1735 7 12.4039 0.533266 2.12555
452 6 9.51537 0.443026 1.51361
1248 6 8.98691 -0.049204 -4.89337
1112 6 14.335 2.56841 -7.10345
1076 7 15.4535 5.46428 -1.09618
3895 21 8.43164 3.75377 -1.36196
1575 6 12.6082 -0.442106 2.55711
1407 7 11.5133 0.259089 -7.87187
1408 7 12.2502 0.25771 -5.56064
1083 7 16.7355 4.57049 -5.6056
627 7 9.47252 -0.204094 0.633065
1308 7 16.7459 1.72051 -4.65157
1257 6 9.84279 -0.791548 -2.41189
1117 6 13.1987 4.10429 -8.58206
1121 6 10.5718 5.88876 -6.68687
3390 15 13.6564 2.74723 4.27182
1127 15 9.68104 5.70479 -4.45303
1732 9 13.2796 1.61552 -2.20518
3387 6 15.6287 4.2088 4.66559
3388 6 14.534 3.69703 3.90102
1329 7 9.07477 3.34018 -5.89273
1563 6 16.1135 2.34165 0.268483
1412 7 11.8685 -0.756542 -3.30142
1325 9 14.7476 1.99768 -4.85025
1113 6 12.5812 4.02158 -6.2292
1566 6 14.4561 1.19125 -0.723374
1134 6 8.25858 4.06434 -5.52223
1309 7 13.9746 -0.272206 -7.85745
449 6 10.2129 2.45683 2.62985
1570 15 13.6906 -0.804578 0.48308
1114 6 13.5805 3.02326 -6.00792
451 6 8.86155 -0.0481489 2.61495
3386 6 14.2459 4.17302 2.6
1071 7 14.6683 5.47275 -5.08033
1074 7 15.62 4.58531 -3.37595
3391 6 13.4458 2.73534 5.61057
1564 6 16.3031 1.61751 1.32472
1569 16 13.5274 0.834228 -1.69874
626 7 10.646 3.49044 2.57091
1243 6 8.99262 0.0580048 -8.58513
3385 6 15.0744 5.12725 2.01081
3554 7 13.6853 0.664946 5.64136
1568 6 14.468 0.358781 0.408191
1736 7 11.4194 -0.239624 4.24791
1730 7 15.2374 2.9836 -1.65429
3843 22 11.889 5.79145 -0.787174
3552 9 12.5533 3.22251 2.53434
2177 9 15.7837 -0.952817 4.04599
443 6 8.79962 0.330421 5.16515
1731 7 15.5342 -0.197262 2.21305
1119 6 10.6683 5.31579 -5.42972
925 2 16.3688 5.36084 -2.94391
1313 7 15.9399 1.37765 -7.96796
3842 22 10.5248 5.52225 1.06988
3383 6 15.8932 5.60399 2.91091
446 11 9.6042 2.5347 5.1049
1413 7 10.2774 -1.1374 -1.48305
2159 7 16.0029 0.758335 5.42334
3896 22 8.81025 4.84394 -1.47927
1100 6 16.5724 0.696175 -4.35175
1094 6 16.7347 -0.884249 -2.50375
1562 17 16.9821 3.49363 0.108628
3897 22 8.05322 2.6636 -1.2446
1079 7 15.6807 5.99488 -7.64395
1571 6 13.4066 -1.29049 1.73631
3551 7 15.7271 3.98694 5.74013
1254 6 8.10024 -0.0797458 -3.85738
1315 7 14.8129 2.78782 -9.18667
1122 2 11.1057 6.13666 -9.11852
454 3 8.05135 -1.32811 2.4324
1405 7 10.7107 1.20641 20.5241
3629 7 14.8816 0.622138 19.3871
1398 7 8.03794 4.65325 20.236
1240 6 8.1266 0.135907 18.6324
3555 7 13.2665 4.89074 5.90639
3632 9 13.3226 2.17948 18.3598
3397 6 13.0563 2.29044 9.75382
3479 16 13.6333 1.98687 17.4487
3557 7 11.3997 3.64725 9.84128
426 2 9.59263 -1.34651 14.9101
1402 7 11.3226 0.913857 18.1429
617 7 11.3578 -0.885117 11.4168
3833 22 14.6398 3.33836 15.1564
3395 6 13.1376 3.85778 6.34356
2172 7 14.7238 5.47887 13.1584
445 6 8.42748 -0.779231 5.83441
3625 7 12.4682 -0.497288 16.4066
3393 6 13.6334 1.5285 6.23866
1393 7 8.07366 2.7558 18.4889
1231 1 8.60759 4.84414 18.2926
428 6 8.55529 -0.683317 11.3622
495 2 12.1423 5.46943 14.8387
3627 7 15.2147 0.724037 17.0994
614 7 10.6174 -0.933432 14.8738
3831 21 15.6477 2.9335 14.7492
3832 22 16.6557 2.52863 14.3421
441 6 9.20101 1.41521 5.95413
2013 6 16.9953 3.53934 9.4017
3476 1 14.1853 0.642411 17.4156
3553 7 13.6414 0.360058 8.04726
1737 7 12.1449 -0.619023 6.35942
3398 6 11.5644 2.33472 11.6121
3392 6 13.4722 1.33736 7.57897
473 6 9.86403 5.68373 6.15098
3401 6 13.9562 1.39643 10.5224
3403 16 10.4568 2.92903 12.1695
1394 7 8.87214 3.37376 15.5843
654 7 12.1225 4.32666 14.9966
3618 7 14.912 -1.1788 13.6958
455 16 9.66662 2.5721 7.9553
1317 7 11.6036 5.66554 19.9592
1403 7 10.0496 0.828909 16.8684
618 7 11.3467 -1.44296 13.0932
1401 7 10.7474 3.21066 18.7498
3400 6 12.2773 1.3059 12.1895
438 15 9.13619 -0.637496 10.0963
1236 2 10.2144 2.80871 17.8485
632 9 9.89888 3.29936 7.35521
2170 7 15.305 5.56616 9.49531
1237 2 10.3192 1.28638 17.9096
442 6 9.19726 1.42359 7.34084
439 2 8.30844 0.284707 9.33646
2007 6 16.7453 0.174073 6.03373
3560 7 13.9715 0.218899 12.3547
444 6 8.19345 -0.752946 7.17811
653 7 13.2337 5.71948 14.5795
468 6 8.21569 5.74445 11.4882
615 7 9.14992 -0.965004 15.8527
3556 7 12.8392 4.52712 8.38854
496 4 11.1186 5.76581 13.7434
1238 6 9.36081 0.638676 18.9574
2169 7 14.8201 4.50517 10.9103
3559 7 14.8564 0.915269 10.1029
466 6 8.96531 5.84577 9.33737
3628 7 13.2654 0.0175967 19.3655
1242 6 9.78525 0.671999 20.2739
1400 7 10.6565 3.16097 16.9237
2019 2 15.3774 5.39394 10.5929
3626 7 13.7581 0.263404 15.3399
3399 6 11.9491 2.89695 10.3735
2160 7 16.2394 2.40997 7.0809
3396 6 12.9517 3.70781 7.6594
3402 6 13.4795 0.881967 11.7092
3475 2 13.5963 -0.327229 16.2817
2015 1 16.8838 5.386 10.905
1392 7 9.24433 5.37991 17.6628
2164 7 16.7058 4.7023 12.8053
3558 7 11.8775 1.04074 13.1488
655 7 11.2252 5.45841 12.7334
429 6 9.38241 -0.984736 12.441
427 6 8.82955 -0.924207 13.7203
3561 9 10.3473 2.57474 13.0008
3394 6 13.1162 2.46322 8.34231
3477 2 14.2771 -0.00150754 18.8424
1232 1 8.78041 3.35311 17.8338
1806 7 16.8286 4.09461 19.668
1316 7 13.1208 4.46961 20.2444
470 17 8.7609 5.33816 8.02508
1235 2 8.98008 4.93528 19.7386
1807 7 16.0423 5.13183 17.7266
1741 9 11.5246 -0.397083 8.40415
1233 2 8.12566 3.13629 16.4374
1656 1 16.5242 5.78676 18.4281
2162 7 16.3157 4.04501 8.78025
1583 16 11.6489 -1.21096 8.79182
471 6 9.91913 6.09034 7.42428
1399 7 9.64662 4.14447 20.1031
638 7 8.91668 5.1802 5.89611
440 6 8.69484 0.288325 7.9038
2010 6 16.9879 1.81785 7.66283
621 7 8.26959 1.25957 9.82325
1812 9 14.837 5.66875 19.401
907 6 10.8684 9.15626 1.44288
3371 6 15.6682 11.3249 1.01811
474 6 10.9466 6.34806 5.50421
1125 2 9.55482 6.94513 -7.02416
902 6 10.2309 10.756 -0.207321
906 6 8.63618 12.4884 0.328961
1055 7 9.75444 11.6539 4.2645
915 6 9.86097 11.2594 -2.92386
1172 6 8.37257 10.2646 -7.2399
1124 6 8.8356 6.46984 -8.24867
3575 7 15.3022 10.4175 2.99316
920 6 14.7059 7.05861 -2.30972
908 6 11.8936 8.64806 0.66761
478 15 13.0026 7.65792 5.59514
1171 6 10.3889 11.3279 -8.00187
3414 2 14.7816 11.061 2.20628
918 6 11.5062 9.43802 -3.35923
899 2 9.49299 10.5787 4.37034
1359 7 14.1296 9.82625 -6.54095
1318 7 11.4578 7.19344 -9.01778
1078 7 14.1463 7.56869 -6.3402
733 6 14.1393 12.0396 -4.15801
1357 7 12.4974 9.28167 -6.8283
3412 1 13.1215 12.9055 1.38829
3373 6 15.13 12.1183 0.00225368
900 2 8.60728 10.1351 3.21211
3571 7 13.0672 12.1079 -0.62807
910 6 12.0382 9.14784 -0.627487
904 6 9.36251 11.7723 -0.615005
1320 7 8.96384 7.10206 -6.17321
744 6 12.3721 13.5429 -4.84208
1169 6 9.6865 11.834 -9.14611
923 1 15.1129 6.48738 -4.80617
1182 3 13.0986 10.1938 -6.51417
1321 7 10.1387 7.86433 -7.28768
3570 7 13.9162 13.7465 -0.537191
1060 7 12.4843 7.80369 1.20395
1296 16 8.14778 6.82501 1.30948
928 1 16.1744 6.89209 -7.15318
1057 7 8.68239 9.09974 3.1872
3413 1 14.1563 12.4212 2.49629
3580 7 14.1241 11.9404 4.53975
931 16 16.3984 7.86557 -8.15044
903 6 10.1019 10.2947 1.08324
3574 7 14.0673 10.3501 1.83565
922 6 14.332 7.18668 -3.71066
1068 7 11.2542 9.47795 -4.4165
3382 17 16.5574 6.7536 2.25212
1070 7 12.7906 7.87366 -4.98672
1352 7 10.1441 10.2872 -6.13021
3572 7 12.3761 12.1457 1.3858
921 6 13.2089 7.92513 -4.0146
3581 7 12.5438 11.5169 3.75752
1059 7 10.7453 8.66133 2.45548
1173 6 9.69769 10.6593 -7.01188
913 6 10.759 10.2257 -2.42204
1077 7 15.626 8.32241 -5.76133
905 6 8.39877 11.9453 1.58066
909 6 11.0614 10.045 -1.07036
1449 9 8.75275 7.58517 1.40529
901 6 9.07724 10.8054 1.93666
729 6 15.4262 11.5524 -4.33745
1358 7 12.7388 10.5319 -5.55155
1176 6 11.7601 11.7115 -8.25837
1178 6 14.117 12.7957 -9.22957
919 6 14.0489 7.7408 -1.31963
1180 6 14.0899 11.8653 -8.19375
916 6 12.879 8.50917 -1.59498
3573 7 15.0197 13.1106 2.60699
926 2 15.8404 6.19687 -1.77094
917 6 12.5434 8.64106 -2.99716
1355 7 15.0306 11.5399 -7.78311
943 7 13.469 11.5548 -3.49097
1067 7 9.77805 11.3263 -4.03636
1179 6 12.986 11.2647 -7.66106
3369 6 16.8901 10.7287 0.934297
942 7 15.7893 10.6405 -3.93033
1069 7 14.3936 7.68068 -0.301851
3418 2 13.3932 12.2839 3.79038
1056 7 10.3342 9.91294 4.33148
731 6 16.2769 12.1497 -5.22898
1075 7 16.6749 6.82822 -1.37924
927 2 15.185 7.38925 -6.04663
914 6 9.10262 11.9132 -2.01356
640 9 11.865 6.82994 3.78154
3577 7 10.8934 13.6321 3.14991
3372 6 15.9446 12.3224 -1.05502
3411 2 13.7361 12.7817 -0.033401
946 7 11.6571 13.0641 -4.21961
730 6 15.9584 13.4123 -5.77205
3546 7 15.4842 13.0048 -1.87946
734 6 13.7764 13.1543 -4.89927
3579 7 12.0304 13.2452 5.09381
3417 2 12.6694 13.5379 4.2489
477 16 11.1837 6.17937 4.11304
924 1 16.588 6.20366 -4.24415
1062 7 7.88746 12.553 3.64955
3582 7 11.2969 13.7676 -0.0954334
1053 7 8.19653 9.35789 5.53744
2787 7 8.20255 13.1866 17.225
1360 9 8.39316 11.8741 18.594
651 7 9.10824 8.31427 13.3674
2793 7 8.10036 10.2072 14.2554
3866 22 12.9269 9.24906 10.4803
937 6 14.1847 11.1707 14.7664
2021 2 14.989 6.50407 12.7801
1042 7 8.76146 11.9486 9.60485
1659 16 15.5797 6.2989 19.3428
898 2 8.77664 10.2714 5.73426
641 7 16.4229 7.18637 8.34131
934 6 13.6112 10.3773 17.2649
1090 7 10.729 11.4595 17.3117
2171 7 14.7625 7.44896 10.9006
475 6 11.7475 7.34738 7.67046
491 16 16.2772 12.3041 11.7602
1046 7 8.82268 10.5931 11.1528
935 6 12.5786 10.7127 16.455
888 18 11.4442 11.4751 14.0862
1045 7 9.09912 10.958 12.7714
939 4 11.6653 9.83513 18.419
2173 7 14.329 7.314 13.1709
479 6 14.0299 8.17137 6.29989
469 6 9.13486 6.69863 11.802
1170 6 8.42236 11.2806 20.4785
1092 7 13.5596 9.2699 19.3181
877 6 11.2058 13.0011 11.7812
493 2 9.03997 7.21369 13.2749
1698 7 16.7014 12.4476 18.2461
1047 7 10.4171 10.122 11.9789
894 6 8.68493 12.2471 7.09252
643 7 13.5224 10.1463 5.76838
1089 7 11.0477 9.66171 19.2458
1181 16 15.249 13.4234 20.1478
465 6 9.9646 6.68763 9.52858
1087 7 14.5418 11.5448 13.8379
933 6 12.8169 11.109 15.1667
1050 7 9.7535 11.9182 7.31986
494 4 10.1871 6.72853 14.1288
941 4 13.0917 9.73512 18.4133
3892 21 12.3789 11.6623 8.44193
652 7 8.09204 7.05156 13.8158
645 7 15.7138 11.6314 9.21764
881 6 9.56313 12.5555 10.0794
1088 7 16.318 11.0469 15.1809
657 7 9.76995 7.71268 16.0554
890 6 8.20032 13.3671 7.74246
498 4 10.4749 7.12186 15.4803
472 6 10.6407 6.75978 8.32674
2023 16 13.1932 6.21762 11.1392
484 6 15.2678 10.1263 7.01884
1091 7 10.5407 9.91541 16.4864
3864 21 13.5934 9.76217 11.2792
1086 7 15.7204 9.9072 17.3918
880 6 10.1974 12.2065 11.2271
1174 11 10.4959 12.5949 19.8363
1054 7 9.56225 9.91906 6.4356
644 7 15.3114 11.2027 7.19798
3865 22 14.2599 10.2751 12.078
3893 22 11.5082 11.5082 7.69133
940 2 11.2054 10.5298 17.1167
936 6 14.9581 10.434 16.8762
1175 6 11.7441 12.5367 20.4322
2174 7 16.6681 6.98547 13.9356
3894 22 13.2499 11.8162 9.19253
481 6 14.89 7.40612 6.98799
637 7 10.6799 7.97562 11.201
467 6 9.98183 7.14846 10.877
2020 1 14.5807 6.4631 11.3588
476 6 11.8971 7.12057 6.30407
482 6 16.1046 9.34198 7.88621
480 6 15.9057 7.91515 7.75794
483 6 14.2464 9.54864 6.3233
1319 7 9.50036 7.07279 19.7023
656 7 11.8456 6.30954 17.0132
938 6 15.2821 10.9047 15.607
639 7 12.3732 7.96341 8.30406
889 3 9.71186 10.9303 11.8191
954 7 16.857 13.5032 15.8766
487 6 16.5151 11.0553 9.66285
1809 7 16.5744 7.59633 17.163
875 6 11.8661 12.802 13.0216
1353 8 10.397 12.5361 18.8741
1177 6 12.8921 13.0941 19.9571
485 6 16.9928 9.9328 8.89427
1699 7 16.8993 11.2186 19.462
1123 1 9.62789 6.19443 20.3685
2022 2 16.4557 6.82521 12.8633
649 9 15.7836 12.9115 11.1053
1040 7 13.2793 13.6112 14.5473
486 6 16.837 11.2644 11.0354
2795 7 8.23824 9.18287 15.6694
497 4 11.5555 6.29182 15.9353
2176 9 12.7121 7.03079 11.245
642 7 14.6768 6.35225 6.94265
1368 9 8.16898 8.83414 9.87856
2175 7 16.6926 7.7906 12.269
876 6 12.8309 13.7122 13.5347
