LAMMPS (22 Jul 2025 - Update 1)
# Step 3: NPT cooling from 1000K to 700K at 100 bar for 5 ns

units real
atom_style full
boundary p p p

# PCFF Force Field
pair_style lj/class2/coul/long 12.0
bond_style class2
angle_style class2
dihedral_style class2
improper_style class2
kspace_style pppm 1e-4
pair_modify mix sixthpower

read_data step02_final.data
Reading data file ...
  orthogonal box = (-18.125105 -25.42796 -12.687338) to (16.306085 15.200552 24.059996)
  2 by 5 by 4 MPI processor grid
  reading atoms ...
  3640 atoms
  reading velocities ...
  3640 velocities
  scanning bonds ...
  4 = max bonds/atom
  scanning angles ...
  6 = max angles/atom
  scanning dihedrals ...
  21 = max dihedrals/atom
  scanning impropers ...
  4 = max impropers/atom
  orthogonal box = (-18.125105 -25.42796 -12.687338) to (16.306085 15.200552 24.059996)
  2 by 5 by 4 MPI processor grid
  reading bonds ...
  4020 bonds
  reading angles ...
  7100 angles
  reading dihedrals ...
  11170 dihedrals
  reading impropers ...
  3110 impropers
Finding 1-2 1-3 1-4 neighbors ...
  special bond factors lj:    0        0        0       
  special bond factors coul:  0        0        0       
     4 = max # of 1-2 neighbors
     9 = max # of 1-3 neighbors
    24 = max # of 1-4 neighbors
    27 = max # of special neighbors
  special bonds CPU = 0.003 seconds
  read_data CPU = 0.304 seconds

neighbor 2.0 bin
neigh_modify delay 0 every 1 check yes

timestep 0.5

thermo_style custom step temp press vol density etotal
thermo 5000
thermo_modify flush yes

# ---------- Trajectory output ----------
dump traj all atom 10000 step01_trajectory.dump
dump_modify traj sort id

# Write restart files every 200,000 steps (~100 ps)
restart 50000 step01_restart_*.bin

# NPT with linear temperature ramp
fix npt3 all npt temp 1000.0 700.0 200.0 aniso 98.6923 98.6923 1000.0 pchain 3

# Run for 5 ns (10,000,000 steps)
run 2500000
PPPM initialization ...
  using 12-bit tables for long-range coulomb
  G vector (1/distance) = 0.16486539
  grid = 8 8 8
  stencil order = 5
  estimated absolute RMS force accuracy = 0.015894463
  estimated relative force accuracy = 4.7865702e-05
  using double precision KISS FFT
  3d grid and FFT values/proc = 441 16
Generated 190 of 190 mixed pair_coeff terms from sixthpower/sixthpower mixing rule
Neighbor list info ...
  update: every = 1 steps, delay = 0 steps, check = yes
  max neighbors/atom: 2000, page size: 100000
  master list distance cutoff = 14
  ghost atom cutoff = 14
  binsize = 7, bins = 5 6 6
  1 neighbor lists, perpetual/occasional/extra = 1 0 0
  (1) pair lj/class2/coul/long, perpetual
      attributes: half, newton on
      pair build: half/bin/newton
      stencil: half/bin/3d
      bin: standard
Per MPI rank memory allocation (min/avg/max) = 18.11 | 18.13 | 18.51 Mbytes
   Step          Temp          Press          Volume        Density         TotEng    
         0   996.62009      2857.7166      51405.404      0.92401448     38102.37     
      5000   987.34027      960.08404      51904.625      0.91512728     38036.505    
     10000   980.93842      425.32874      49713.111      0.95546902     37479.91     
     15000   976.37554     -1414.321       51231.22       0.92715608     37474.031    
     20000   988.85089     -732.59844      50532.104      0.93998338     37843.19     
     25000   989.78809     -637.27691      52472.666      0.9052206      38009.626    
     30000   990.49038     -264.46145      51310.901      0.92571631     37874.957    
     35000   982.35433     -658.07285      50600.475      0.93871329     37737.851    
     40000   977.57319      1324.4242      51282.838      0.92622288     37762.009    
     45000   966.56982     -462.92328      50671.165      0.93740371     37326.724    
     50000   988.70718      1669.9842      54341.659      0.87408701     37641.791    
     55000   984.63834     -1381.7974      52273.453      0.90867036     37777.073    
     60000   1000.6802      1127.6969      53701.829      0.8845013      38188.882    
     65000   1002.6393      724.41248      52007.307      0.91332046     38186.429    
     70000   973.36197     -1446.852       51263.445      0.92657326     37472.285    
     75000   964.72653     -2779.5278      53028.428      0.89573347     37496.452    
     80000   954.15674     -1915.0155      53080.327      0.89485766     37543.339    
     85000   993.9036       4730.4812      52248.871      0.90909787     37767.108    
     90000   966.80671      1849.666       55887.149      0.84991521     37909.603    
     95000   987.2615      -1281.7921      51901.747      0.91517801     37791.828    
    100000   994.57512      739.72536      52812.172      0.89940134     37707.55     
    105000   1007.9623      2342.6912      53035.788      0.89560916     38081.06     
    110000   992.32624     -288.84547      53249.078      0.89202179     38090.352    
    115000   988.57997     -1459.2067      54599.141      0.86996493     37770.843    
    120000   977.15976      2534.9408      51605.467      0.92043227     37630.417    
    125000   971.41974      135.92228      52076.394      0.9121088      37632.481    
    130000   992.21906     -544.46474      51902.111      0.91517159     37605.209    
    135000   980.35438      1869.1638      54051.93       0.87877228     37870.792    
    140000   993.12988      2624.8828      51602.914      0.92047782     37828.359    
    145000   1000.418      -141.68224      51142.338      0.92876743     37981.564    
    150000   989.32937      607.75648      53552.898      0.88696111     37998.532    
    155000   970.53564     -716.76795      53742.094      0.88383861     37591.026    
    160000   963.25428     -2570.7752      52471.244      0.90524513     37484.535    
    165000   995.88689     -18.543018      51382.264      0.9244306      37702.516    
    170000   983.42447     -1644.3409      53467.866      0.88837168     37685.565    
    175000   974.58626     -2249.5642      52620.891      0.90267072     37887.742    
    180000   992.06938      976.60533      50251.45       0.94523318     37983.731    
    185000   974.28362     -1769.8544      52333.438      0.90762885     37727.632    
    190000   979.45003      1049.5974      52136.651      0.91105464     37616.688    
    195000   956.64518      1669.3679      54258.022      0.87543437     37709.656    
    200000   962.99844      1403.2369      54529.758      0.87107186     37798.465    
    205000   992.87212      3523.9924      55434.137      0.85686077     37923.469    
    210000   992.44977      2208.348       52740.214      0.90062845     37843.228    
    215000   952.27323     -498.55352      51980.087      0.91379873     37299.84     
    220000   957.9274      -2020.3477      51949.032      0.914345       37516.605    
    225000   986.92059      689.66757      51601.411      0.92050462     37556.843    
    230000   993.11895     -2695.5313      54932.936      0.86467866     37909.037    
    235000   978.76375      564.67498      54364.439      0.87372073     37657.878    
    240000   989.78698      1436.5518      53028.705      0.89572879     37659.158    
    245000   971.88443      1140.1048      52341.499      0.90748905     37383.406    
    250000   970.14215     -735.32161      55344.837      0.85824334     37215.798    
    255000   985.78235      584.66997      54167.458      0.87689804     37651.228    
    260000   982.81991     -1414.2511      54980.216      0.86393508     37531.487    
    265000   983.48742     -776.27422      51525.471      0.9218613      37537.14     
    270000   938.95553     -0.7841551      53189.218      0.89302568     37216.043    
    275000   971.96249      109.52999      51682.685      0.91905708     37441.322    
    280000   971.30828     -2484.9306      50414.931      0.94216806     37783.397    
    285000   948.72492     -182.02323      50483.353      0.94089111     36927.567    
    290000   973.32778     -61.035622      49171.204      0.96599908     37087.43     
    295000   985.48279      1661.0488      51308.006      0.92576853     37464.045    
    300000   970.97043      2605.48        49436.92       0.96080698     37355.56     
    305000   954.61746     -174.85659      51318.184      0.92558493     37222.302    
    310000   957.72595      475.84293      50577.449      0.93914063     37114.484    
    315000   959.00607     -943.51179      48992.214      0.96952829     36997.977    
    320000   949.87159     -2708.1845      49907.536      0.9517468      36934.546    
    325000   951.80667      326.88152      50973.167      0.93184985     37089.277    
    330000   950.69088     -1612.9152      50984.239      0.93164748     37066.898    
    335000   961.24304      1632.7452      51386.828      0.9243485      37246.718    
    340000   952.15019     -165.08901      49111.775      0.96716802     37077.586    
    345000   997.5908      -1357.4249      48790.268      0.97354123     37319.66     
    350000   965.70831     -201.97716      49859.695      0.95266002     36984.86     
    355000   971.59265     -3776.3479      50593.786      0.93883738     37371.067    
    360000   965.997       -1185.3694      51644.937      0.91972883     37171.921    
    365000   972.16133      474.15239      53207.397      0.89272056     37310.008    
    370000   955.06171      394.95528      51876.939      0.91561566     37331.723    
    375000   959.38889      1084.8654      50627.68       0.93820886     37094.259    
    380000   968.91699      3936.2359      52226.032      0.90949544     37271.951    
    385000   957.005        1417.0273      50614.887      0.93844599     36928.033    
    390000   951.86758      590.74583      49886.978      0.95213902     37121.648    
    395000   965.12638      1069.738       49638.627      0.95690273     37138.371    
    400000   939.05073     -1528.8944      50463.812      0.94125545     36693.698    
    405000   936.83831      23.760003      48941.692      0.97052912     36512.954    
    410000   941.33913      982.02681      48712.641      0.97509264     36867.279    
    415000   953.66148      121.05908      50563.555      0.9393987      37070.635    
    420000   965.60351     -288.91812      49116.048      0.96708388     37301.043    
    425000   965.82604     -1149.5565      48532.112      0.97871977     37093.646    
    430000   957.62282      59.458693      49834.971      0.95313265     36990.796    
    435000   959.96165      1123.9185      51741.955      0.91800432     37222.55     
    440000   960.61129      1106.0003      50427.995      0.94192398     37056.596    
    445000   939.0329       2183.5694      49727.604      0.95519056     37005.28     
    450000   914.51649     -703.15441      49043.034      0.96852364     36448.147    
    455000   934.93904      1664.3449      50176.783      0.94663976     36768.195    
    460000   944.88903      827.07121      47546.659      0.99900474     36791.514    
    465000   940.11895      803.18869      49056.659      0.96825463     36788.378    
    470000   952.43558      1191.5958      51095.089      0.92962629     36870.924    
    475000   947.76615     -240.51205      52614.388      0.9027823      36545.195    
    480000   927.08351     -589.96169      52176.453      0.91035965     36791.424    
    485000   922.30389      3418.8234      51709.586      0.91857896     36731.644    
    490000   973.4062      -1159.3126      50674.574      0.93734065     37166.583    
    495000   958.81746     -1374.2036      51442.971      0.9233397      36937.348    
    500000   938.35843     -1390.4443      51236.206      0.92706586     36869.276    
    505000   939.04986     -2630.7494      50409.875      0.94226256     36627.906    
    510000   944.32977      791.95403      50643.392      0.93791778     36924.773    
    515000   918.82783      991.51705      49654.227      0.95660209     36343.199    
    520000   944.76146     -1684.0659      49676.051      0.95618184     36787.226    
    525000   932.52923      1840.3416      50077.653      0.94851366     36762.971    
    530000   954.20782      1232.8585      49115.693      0.96709085     36729.792    
    535000   930.97008      680.74266      50182.526      0.94653142     36581.873    
    540000   918.7438      -1179.0496      49612.839      0.95740012     36517.627    
    545000   909.80383     -685.70068      49375.018      0.96201156     36429.914    
    550000   919.07391     -1187.4776      50067.194      0.9487118      36331.49     
    555000   915.34843     -2720.2398      51344.03       0.925119       36389.222    
    560000   916.82711      3744.4339      49489.409      0.95978794     36393.045    
    565000   924.71398      2698.8238      48051.975      0.98849918     36333.898    
    570000   938.1593       2953.5192      49455.994      0.96043642     36467.772    
    575000   936.04548     -3451.711       49221.451      0.96501294     36295.039    
    580000   935.40803      1401.9806      49492.343      0.95973104     36525.267    
    585000   931.77028     -472.74946      48576.783      0.97781974     36219.451    
    590000   962.37714      2324.3686      48295.62       0.98351233     36689.924    
    595000   945.79316     -1869.0165      49612.115      0.95741409     36766.75     
    600000   933.69953     -1429.5854      49227.705      0.96489035     36656.377    
    605000   937.16871     -349.56263      49221.882      0.96500449     36628.42     
    610000   925.77861     -1381.9653      49785.541      0.95407897     36360.499    
    615000   917.04089      1029.711       48861.408      0.97212381     36245.675    
    620000   921.1798       298.65892      49887.194      0.95213489     36266.083    
    625000   921.56431      2761.366       48417.454      0.98103749     36187.709    
    630000   904.40418     -4144.2028      48462.154      0.98013261     36239.805    
    635000   935.11566     -410.28531      50836.881      0.93434799     36478.729    
    640000   944.71779     -2138.2606      49049.936      0.96838736     36787.011    
    645000   937.347        948.07253      48518.346      0.97899746     36627.394    
    650000   933.18082     -1902.6886      50404.177      0.94236907     36599.188    
    655000   915.62269      2838.2369      50275.535      0.94478035     36323.405    
    660000   918.40876      1120.6883      51426.541      0.92363471     36484.687    
    665000   911.65736      2065.1122      49392.259      0.96167575     36264.765    
    670000   914.09626      2211.8589      50584.481      0.93901008     36444.516    
    675000   927.74332     -929.55773      50864.494      0.93384076     36480.223    
    680000   932.35625     -1886.1133      50456.252      0.94139647     36611.058    
    685000   926.34723     -1334.4292      49169.307      0.96603635     36519.591    
    690000   915.14137     -1077.6161      50426.099      0.94195939     36261.087    
    695000   916.56388      1639.1926      49175.874      0.96590733     36157.018    
    700000   909.16402     -1181.3302      50418.151      0.94210788     36221.664    
    705000   927.81045     -2290.9326      50162.889      0.94690195     36368.952    
    710000   919.57698      562.60675      49704.062      0.95564297     36201.973    
    715000   925.96318     -3142.1504      51239.963      0.9269979      36277.296    
    720000   894.11684      1399.7716      50043.779      0.94915569     36284.949    
    725000   927.50244     -2187.8238      50737.728      0.93617392     36204.173    
    730000   925.79554      3787.9447      50344.087      0.94349388     36228.663    
    735000   931.75185     -1390.1478      50642.671      0.93793113     36214.934    
    740000   923.97669      636.05781      48917.343      0.97101222     36060.869    
    745000   892.3028      -942.31363      49741.339      0.9549268      36059.908    
    750000   905.90351      1107.9934      49893.876      0.95200736     36069.889    
    755000   904.71952      1086.0006      49846.905      0.95290445     36157.262    
    760000   916.3177      -872.21889      49676.547      0.95617228     36101.221    
    765000   909.75455     -329.77701      49459.064      0.9603768      36140.634    
    770000   894.32275      534.03104      49831.629      0.95319657     35957.26     
    775000   904.06783     -2173.7038      49777.816      0.95422703     35811.417    
    780000   899.85673     -2899.0289      49898.035      0.95192803     35572.757    
    785000   924.77691      768.62628      51040.69       0.93061708     36301.716    
    790000   915.43397     -478.67407      49485.591      0.95986199     35918.682    
    795000   914.36003      2183.9706      48666.326      0.97602062     36008.614    
    800000   903.62839     -387.41023      49197.387      0.96548497     36149.039    
    805000   896.68656     -729.01744      49820.352      0.95341232     36048.766    
    810000   921.69204      219.08546      50463.715      0.94125725     36150.519    
    815000   910.70469      518.21402      51520.583      0.92194875     36164.829    
    820000   920.97698      438.71618      49772.404      0.95433079     36005.68     
    825000   904.47044      403.55026      50199.277      0.94621558     35977.158    
    830000   891.34146      2752.4392      47129.391      1.0078496      35762.072    
    835000   886.14512     -750.60792      48023.561      0.98908405     35592.845    
    840000   873.59332      1255.8823      49651.735      0.9566501      35647.931    
    845000   881.37922     -2243.6813      51038.865      0.93065036     35700.055    
    850000   897.25472      359.80323      50330.299      0.94375234     35892.866    
    855000   903.86899     -653.08386      48628.544      0.97677895     35877.046    
    860000   886.62896     -732.32329      48428.454      0.98081466     35429.936    
    865000   893.35033      2730.6769      48252.411      0.98439305     35496.181    
    870000   905.51364     -2658.0478      50441.157      0.94167819     36024.234    
    875000   893.25915      1240.103       50035.119      0.94931998     35858.305    
    880000   887.20477      340.28452      49804.901      0.95370811     35728.061    
    885000   897.8528       1711.8119      48431.226      0.98075853     35699.473    
    890000   892.05054      204.92459      49356.729      0.96236803     35767.493    
    895000   908.57036      2660.3185      49657.642      0.95653631     35982.489    
    900000   901.39475     -567.95924      48934.412      0.97067352     35692.574    
    905000   887.55539      1964.6551      49858.03       0.95269182     35538.164    
    910000   872.15547     -1268.8918      49060.28       0.96818318     35507.942    
    915000   891.64917      158.98498      49166.326      0.96609493     35569.183    
    920000   884.14175     -2681.7787      48443.309      0.98051389     35508.527    
    925000   897.09342     -2038.4987      48214.045      0.98517636     35588.457    
    930000   881.53055     -2119.9304      49730.423      0.95513641     35720.771    
    935000   890.85054      5170.5398      47633.873      0.99717563     35705.031    
    940000   875.45359      1510.2279      47253.204      1.0052088      35100.545    
    945000   872.07773      340.58463      48593.129      0.97749082     35065.424    
    950000   884.74676      362.08048      49431.296      0.96091629     35474.552    
    955000   883.94339      46.303868      48402.87       0.98133309     35300.083    
    960000   898.39277      1669.2249      48586.499      0.97762421     35368.228    
    965000   886.6848      -2409.0594      48692.797      0.97549002     35392.181    
    970000   871.21104      102.43406      48410.957      0.98116915     35430.874    
    975000   901.78973     -1359.8636      48178.676      0.98589961     35815.842    
    980000   883.3901      -1575.8083      49537.558      0.95885505     35496.202    
    985000   887.50348     -271.32784      48704.052      0.97526461     35259.003    
    990000   891.62104     -1229.3464      47817.747      0.9933412      35364.048    
    995000   903.16282      2709.7998      49248.339      0.96448609     35406.862    
   1000000   886.36933      325.62324      49572.598      0.95817729     35490.191    
   1005000   874.52782      971.47861      50532.241      0.93998084     35575.529    
   1010000   887.08491      2033.3714      49047.23       0.96844077     35741.49     
   1015000   885.49745      3028.7068      48655.63       0.97623518     35377.83     
   1020000   885.68438      2816.3793      48476.402      0.97984454     35392.099    
   1025000   882.43383      2099.6574      48479.906      0.97977373     35382.908    
   1030000   878.61169      1482.1024      46636.145      1.0185091      35146.327    
   1035000   870.23879     -1475.4128      46142.644      1.0294022      35086.603    
   1040000   869.23909      167.53352      48390.051      0.98159305     35101.612    
   1045000   879.35279      404.10918      48816.353      0.97302103     35163.127    
   1050000   872.67647     -492.62956      48640.871      0.9765314      35290.672    
   1055000   870.76372      299.85589      48935.834      0.9706453      35007.322    
   1060000   893.1418       2696.9273      48410.324      0.98118199     35292.522    
   1065000   871.58036      1250.6512      47826.589      0.99315755     35220.456    
   1070000   855.59026      463.41334      48010.028      0.98936284     34877.518    
   1075000   839.45573     -3248.7746      47314.125      1.0039145      34781.088    
   1080000   863.14619     -2138.6364      48135.879      0.98677616     35003.509    
   1085000   852.06054     -250.5653       47604.797      0.9977847      35071.488    
   1090000   887.38403      2156.936       46931.591      1.0120973      35222.542    
   1095000   861.21908      742.32196      47006.592      1.0104825      34877.835    
   1100000   872.12845      1381.6319      48001.998      0.98952835     34973.453    
   1105000   857.05756     -3362.3061      48375.881      0.98188058     34943.513    
   1110000   868.63446      1738.4832      48684.688      0.97565251     34984.567    
   1115000   857.75652      180.0513       47664.403      0.99653692     34787.859    
   1120000   887.75017      2430.1346      47686.644      0.99607213     35215.543    
   1125000   865.15945      303.30344      48393.462      0.98152387     35124.347    
   1130000   847.84664      1370.479       49081.821      0.96775827     35117.123    
   1135000   855.14892     -2836.771       49939.209      0.95114318     34871.969    
   1140000   880.84403      1588.4973      47590.859      0.99807691     34861.293    
   1145000   842.98644     -735.68825      49784.589      0.95409722     34762.91     
   1150000   858.59204     -78.643538      48914.467      0.97106932     34795.665    
   1155000   847.0619       1482.5978      47795.615      0.99380117     34761.987    
   1160000   848.56678     -1970.1978      47203.474      1.0062678      34835.805    
   1165000   852.64713     -710.23626      48934.878      0.97066426     34757.598    
   1170000   864.22833      4852.738       47585.448      0.99819041     34806.62     
   1175000   869.12159      1688.0034      48447.131      0.98043655     34882.329    
   1180000   867.59152      1107.8804      47948.47       0.99063302     34949.032    
   1185000   868.61614     -869.96699      48420.592      0.98097391     34829.248    
   1190000   846.83956     -735.87054      47538.441      0.99917745     34687.582    
   1195000   855.3163      -2462.7951      47286.71       1.0044966      34774.52     
   1200000   885.01808      1196.6387      47575.82       0.99839241     35046.018    
   1205000   860.78523      670.10659      47960.139      0.990392       35102.397    
   1210000   864.60181      9.5357782      47707.57       0.99563523     35200.518    
   1215000   868.79526     -392.17727      48408.2        0.98122503     34808.874    
   1220000   865.0331      -2143.0836      48144.794      0.98659344     34798.6      
   1225000   858.25205      840.60166      48944.069      0.970482       34830.52     
   1230000   850.64877      1844.1561      47881.873      0.99201084     34697.746    
   1235000   860.96409     -1069.8545      47804.311      0.99362039     34770.342    
   1240000   837.31806      2614.451       48256.365      0.98431238     34719.659    
   1245000   842.79277     -1815.0712      48827.001      0.97280884     34591.984    
   1250000   837.9556       996.32203      47971.274      0.99016211     34520.607    
   1255000   841.79453      645.86025      48078.007      0.98796394     34374.757    
   1260000   830.37031      79.338454      49287.709      0.96371568     34658.911    
   1265000   827.3344      -2985.2379      47675.407      0.99630691     34393.273    
   1270000   845.88732      2321.374       47376.819      1.0025861      34407.633    
   1275000   851.11276      272.86764      49031.507      0.96875134     34735.826    
   1280000   861.01157      1549.9547      47269.707      1.0048579      34761.751    
   1285000   833.36141      521.21652      46989.69       1.0108459      34248.15     
   1290000   827.4382       2825.9962      46109.003      1.0301532      34157.64     
   1295000   838.90274     -1541.6049      48387.398      0.98164686     34382.269    
   1300000   838.77599     -1960.3074      47410.883      1.0018657      34364.262    
   1305000   850.87618     -1884.6102      49436.962      0.96080616     34447.739    
   1310000   837.32024      1701.0276      47199.821      1.0063457      34398.291    
   1315000   839.03565      416.3602       48187.436      0.98572037     34331.897    
   1320000   846.27664     -332.28308      49418.497      0.96116517     34481.69     
   1325000   852.8858      -1145.0195      49072.424      0.96794357     34890.409    
   1330000   863.09568     -1407.9315      48684.065      0.97566498     34912.532    
   1335000   847.27622     -2847.6783      48036.571      0.98881617     34627.002    
   1340000   859.23192      1996.3414      47323.543      1.0037147      34628.047    
   1345000   844.84794     -395.00991      48018.023      0.98919812     34645.986    
   1350000   854.67601     -2057.0103      47002.126      1.0105785      34647.37     
   1355000   827.30651     -998.64723      47378.813      1.0025439      34305.25     
   1360000   830.09097     -2329.2235      48005.563      0.98945486     34335.417    
   1365000   835.55119     -2280.8647      47252.813      1.0052172      34298.283    
   1370000   845.62567     -184.98748      48425.562      0.98087325     34341.276    
   1375000   824.61247     -1938.0037      47202.406      1.0062906      34346.383    
   1380000   835.13453      723.59741      48999.957      0.96937508     34394.796    
   1385000   844.82913      658.01691      48552.167      0.9783155      34495.177    
   1390000   836.09636     -187.69076      49111.301      0.96717735     34503.339    
   1395000   863.57792      544.52701      47890.168      0.99183903     34509.924    
   1400000   837.72663     -428.72227      47648.789      0.99686347     34362.128    
   1405000   827.79728      27.002388      48897.529      0.97140569     34165.777    
   1410000   831.59173      531.33259      49330.369      0.96288226     34146.538    
   1415000   815.99454     -1444.7206      48767.795      0.97398985     34103.845    
   1420000   823.72249     -606.23017      49962.619      0.95069751     34255.855    
   1425000   821.37665      482.69127      48914.021      0.97107816     34096.52     
   1430000   809.17505      2281.9074      47731.584      0.99513433     33972.846    
   1435000   820.94245      1726.935       48931.021      0.97074078     34203.575    
   1440000   828.12792     -759.44524      48270.804      0.98401795     34171.275    
   1445000   823.12353      299.06386      47833.314      0.99301792     34041.074    
   1450000   839.86265      2025.2205      49379.69       0.96192053     34246.789    
   1455000   830.23536      1787.2055      49089          0.96761674     34077.979    
   1460000   815.20593      1374.4363      48260.734      0.98422328     34013.934    
   1465000   810.94612      340.20416      49728.506      0.95517323     33977.62     
   1470000   815.68388      134.27976      47768.91       0.99435674     34052.653    
   1475000   818.85969      336.79505      49969.69       0.95056299     34076.942    
   1480000   814.66478      2226.2751      48508.345      0.9791993      34048.52     
   1485000   794.75723     -5462.9237      48843.414      0.97248194     33749.555    
   1490000   807.98013      1269.0655      49323.807      0.96301037     33763.569    
   1495000   825.77805      692.18764      48418.604      0.98101419     34193.883    
   1500000   818.42339     -1847.6874      48240.362      0.98463891     33824.813    
   1505000   792.42236     -633.84652      47940.1        0.99080598     33706.702    
   1510000   819.28741      515.95403      48341.911      0.98257054     33787.241    
   1515000   810.8943       1033.7594      48695.628      0.97543332     33867.5      
   1520000   803.43639     -2248.6631      47073.146      1.0090538      33783.594    
   1525000   798.85757      1060.7121      46904.179      1.0126888      33640.035    
   1530000   818.07996      1.8004806      46647.074      1.0182705      33745.106    
   1535000   800.7064       431.77244      48172.76       0.98602069     33672.366    
   1540000   817.47053      773.47107      48362.907      0.98214398     34026.538    
   1545000   811.54991     -5.5191596      46734.404      1.0163677      34051.178    
   1550000   829.77243     -833.67798      48111.768      0.98727069     33876.326    
   1555000   818.50743     -685.35462      47190.415      1.0065463      33695.935    
   1560000   810.57265     -1497.113       46942.783      1.011856       33648.763    
   1565000   818.87609     -1865.0262      47894.895      0.99174115     33650.933    
   1570000   814.21333      106.70463      46987.384      1.0108956      33728.22     
   1575000   801.76129      22.463164      46773.148      1.0155258      33554.016    
   1580000   793.87576      1708.2631      47038.686      1.0097931      33474.794    
   1585000   802.49819      505.0412       47157.534      1.0072481      33717.545    
   1590000   798.83345     -165.22981      46674.939      1.0176626      33677.011    
   1595000   806.37894      1948.5915      46908.792      1.0125892      33711.319    
   1600000   821.13639      3924.5319      47175.552      1.0068634      33928.374    
   1605000   824.77509     -561.73257      46477.238      1.0219914      33907.969    
   1610000   814.13539      3317.5363      46772.238      1.0155455      33546.992    
   1615000   806.93576      2635.6424      46738.293      1.0162831      33615.798    
   1620000   819.21401      378.00871      49450.276      0.96054748     34042.673    
   1625000   805.79522      1109.9608      47701.038      0.99577157     33619.016    
   1630000   797.93561     -1372.3649      46359.935      1.0245773      33439.345    
   1635000   804.61793      1064.9493      47770.989      0.99431347     33556.234    
   1640000   792.90636      382.11941      48185.189      0.98576634     33543.741    
   1645000   814.10325      3170.6232      46714.228      1.0168066      33643.043    
   1650000   813.71448      1382.1843      47289.592      1.0044353      33670.712    
   1655000   805.19048      1615.5153      47074.91       1.009016       33619.668    
   1660000   819.83401     -1342.3052      45970.696      1.0332525      33628.372    
   1665000   797.26233      577.5957       45464.876      1.044748       33282.693    
   1670000   799.57409      1697.6939      45287.544      1.0488389      33460.505    
   1675000   799.49627      1903.9321      45493.993      1.0440793      33494.924    
   1680000   802.69073      1308.6526      46409.713      1.0234784      33476.022    
   1685000   801.01886      1918.4841      46500.825      1.021473       33534.138    
   1690000   801.35507     -198.37873      47971.355      0.99016043     33449.063    
   1695000   802.42805      1115.6323      46087.084      1.0306432      33539.868    
   1700000   794.67372     -1951.4517      46490.918      1.0216907      33422.151    
   1705000   806.92289     -172.81489      46547.315      1.0204528      33386.729    
   1710000   794.5718       574.82338      47570.638      0.99850118     33295.41     
   1715000   769.20491     -576.89581      46194.704      1.0282421      33008.011    
   1720000   779.89947     -521.0914       46836.555      1.014151       32986.291    
   1725000   779.1659       3705.9163      46063.7        1.0311664      33156.094    
   1730000   781.45338     -9.5268998      46726.051      1.0165494      33279.103    
   1735000   777.95209     -1264.0676      46723.554      1.0166037      33222.64     
   1740000   781.55653     -767.16963      46795.402      1.0150428      33217.742    
   1745000   772.05105      420.5887       46741.138      1.0162213      33007.346    
   1750000   798.7714       2598.0241      45227.213      1.050238       33190.336    
   1755000   799.69549      790.41942      45254.756      1.0495988      33214.418    
   1760000   800.50109     -1966.9488      45480.784      1.0443826      33175.724    
   1765000   800.85975     -970.63037      46406.159      1.0235568      33384.648    
   1770000   790.70227     -1102.7296      45554.174      1.0427         33179.418    
   1775000   778.81087     -1789.5104      46135.07       1.0295712      33091.59     
   1780000   779.92085     -768.97295      47571.079      0.99849192     33082.223    
   1785000   776.00948     -490.19777      46644.945      1.0183169      33027.711    
   1790000   789.45513      312.16592      46222.727      1.0276187      33200.523    
   1795000   774.49399     -4003.9448      46568.096      1.0199974      33201.239    
   1800000   784.17781     -2821.2517      45637.3        1.0408008      33269.19     
   1805000   787.16549     -1009.6728      45016.61       1.0551514      33152.759    
   1810000   775.29265      766.11348      45592.788      1.0418169      32870.502    
   1815000   789.52116     -129.75287      45123.617      1.0526492      32994.82     
   1820000   771.02174     -1217.5688      45938.805      1.0339698      32884.215    
   1825000   788.97096      2364.0726      47168.332      1.0070175      33043.844    
   1830000   774.06447     -1372.9857      45601.695      1.0416134      33049.536    
   1835000   784.87916      2627.3451      45900.101      1.0348417      33116.892    
   1840000   779.2434      -476.7793       46057.432      1.0313067      33064.443    
   1845000   776.21477      2816.2808      46066.08       1.0311131      32917.098    
   1850000   787.1214      -1322.8334      45271.736      1.0492051      32997.769    
   1855000   790.38079      640.82148      45517.863      1.0435318      33195.946    
   1860000   777.47616     -2686.8006      45491.666      1.0441327      32962.764    
   1865000   767.79229      98.216512      45964.264      1.0333971      32563.119    
   1870000   769.96553     -1438.2523      46439.228      1.0228279      32844.615    
   1875000   787.62397     -2252.8425      45497.07       1.0440087      32838.676    
   1880000   767.78863     -1141.3051      44847.544      1.0591291      32855.665    
   1885000   767.13997      2406.2746      45140.692      1.052251       32608.556    
   1890000   734.27024     -761.1796       44759.521      1.0612119      32215.29     
   1895000   762.8403      -1692.5977      45142.163      1.0522167      32705.553    
   1900000   763.1294      -821.34363      45100.679      1.0531845      32697.562    
   1905000   768.98782      674.08296      45026.44       1.054921       32846.188    
   1910000   755.50333      1141.5939      44292.52       1.0724009      32748.543    
   1915000   758.17601      836.64859      45198.135      1.0509137      32864.397    
   1920000   782.87686     -1889.7302      44266.845      1.0730229      32949.483    
   1925000   762.44418      3955.8121      44709.227      1.0624057      32587.21     
   1930000   772.4963       1423.6845      45341.501      1.0475908      32599.742    
   1935000   763.3477       406.89264      45391.537      1.046436       32841.148    
   1940000   762.36807      1029.6912      44476.999      1.0679528      32572.935    
   1945000   766.65849     -1066.4452      45451.671      1.0450515      32678.873    
   1950000   766.42709     -866.34348      44833.275      1.0594662      32738.214    
   1955000   760.27816     -819.04119      44171.268      1.0753447      32414.077    
   1960000   771.09376     -1283.4464      45119.102      1.0527545      32553.113    
   1965000   777.47238      1772.0579      45191.59       1.0510659      32793.033    
   1970000   767.78833     -636.73535      44924.351      1.0573183      32789.627    
   1975000   769.61751     -298.16466      44721.559      1.0621128      32623.529    
   1980000   787.19836     -1615.6209      45521.834      1.0434408      32876.494    
   1985000   752.01322     -843.05772      44804.728      1.0601412      32275.556    
   1990000   767.49364     -1403.2325      44182.387      1.075074       32584.968    
   1995000   757.94503     -1372.385       45018.551      1.0551059      32520.093    
   2000000   752.57682      822.83248      45047.963      1.054417       32574.897    
   2005000   772.22751     -3070.6278      45741.283      1.0384347      32597.116    
   2010000   757.16651      2934.6         45124.541      1.0526276      32495.728    
   2015000   753.83215      937.02926      44953.333      1.0566366      32433.476    
   2020000   742.88203     -2043.304       44555.481      1.0660717      32221.021    
   2025000   750.81316      3067.3391      44228.014      1.073965       32218.425    
   2030000   756.39647     -1857.374       44422.701      1.0692582      32540.997    
   2035000   768.52691     -12.382307      43961.737      1.08047        32323.032    
   2040000   747.663        1050.572       44931.435      1.0571516      32149.999    
   2045000   743.01341      1911.8865      44169.483      1.0753881      32214.208    
   2050000   747.95257     -1108.5319      45068.254      1.0539423      32594.316    
   2055000   759.08234      807.96295      45018.916      1.0550973      32389.469    
   2060000   737.16222     -2166.1372      45916.903      1.034463       32156.516    
   2065000   746.65332      639.21791      45125.845      1.0525972      32343.229    
   2070000   738.17361     -1389.3242      44562.927      1.0658936      32170.973    
   2075000   762.73232      228.55137      45401.371      1.0462093      32297.769    
   2080000   745.0894       3067.2028      44413.655      1.069476       32089.574    
   2085000   751.94299      1028.0975      44941.036      1.0569257      32215.773    
   2090000   750.98874     -3518.5234      45048.581      1.0544025      32220.755    
   2095000   743.60469     -362.65617      44999.329      1.0555566      32122.11     
   2100000   751.69438      2500.9778      43753.535      1.0856114      32176.613    
   2105000   757.24503     -1264.4817      44678.635      1.0631331      32292.507    
   2110000   739.62255     -1143.2622      45696.332      1.0394563      32101.663    
   2115000   747.87093     -939.55182      45041.688      1.0545639      32119.432    
   2120000   748.53682     -694.43134      45723.696      1.0388342      32123.423    
   2125000   740.30833     -2822.2552      45079.39       1.0536819      32205.556    
   2130000   751.83049     -126.07875      45027.164      1.0549041      32241.018    
   2135000   742.33094      2611.0932      44077.633      1.0776291      32026.49     
   2140000   741.94225      949.30901      45818.521      1.0366842      32145.874    
   2145000   731.49779      520.98592      46479.382      1.0219443      32039.091    
   2150000   731.11839      1626.4474      45754.621      1.038132       31781.445    
   2155000   737.31259     -977.73584      46637.29       1.0184841      32063.076    
   2160000   740.88309     -645.55622      47187.646      1.0066054      32157.227    
   2165000   739.09392      2576.7585      45630.621      1.0409531      32080.378    
   2170000   719.98989      1850.7002      46100.958      1.030333       31772.331    
   2175000   727.12036     -2087.2304      45376.428      1.0467844      31846.435    
   2180000   726.89482      1441.1606      45201.178      1.0508429      31896.416    
   2185000   732.09813     -550.68219      45121.019      1.0527098      32010.299    
   2190000   750.39756      10.996064      44447.35       1.0686652      32200.122    
   2195000   724.94924      120.52648      44234.154      1.0738159      31959.496    
   2200000   742.52352     -832.54321      44202.329      1.074589       31950.648    
   2205000   722.07803      517.66412      44222.072      1.0741093      31815.236    
   2210000   724.03772      1433.5218      44897.565      1.0579491      31954.407    
   2215000   739.03169     -3533.9634      44398.756      1.0698349      32073.257    
   2220000   734.05362      150.77571      43999.926      1.0795322      31783.85     
   2225000   714.53216      480.22647      44367.406      1.0705908      31592.862    
   2230000   724.01184      755.35931      44974.755      1.0561333      31636.097    
   2235000   724.56737      3358.1837      44947.447      1.056775       31956.607    
   2240000   732.12936     -335.3081       44034.733      1.0786789      31883.457    
   2245000   728.926       -577.87712      46101.158      1.0303285      31800.519    
   2250000   731.11579      642.67263      44877.812      1.0584147      31844.889    
   2255000   735.77522      1045.4467      45312.145      1.0482695      32043.453    
   2260000   711.38684      1135.7685      44637.055      1.0641235      31606.13     
   2265000   709.58616      286.90489      45142.448      1.0522101      31581.993    
   2270000   728.51841     -816.65159      45041.137      1.0545768      31888.465    
   2275000   723.99187     -1205.2281      44660.196      1.0635721      31769.281    
   2280000   732.08373      705.11429      45044.848      1.0544899      31705.811    
   2285000   728.64131      707.25317      45029.391      1.0548519      31779.858    
   2290000   735.88651      647.54643      44978.812      1.0560381      31846.878    
   2295000   730.34235     -669.03126      44198.063      1.0746928      31888.258    
   2300000   739.36021     -255.06465      45756.377      1.0380922      31867.12     
   2305000   716.71967      169.90642      45796.993      1.0371715      31815.47     
   2310000   719.99461     -1484.6298      45074.724      1.053791       31681.477    
   2315000   711.38373      2108.1972      46053.191      1.0314017      31634.734    
   2320000   714.43783      1061.0864      45133.302      1.0524233      31407.293    
   2325000   722.84917     -2619.8277      45613.002      1.0413552      31698.233    
   2330000   728.92996      595.87293      44314.506      1.0718688      31640.077    
   2335000   732.00938      30.370371      46132.962      1.0296182      31971.033    
   2340000   714.8798      -2228.5695      46448.709      1.0226191      31456.516    
   2345000   726.21287     -2063.0068      45967.345      1.0333279      31679.246    
   2350000   712.53837     -2472.3006      45994.257      1.0327232      31516.985    
   2355000   712.65113      3490.6371      46078.954      1.030825       31558.536    
   2360000   709.15989     -682.97856      45587.103      1.0419468      31511.405    
   2365000   714.59458      1099.8646      45007.077      1.0553749      31478.006    
   2370000   711.91364     -108.13394      45708.776      1.0391733      31432.12     
   2375000   736.7029       3237.7806      45037.018      1.0546732      31672.897    
   2380000   723.45652      670.10335      45316.817      1.0481614      31649.73     
   2385000   712.93767      858.66479      45461.094      1.0448349      31567.215    
   2390000   723.31119     -1241.3626      45575.947      1.0422019      31489.53     
   2395000   699.80743     -811.06178      46341.584      1.024983       31461.595    
   2400000   701.41078     -542.30606      45458.874      1.0448859      31263.178    
   2405000   705.86408      1474.611       44663.273      1.0634988      31490.861    
   2410000   716.88242     -181.10378      46147.315      1.029298       31480.834    
   2415000   698.77776     -1060.5604      45432.737      1.045487       31266.748    
   2420000   704.58659      1109.0276      44838.464      1.0593436      31409.008    
   2425000   715.01095     -1754.0711      44633.338      1.0642121      31456.779    
   2430000   713.98676      898.06361      45121.802      1.0526915      31438.541    
   2435000   716.35742      265.52055      44772.775      1.0608978      31467.793    
   2440000   705.50771      559.61172      44793.709      1.060402       31294.512    
   2445000   708.09408      584.8424       44046.632      1.0783875      31416.791    
   2450000   693.88289     -2046.3927      43711.964      1.0866439      31131.45     
   2455000   718.38524      2058.227       45218.138      1.0504488      31569.537    
   2460000   700.0872      -3186.6155      45726.65       1.0387671      31359.677    
   2465000   705.29039     -117.79566      44923.844      1.0573302      31257.02     
   2470000   711.45419     -957.16972      45013.585      1.0552223      31256.469    
   2475000   716.37869      1557.4839      44694.974      1.0627445      31239.099    
   2480000   686.11375     -2137.5191      44314.012      1.0718808      31088.55     
   2485000   705.80195      2947.1372      44564.885      1.0658467      31201.986    
   2490000   696.22195      1716.6946      45367.598      1.0469882      31123.422    
   2495000   702.05119     -1118.6729      45099.118      1.053221       31151.095    
   2500000   706.70578      1524.8093      44464.712      1.068248       31149.325    
Loop time of 4974.73 on 40 procs for 2500000 steps with 3640 atoms

Performance: 21.710 ns/day, 1.105 hours/ns, 502.540 timesteps/s, 1.829 Matom-step/s
96.6% CPU use with 40 MPI tasks x no OpenMP threads

MPI task timing breakdown:
Section |  min time  |  avg time  |  max time  |%varavg| %total
---------------------------------------------------------------
Pair    | 1902.4     | 2153       | 2426       | 264.4 | 43.28
Bond    | 607.89     | 690.6      | 826.5      | 195.9 | 13.88
Kspace  | 971.56     | 1333.6     | 1647       | 452.5 | 26.81
Neigh   | 210.11     | 210.73     | 211.43     |   3.4 |  4.24
Comm    | 406.59     | 416.66     | 426.9      |  35.5 |  8.38
Output  | 0.20585    | 0.23831    | 0.28196    |   3.9 |  0.00
Modify  | 106.1      | 119.03     | 125.17     |  54.8 |  2.39
Other   |            | 50.89      |            |       |  1.02

Nlocal:             91 ave         113 max          70 min
Histogram: 3 3 3 5 3 9 7 5 0 2
Nghost:        4899.55 ave        4977 max        4809 min
Histogram: 2 2 4 2 7 8 5 0 7 3
Neighs:          42786 ave       54133 max       32091 min
Histogram: 3 3 3 5 5 6 7 5 2 1

Total # of neighbors = 1711439
Ave neighs/atom = 470.17555
Ave special neighs/atom = 11.554945
Neighbor list builds = 103827
Dangerous builds = 0

unfix npt3
undump traj

write_data step03_final.data
System init for write_data ...
PPPM initialization ...
  using 12-bit tables for long-range coulomb
  G vector (1/distance) = 0.16399703
  grid = 8 8 8
  stencil order = 5
  estimated absolute RMS force accuracy = 0.017813286
  estimated relative force accuracy = 5.364418e-05
  using double precision KISS FFT
  3d grid and FFT values/proc = 441 16
Generated 190 of 190 mixed pair_coeff terms from sixthpower/sixthpower mixing rule
Total wall time: 1:22:55
