LAMMPS (22 Jul 2025 - Update 1)
# Step 5: NPT cooling from 700K to 500K at 100 bar for 2 ns

units real
atom_style full
boundary p p p

pair_style lj/class2/coul/long 12.0
bond_style class2
angle_style class2
dihedral_style class2
improper_style class2
kspace_style pppm 1e-4
pair_modify mix sixthpower

read_data step04_final.data
Reading data file ...
  orthogonal box = (-19.53152 -24.490197 -9.8867475) to (17.712501 14.262789 21.259406)
  2 by 5 by 2 MPI processor grid
  reading atoms ...
  3640 atoms
  reading velocities ...
  3640 velocities
  scanning bonds ...
  4 = max bonds/atom
  scanning angles ...
  6 = max angles/atom
  scanning dihedrals ...
  21 = max dihedrals/atom
  scanning impropers ...
  4 = max impropers/atom
  orthogonal box = (-19.53152 -24.490197 -9.8867475) to (17.712501 14.262789 21.259406)
  2 by 5 by 2 MPI processor grid
  reading bonds ...
  4020 bonds
  reading angles ...
  7100 angles
  reading dihedrals ...
  11170 dihedrals
  reading impropers ...
  3110 impropers
Finding 1-2 1-3 1-4 neighbors ...
  special bond factors lj:    0        0        0       
  special bond factors coul:  0        0        0       
     4 = max # of 1-2 neighbors
     9 = max # of 1-3 neighbors
    24 = max # of 1-4 neighbors
    27 = max # of special neighbors
  special bonds CPU = 0.002 seconds
  read_data CPU = 0.254 seconds

neighbor 2.0 bin
neigh_modify delay 0 every 1 check yes

timestep 0.5

thermo_style custom step temp press vol density etotal ke pe
thermo 5000
thermo_modify flush yes

# ---------- Trajectory output ----------
dump traj all atom 10000 step05_trajectory.dump
dump_modify traj sort id

# Write restart files every 200,000 steps (~100 ps)
restart 50000 step01_restart_*.bin

fix npt5 all npt temp 700.0 500.0 100.0 aniso 98.6923 98.6923 1000.0 pchain 3

run 1000000  # 2 ns
PPPM initialization ...
  using 12-bit tables for long-range coulomb
  G vector (1/distance) = 0.16776748
  grid = 8 8 8
  stencil order = 5
  estimated absolute RMS force accuracy = 0.014795829
  estimated relative force accuracy = 4.4557198e-05
  using double precision KISS FFT
  3d grid and FFT values/proc = 567 32
Generated 190 of 190 mixed pair_coeff terms from sixthpower/sixthpower mixing rule
Neighbor list info ...
  update: every = 1 steps, delay = 0 steps, check = yes
  max neighbors/atom: 2000, page size: 100000
  master list distance cutoff = 14
  ghost atom cutoff = 14
  binsize = 7, bins = 6 6 5
  1 neighbor lists, perpetual/occasional/extra = 1 0 0
  (1) pair lj/class2/coul/long, perpetual
      attributes: half, newton on
      pair build: half/bin/newton
      stencil: half/bin/3d
      bin: standard
Per MPI rank memory allocation (min/avg/max) = 18.32 | 18.34 | 18.7 Mbytes
   Step          Temp          Press          Volume        Density         TotEng         KinEng         PotEng    
         0   699.59715     -409.10168      44953.773      1.0566263      31160.289      7588.6476      23571.642    
      5000   699.5622      -1027.7313      43793.019      1.0846326      30972.344      7588.2685      23384.075    
     10000   686.87463     -2419.7679      44158.044      1.0756667      30888.008      7450.6444      23437.364    
     15000   682.57164      544.96023      44231.631      1.0738772      30676.151      7403.9691      23272.182    
     20000   698.63794      1896.4424      44645.348      1.0639258      31028.466      7578.243       23450.223    
     25000   703.64696      1574.5056      44663.526      1.0634928      31100.237      7632.5767      23467.66     
     30000   682.16853      5643.9543      44507.528      1.0672203      30914.561      7399.5965      23514.965    
     35000   679.91418     -1559.7649      44918.702      1.0574513      30850.179      7375.1432      23475.036    
     40000   689.59957      1381.532       44103.113      1.0770065      30718.253      7480.2023      23238.051    
     45000   699.62549     -2016.216       44314.55       1.0718678      30999.155      7588.9551      23410.2      
     50000   686.90124      2585.7573      44640.223      1.064048       30930.685      7450.933       23479.752    
     55000   685.63559     -3470.2603      43962.274      1.0804568      31061.718      7437.2043      23624.514    
     60000   683.67016      664.8443       44537.873      1.0664932      30977.461      7415.8849      23561.576    
     65000   682.88848      266.49559      44685.993      1.0629581      30983.409      7407.4059      23576.003    
     70000   681.73613      1733.7285      44712.532      1.0623272      30735.711      7394.9062      23340.805    
     75000   682.64287      13.251474      43831.713      1.0836751      30623.986      7404.7417      23219.245    
     80000   686.99403     -1580.2915      45360.685      1.0471477      30746.83       7451.9395      23294.891    
     85000   667.39686     -714.09126      44723.051      1.0620773      30456.505      7239.3657      23217.139    
     90000   674.66905      629.18307      44730.094      1.0619101      30709.448      7318.2484      23391.2      
     95000   676.99229     -1589.3283      44628.593      1.0643252      30692.944      7343.449       23349.495    
    100000   695.16185      978.00173      43479.663      1.0924495      30938.499      7540.5372      23397.962    
    105000   695.43198     -1815.4146      43714.463      1.0865817      30974.642      7543.4674      23431.175    
    110000   677.58507     -1571.2         43736.181      1.0860422      30671.389      7349.8789      23321.51     
    115000   693.48677      666.72368      44092.069      1.0772762      30563.054      7522.3674      23040.687    
    120000   687.94416     -734.82727      43690.745      1.0871716      30659.564      7462.2458      23197.318    
    125000   667.18812     -219.70436      44321.515      1.0716993      30697.926      7237.1014      23460.825    
    130000   671.45233      178.79662      43252.336      1.0981913      30375.85       7283.3561      23092.494    
    135000   666.8644      -1973.2466      43494.758      1.0920704      30318.266      7233.59        23084.676    
    140000   670.35667      1235.5376      43116.977      1.1016389      30388.607      7271.4713      23117.135    
    145000   682.19642     -823.03246      43943.046      1.0809296      30477.488      7399.899       23077.589    
    150000   675.05951      2033.2823      44366.531      1.0706119      30492.45       7322.4838      23169.966    
    155000   663.70124     -341.35194      44196.614      1.074728       30461.879      7199.2787      23262.6      
    160000   648.11365      3125.0392      45111.869      1.0529233      30273.787      7030.1975      23243.59     
    165000   666.22896     -1814.9605      43998.093      1.0795772      30478.685      7226.6973      23251.988    
    170000   666.95692     -58.121218      44130.841      1.0763298      30231.331      7234.5936      22996.738    
    175000   678.24155      1586.8395      42998.235      1.1046811      30499.934      7356.9999      23142.934    
    180000   674.95218     -900.901        43612.873      1.0891128      30436.243      7321.3196      23114.924    
    185000   652.70126      2149.1076      43722.378      1.086385       30303.995      7079.9601      23224.035    
    190000   663.20629      1410.8306      43517.865      1.0914905      30394.673      7193.9099      23200.763    
    195000   681.32808      279.14679      43983.531      1.0799346      30498.131      7390.48        23107.651    
    200000   664.18252      968.02904      43801.789      1.0844155      30266.812      7204.4993      23062.312    
    205000   667.0939      -198.5171       43482.821      1.0923702      30263.335      7236.0795      23027.255    
    210000   650.59001     -403.68182      43761.407      1.0854161      30234.848      7057.059       23177.789    
    215000   658.26912     -1303.8783      43586.63       1.0897685      30091.935      7140.3555      22951.58     
    220000   649.26461      598.90716      43359.396      1.0954797      30338.088      7042.6822      23295.406    
    225000   664.98115     -291.95776      43911.399      1.0817086      30303.495      7213.1621      23090.333    
    230000   654.35719     -1708.8425      42605.813      1.1148558      30119.794      7097.9223      23021.872    
    235000   637.98611      508.30459      44234.909      1.0737976      29869.519      6920.3423      22949.176    
    240000   645.91552     -1365.2699      44321.678      1.0716954      30211.265      7006.354       23204.911    
    245000   658.76612     -3079.5812      44548.515      1.0662384      30025.062      7145.7466      22879.315    
    250000   651.41608      2721.7674      44521.299      1.0668902      30061.993      7066.0195      22995.973    
    255000   649.55136     -608.62757      44414.799      1.0694484      29960.686      7045.7926      22914.893    
    260000   652.06593     -1578.0621      44133.019      1.0762766      29844.615      7073.0685      22771.546    
    265000   650.49039      1116.1102      44109.109      1.0768601      30158.495      7055.9784      23102.516    
    270000   634.30082      1226.7412      43389.738      1.0947136      29706.636      6880.3675      22826.269    
    275000   653.81767      229.54764      43502.919      1.0918655      30085.24       7092.07        22993.17     
    280000   641.4158      -3151.2349      44721.905      1.0621045      29883.225      6957.5448      22925.68     
    285000   645.00375     -231.39387      43964.414      1.0804042      29743.136      6996.4639      22746.672    
    290000   643.69994      100.46899      43987.652      1.0798334      29902.516      6982.3213      22920.194    
    295000   636.79243      1866.1854      43523.478      1.0913498      29787.954      6907.3943      22880.56     
    300000   641.00952      2213.7959      43217.332      1.0990807      29719.043      6953.1378      22765.905    
    305000   640.72477      1724.2546      43472.114      1.0926393      29616.222      6950.0491      22666.173    
    310000   650.54784      143.84339      42762.166      1.1107795      29948.814      7056.6016      22892.212    
    315000   651.4317      -2026.8001      42539.441      1.1165953      29928.561      7066.189       22862.372    
    320000   633.55084     -404.01314      43790.301      1.0847         29666.427      6872.2323      22794.195    
    325000   622.27195     -347.58821      43490.414      1.0921795      29443.562      6749.8883      22693.674    
    330000   643.75034      1723.4247      43255.348      1.0981148      29660.706      6982.8679      22677.838    
    335000   639.31636      2250.9934      43473.189      1.0926122      29749.988      6934.7718      22815.217    
    340000   639.36558      1276.0911      44147.024      1.0759352      29832.576      6935.3057      22897.27     
    345000   642.42941     -36.548724      42987.159      1.1049657      29700.711      6968.5396      22732.171    
    350000   629.22337      33.722793      43108.871      1.101846       29725.177      6825.2914      22899.885    
    355000   630.14287     -793.55589      43193.618      1.0996842      29425.785      6835.2654      22590.519    
    360000   634.17401      1560.1645      43155.074      1.1006663      29751.742      6878.9918      22872.75     
    365000   610.15311     -1980.499       43801.423      1.0844245      29336.582      6618.4331      22718.149    
    370000   623.23181      824.20173      43312.074      1.0966766      29335.332      6760.3         22575.032    
    375000   628.60585     -340.37832      43413.768      1.0941077      29489.126      6818.5931      22670.533    
    380000   619.21683      215.09927      43301.306      1.0969493      29248.182      6716.7488      22531.433    
    385000   621.81745      3006.7377      43325.769      1.0963299      29381.404      6744.9582      22636.446    
    390000   628.35789     -531.18292      42796.378      1.1098915      29205.606      6815.9035      22389.702    
    395000   617.50301     -1007.9284      42753.591      1.1110023      29312.474      6698.1587      22614.315    
    400000   624.24235     -1333.3456      42671.61       1.1131368      29348.4        6771.2615      22577.138    
    405000   609.48359      2291.2885      42653.611      1.1136065      29231.237      6611.1708      22620.067    
    410000   619.91037      81.985462      43312.294      1.096671       29434.804      6724.2718      22710.532    
    415000   607.00664     -676.80219      42916.96       1.1067731      29100.604      6584.3028      22516.302    
    420000   617.5319      -2555.2778      42966.849      1.105488       29263.055      6698.4721      22564.582    
    425000   626.17803      54.862256      43577.593      1.0899945      29261.658      6792.2582      22469.4      
    430000   611.5425      -1615.3966      44080.434      1.0775606      29251.279      6633.5041      22617.775    
    435000   606.05214      108.22591      43281.122      1.0974609      29095.148      6573.9492      22521.198    
    440000   609.04355     -1323.1324      43270.58       1.0977282      29077.524      6606.3975      22471.127    
    445000   599.94283     -704.53494      42327.762      1.1221793      28999.67       6507.6805      22491.99     
    450000   609.54701     -691.06408      43220.645      1.0989965      29074.424      6611.8587      22462.565    
    455000   619.93649     -12.781637      43790.929      1.0846844      29057.212      6724.5552      22332.656    
    460000   605.36456     -1643.5854      43861.051      1.0829503      28985.803      6566.4909      22419.313    
    465000   626.89462     -1317.2944      43052.343      1.1032927      29057.162      6800.0311      22257.131    
    470000   608.91558      3757.4875      42936.286      1.1062749      28943.236      6605.0095      22338.226    
    475000   598.35484      1684.9665      42686.672      1.112744       29043.961      6490.4554      22553.505    
    480000   615.02486      721.55315      43878.842      1.0825112      29087.087      6671.2779      22415.809    
    485000   599.19266     -4108.523       43540.817      1.0909152      28928.92       6499.5433      22429.377    
    490000   603.94228      574.69616      43786.317      1.0847987      28908.964      6551.0632      22357.901    
    495000   613.7846      -1374.6217      43857.488      1.0830383      28948.706      6657.8246      22290.881    
    500000   606.25679      1586.841       43125.968      1.1014092      29000.08       6576.1691      22423.911    
    505000   590.67494      522.20709      43545.869      1.0907886      28595.886      6407.1502      22188.736    
    510000   598.27426      1691.5429      43510.703      1.0916702      28804.734      6489.5812      22315.153    
    515000   585.12167      547.19719      44211.314      1.0743706      28620.143      6346.9129      22273.23     
    520000   594.42787     -2583.9348      42805.252      1.1096614      28766.697      6447.8588      22318.839    
    525000   608.79414      2013.6454      43639.121      1.0884577      29025.944      6603.6921      22422.252    
    530000   603.25709     -339.49434      43379.339      1.0949761      28871.64       6543.6309      22328.009    
    535000   590.26514      800.53905      42215.459      1.1251646      28782.043      6402.705       22379.338    
    540000   587.65093     -2102.4593      43354.633      1.0956         28513.809      6374.3482      22139.461    
    545000   581.47417     -2369.6383      42864.552      1.1081263      28593.808      6307.3479      22286.46     
    550000   586.13965     -373.0988       42591.015      1.1152432      28596.35       6357.9551      22238.395    
    555000   592.29448      2645.005       42456.943      1.1187649      28635.901      6424.7176      22211.183    
    560000   584.73968     -1743.045       43056.751      1.1031798      28558.037      6342.7694      22215.267    
    565000   584.57783      1672.371       43925.174      1.0813694      28736.361      6341.0138      22395.348    
    570000   575.88535     -24.27389       42798.197      1.1098444      28577.117      6246.725       22330.392    
    575000   583.76781     -1210.9412      42255.536      1.1240974      28474.157      6332.2274      22141.929    
    580000   586.02296     -1744.7419      42024.572      1.1302753      28565.459      6356.6893      22208.769    
    585000   590.99726      1998.1358      42852.587      1.1084357      28524.296      6410.6464      22113.65     
    590000   589.86436      1223.0621      42511.212      1.1173367      28463.477      6398.3577      22065.119    
    595000   599.93032     -1121.4782      42512.458      1.117304       28647.373      6507.5448      22139.828    
    600000   573.16258      698.88877      42437.345      1.1192816      28292.342      6217.1907      22075.151    
    605000   582.02716      1273.8468      42656.443      1.1135325      28356.371      6313.3462      22043.025    
    610000   579.45806     -814.20116      43068.922      1.102868       28423.266      6285.4788      22137.788    
    615000   567.99657      995.33523      42641.997      1.1139098      28288.679      6161.1541      22127.524    
    620000   580.1344      -5255.704       43126.918      1.1013849      28345.438      6292.8152      22052.623    
    625000   564.47816     -1684.9612      43551.971      1.0906358      28305.924      6122.9893      22182.935    
    630000   574.28853      954.11505      42407.708      1.1200638      28117.744      6229.404       21888.34     
    635000   555.22013      1302.9493      42471.788      1.1183739      28034.023      6022.5659      22011.457    
    640000   566.35901      2792.5292      42316.967      1.1224656      28145.345      6143.3912      22001.954    
    645000   566.03372      1249.1734      42167.15       1.1264536      28232.328      6139.8627      22092.465    
    650000   565.31712      186.37828      42624.873      1.1143573      28013.731      6132.0897      21881.642    
    655000   564.7864       1373.3658      42770.045      1.1105749      28000.135      6126.3328      21873.803    
    660000   566.74518     -2914.3245      42605.233      1.114871       28135.521      6147.5801      21987.941    
    665000   561.27738     -635.76483      42469.655      1.11843        28027.185      6088.2699      21938.915    
    670000   562.13184     -144.90698      42277.535      1.1235125      27973.811      6097.5384      21876.273    
    675000   572.24436      678.01252      41950.075      1.1322826      27906.189      6207.2306      21698.959    
    680000   576.59715      455.56184      41834.895      1.1354         28095.4        6254.446       21840.954    
    685000   572.18802      1278.5773      41698.543      1.1391126      28004.72       6206.6194      21798.101    
    690000   554.31228      293.60637      42096.435      1.1283458      27952.726      6012.7183      21940.008    
    695000   546.73554     -1575.6085      42076.15       1.1288898      27752.682      5930.5321      21822.15     
    700000   566.926       -229.50519      43090.558      1.1023143      28130.836      6149.5414      21981.294    
    705000   564.18637     -630.08197      41814.356      1.1359576      27946.79       6119.8242      21826.966    
    710000   549.44245     -1267.1053      42403.705      1.1201695      27643.709      5959.8945      21683.814    
    715000   554.97908      1052.7538      42440.392      1.1192012      27824.001      6019.9512      21804.05     
    720000   549.71059     -1226.8631      41978.015      1.1315289      27752.254      5962.803       21789.451    
    725000   549.73341      2372.5957      42521.34       1.1170706      27918.496      5963.0505      21955.445    
    730000   552.46726      562.32475      42578.509      1.1155707      27868.648      5992.7051      21875.943    
    735000   556.46013      958.54775      42069.727      1.1290622      27785.284      6036.0163      21749.268    
    740000   550.85891      1944.9979      42144.367      1.1270625      27740.108      5975.259       21764.849    
    745000   540.82797      414.18957      42201.937      1.1255251      27768.128      5866.4517      21901.676    
    750000   545.77083     -1117.6146      42225.008      1.1249101      27798.347      5920.0677      21878.279    
    755000   543.70107     -1094.5397      41921.865      1.1330445      27803.365      5897.6167      21905.748    
    760000   549.09069     -391.49446      41977.021      1.1315557      27634.101      5956.0789      21678.022    
    765000   559.74764      1553.0389      41878.97       1.134205       27702.247      6071.6765      21630.57     
    770000   557.05177      2159.0076      41587.192      1.1421626      27986.365      6042.434       21943.931    
    775000   558.76613     -523.00679      41524.461      1.1438881      27685.792      6061.03        21624.762    
    780000   541.48612      2423.1043      42341.981      1.1218024      27496.367      5873.5908      21622.776    
    785000   536.43067      63.884241      41985.152      1.1313366      27509.432      5818.7535      21690.679    
    790000   547.45163      1172.3294      41980.23       1.1314692      27644.827      5938.2997      21706.527    
    795000   545.95134      1901.2355      42059.494      1.1293369      27753.793      5922.0258      21831.768    
    800000   542.56122      1813.8964      41798.171      1.1363975      27638.866      5885.2526      21753.614    
    805000   536.86192      494.59181      41804.017      1.1362386      27436.261      5823.4313      21612.83     
    810000   540.74731      758.01373      41902.446      1.1335696      27465.457      5865.5767      21599.88     
    815000   539.09351     -798.75044      41756.548      1.1375303      27393.135      5847.6378      21545.497    
    820000   546.71376     -78.731545      42006.795      1.1307537      27613.136      5930.2959      21682.84     
    825000   545.06424     -222.36462      42289.444      1.1231961      27588.498      5912.4033      21676.094    
    830000   535.97062      1719.763       42666.586      1.1132678      27474.792      5813.7632      21661.029    
    835000   534.70173     -1770.9289      41656.089      1.1402736      27491.931      5799.9994      21691.932    
    840000   525.4955      -108.48575      42519.851      1.1171097      27165.45       5700.1378      21465.312    
    845000   544.41159      1378.9884      42332.453      1.1220549      27388.678      5905.3238      21483.355    
    850000   549.16591      1895.7824      41871.701      1.1344019      27321.691      5956.8948      21364.796    
    855000   533.68607     -314.3614       42275.198      1.1235746      27374.73       5788.9823      21585.747    
    860000   520.82416      116.87844      41448.098      1.1459956      27299.11       5649.467       21649.643    
    865000   523.68916      142.81918      42116.856      1.1277987      27117.334      5680.5442      21436.789    
    870000   518.47835      828.75853      41859.915      1.1347213      27054.175      5624.0217      21430.153    
    875000   528.06593     -2415.2811      41717.877      1.1385847      27105.202      5728.0197      21377.182    
    880000   518.52072      295.76702      41665.132      1.1400261      27031.542      5624.4812      21407.061    
    885000   526.18423     -225.07398      41117.638      1.1552059      27191.306      5707.6086      21483.697    
    890000   516.52463      810.36475      41935.912      1.1326649      27062.727      5602.8293      21459.898    
    895000   529.59068     -1376.2518      42054.808      1.1294627      27244.424      5744.5589      21499.865    
    900000   522.02607     -1055.3043      41979.97       1.1314762      27128.937      5662.5044      21466.433    
    905000   518.21613      1524.2281      41625.26       1.1411181      27100.72       5621.1774      21479.543    
    910000   525.78856      2766.7287      42109.75       1.1279891      27109.276      5703.3167      21405.959    
    915000   513.9596      -2773.9161      42173.639      1.1262803      27033.509      5575.006       21458.503    
    920000   524.22133     -22.298861      42282.842      1.1233715      27150.588      5686.3168      21464.271    
    925000   508.04743      3322.0369      41692.719      1.1392718      26905.099      5510.8757      21394.223    
    930000   508.53201      555.16677      42447.4        1.1190164      26784.998      5516.1321      21268.866    
    935000   514.9          1350.529       42141.583      1.127137       27018.022      5585.2067      21432.815    
    940000   508.70836      603.01092      41880.853      1.134154       26873.289      5518.0449      21355.244    
    945000   522.72581     -690.89232      41592.751      1.14201        26916.234      5670.0945      21246.14     
    950000   516.59444      3635.8544      41761.394      1.1373983      26811.859      5603.5866      21208.273    
    955000   509.28881     -3530.626       41942.626      1.1324836      26788.545      5524.3412      21264.204    
    960000   522.32485      1162.8387      41728.663      1.1382904      26950.998      5665.7453      21285.253    
    965000   488.41128     -2511.463       41572.325      1.1425711      26525.835      5297.8791      21227.956    
    970000   503.57879      1004.4508      42180.068      1.1261086      26762.036      5462.4036      21299.632    
    975000   506.0543       1392.9694      41216.486      1.1524354      26598.831      5489.2559      21109.575    
    980000   498.08345     -685.70535      41618.545      1.1413022      26605.551      5402.7948      21202.757    
    985000   493.83438     -2466.5606      41679.687      1.139628       26582.934      5356.7043      21226.23     
    990000   501.99118      3036.6378      41221.389      1.1522983      26680.631      5445.1825      21235.448    
    995000   494.03685      1273.4837      41995.715      1.131052       26646.4        5358.9006      21287.5      
   1000000   497.45617     -2546.954       42180.522      1.1260965      26668.818      5395.9905      21272.827    
Loop time of 2776.58 on 20 procs for 1000000 steps with 3640 atoms

Performance: 15.559 ns/day, 1.543 hours/ns, 360.155 timesteps/s, 1.311 Matom-step/s
97.6% CPU use with 20 MPI tasks x no OpenMP threads

MPI task timing breakdown:
Section |  min time  |  avg time  |  max time  |%varavg| %total
---------------------------------------------------------------
Pair    | 1412.4     | 1564.9     | 1682.7     | 216.2 | 56.36
Bond    | 385.82     | 446.53     | 524.01     | 170.2 | 16.08
Kspace  | 288.16     | 476.65     | 690.12     | 542.9 | 17.17
Neigh   | 104.18     | 104.26     | 104.35     |   0.6 |  3.76
Comm    | 123.06     | 124.81     | 126.4      |   8.2 |  4.49
Output  | 0.071353   | 0.081343   | 0.095315   |   2.3 |  0.00
Modify  | 36.806     | 40.236     | 42.807     |  34.5 |  1.45
Other   |            | 19.1       |            |       |  0.69

Nlocal:            182 ave         199 max         161 min
Histogram: 1 0 3 1 1 5 5 1 1 2
Nghost:         5957.8 ave        6058 max        5906 min
Histogram: 3 3 4 3 1 3 1 0 1 1
Neighs:        90162.5 ave       96423 max       77238 min
Histogram: 1 0 1 0 2 1 5 4 4 2

Total # of neighbors = 1803250
Ave neighs/atom = 495.39835
Ave special neighs/atom = 11.554945
Neighbor list builds = 32503
Dangerous builds = 0

unfix npt5
undump traj

write_data step05_final.data
System init for write_data ...
PPPM initialization ...
  using 12-bit tables for long-range coulomb
  G vector (1/distance) = 0.16814866
  grid = 8 8 8
  stencil order = 5
  estimated absolute RMS force accuracy = 0.014995418
  estimated relative force accuracy = 4.5158257e-05
  using double precision KISS FFT
  3d grid and FFT values/proc = 567 32
Generated 190 of 190 mixed pair_coeff terms from sixthpower/sixthpower mixing rule

Total wall time: 0:46:16
