LAMMPS (22 Jul 2025 - Update 1)
# Step 8: NPT equilibration at 313.15 K, 100 bar for 1 ns

units real
atom_style full
boundary p p p

pair_style lj/class2/coul/long 12.0
bond_style class2
angle_style class2
dihedral_style class2
improper_style class2
kspace_style pppm 1e-4
pair_modify mix sixthpower

read_data step07_final.data
Reading data file ...
  orthogonal box = (-18.43648 -24.419884 -8.8667898) to (16.61746 14.192476 20.239449)
  2 by 5 by 2 MPI processor grid
  reading atoms ...
  3640 atoms
  reading velocities ...
  3640 velocities
  scanning bonds ...
  4 = max bonds/atom
  scanning angles ...
  6 = max angles/atom
  scanning dihedrals ...
  21 = max dihedrals/atom
  scanning impropers ...
  4 = max impropers/atom
  orthogonal box = (-18.43648 -24.419884 -8.8667898) to (16.61746 14.192476 20.239449)
  2 by 5 by 2 MPI processor grid
  reading bonds ...
  4020 bonds
  reading angles ...
  7100 angles
  reading dihedrals ...
  11170 dihedrals
  reading impropers ...
  3110 impropers
Finding 1-2 1-3 1-4 neighbors ...
  special bond factors lj:    0        0        0       
  special bond factors coul:  0        0        0       
     4 = max # of 1-2 neighbors
     9 = max # of 1-3 neighbors
    24 = max # of 1-4 neighbors
    27 = max # of special neighbors
  special bonds CPU = 0.002 seconds
  read_data CPU = 0.189 seconds

neighbor 2.0 bin
neigh_modify delay 0 every 1 check yes

timestep 0.5

variable density equal density

fix data_output all ave/time 1000 1 1000 c_thermo_temp c_thermo_press v_density     file step08_TPD_data.dat

thermo_style custom step temp press vol density etotal ke pe
thermo 2000
thermo_modify flush yes

# ---------- Trajectory output ----------
dump traj all atom 10000 step08_trajectory.dump
dump_modify traj sort id

# Write restart files every 200,000 steps (~100 ps)
restart 50000 step08_restart_*.bin

fix npt8 all npt temp 313.15 313.15 100.0 aniso 98.6923 98.6923 1000.0 pchain 3

run 500000
PPPM initialization ...
  using 12-bit tables for long-range coulomb
  G vector (1/distance) = 0.16984424
  grid = 8 8 8
  stencil order = 5
  estimated absolute RMS force accuracy = 0.014287282
  estimated relative force accuracy = 4.3025725e-05
  using double precision KISS FFT
  3d grid and FFT values/proc = 567 32
Generated 190 of 190 mixed pair_coeff terms from sixthpower/sixthpower mixing rule
Neighbor list info ...
  update: every = 1 steps, delay = 0 steps, check = yes
  max neighbors/atom: 2000, page size: 100000
  master list distance cutoff = 14
  ghost atom cutoff = 14
  binsize = 7, bins = 6 6 5
  1 neighbor lists, perpetual/occasional/extra = 1 0 0
  (1) pair lj/class2/coul/long, perpetual
      attributes: half, newton on
      pair build: half/bin/newton
      stencil: half/bin/3d
      bin: standard
Per MPI rank memory allocation (min/avg/max) = 18.36 | 18.5 | 18.75 Mbytes
   Step          Temp          Press          Volume        Density         TotEng         KinEng         PotEng    
         0   307.2282      -693.76816      39395.741      1.2056973      22389.119      3332.5559      19056.563    
      2000   307.75564     -444.35418      39699.998      1.1964569      22373.891      3338.2771      19035.614    
      4000   314.15944     -1409.9811      39684.386      1.1969276      22400.157      3407.7402      18992.417    
      6000   310.75878     -1086.6473      39347.401      1.2071785      22317.492      3370.8526      18946.639    
      8000   314.62609     -1477.5608      39458.298      1.2037858      22364.731      3412.8019      18951.929    
     10000   308.41654      510.24534      39524.729      1.2017625      22282.541      3345.446       18937.095    
     12000   309.7045      -74.341936      39301.212      1.2085973      22337.235      3359.4167      18977.818    
     14000   317.53386      449.85291      39683.232      1.1969624      22493.48       3444.3431      19049.137    
     16000   315.4219      -1020.9498      39325.724      1.207844       22446.311      3421.4343      19024.877    
     18000   314.59509     -1173.7876      39195.867      1.2118456      22356.735      3412.4657      18944.27     
     20000   313.33739      190.63382      39133.095      1.2137895      22307.591      3398.8232      18908.768    
     22000   308.57755     -1936.3265      39248.907      1.2102079      22392.553      3347.1925      19045.36     
     24000   314.14949     -345.06156      39046.444      1.2164831      22420.741      3407.6323      19013.109    
     26000   311.9413       360.68147      38967.519      1.2189469      22309.88       3383.6796      18926.201    
     28000   313.58042      1408.5886      39703.952      1.1963378      22443.738      3401.4595      19042.278    
     30000   310.54071      743.77711      39392.378      1.2058002      22354.323      3368.4871      18985.836    
     32000   314.94007      1559.2687      39258.41       1.209915       22345.521      3416.2078      18929.313    
     34000   310.53937     -48.979685      39575.905      1.2002085      22401.472      3368.4726      19032.999    
     36000   309.66105     -2171.222       39589.572      1.1997942      22340.87       3358.9453      18981.925    
     38000   314.71481      1757.991       38989.479      1.2182604      22420.33       3413.7644      19006.565    
     40000   313.41158      470.45278      39112.872      1.214417       22496.207      3399.628       19096.579    
     42000   315.17147      464.32058      39402.367      1.2054945      22374.736      3418.7178      18956.018    
     44000   320.20851      2617.3101      39434.327      1.2045175      22565.962      3473.3554      19092.606    
     46000   311.67174     -2807.875       39542.142      1.2012333      22382.735      3380.7557      19001.979    
     48000   321.19171      1740.5354      39440.953      1.2043152      22475.501      3484.0204      18991.48     
     50000   316.59773      367.11297      39164.714      1.2128095      22417.666      3434.1887      18983.477    
     52000   311.75138      1079.3753      39398.254      1.2056204      22320.762      3381.6195      18939.142    
     54000   305.07072      506.30358      39217.772      1.2111687      22361.203      3309.1532      19052.049    
     56000   310.98086     -2216.5615      39564.706      1.2005482      22334.958      3373.2615      18961.697    
     58000   314.13268      579.82883      39620.535      1.1988565      22419.155      3407.4499      19011.705    
     60000   318.69701      1128.6719      39037.229      1.2167702      22381.655      3456.96        18924.695    
     62000   309.68437     -1146.8796      39038.339      1.2167356      22460.415      3359.1983      19101.217    
     64000   311.72066      1136.6858      39121.823      1.2141392      22359.156      3381.2863      18977.87     
     66000   314.64542      315.92463      38964.019      1.2190564      22407.468      3413.0117      18994.456    
     68000   314.05885     -512.22333      39101.184      1.21478        22360.541      3406.6491      18953.892    
     70000   325.83307      2103.4365      39057.128      1.2161503      22575.719      3534.3659      19041.353    
     72000   311.85695      502.4582       39306.746      1.2084271      22373.356      3382.7646      18990.591    
     74000   304.93393      1289.9569      39652.48       1.1978907      22290.847      3307.6695      18983.177    
     76000   314.85045     -896.2719       39700.065      1.1964549      22399.256      3415.2356      18984.02     
     78000   315.86364      113.62456      39283.092      1.2091548      22400.945      3426.2259      18974.719    
     80000   311.25129     -337.91241      39182.468      1.21226        22450.243      3376.1949      19074.048    
     82000   312.97796     -3377.3656      39361.042      1.2067602      22332.281      3394.9244      18937.357    
     84000   308.05411     -748.80133      39334.03       1.2075889      22321.221      3341.5146      18979.706    
     86000   317.33769     -60.754137      39455.711      1.2038647      22449.681      3442.2151      19007.466    
     88000   317.26522      2132.937       39646.676      1.1980661      22465.461      3441.4291      19024.032    
     90000   311.22172     -2626.1173      39746.122      1.1950685      22367.421      3375.8742      18991.547    
     92000   315.27955     -1981.6239      39374.075      1.2063607      22461.424      3419.8902      19041.534    
     94000   310.6063      -1645.4881      39051.091      1.2163383      22363.455      3369.1986      18994.256    
     96000   317.84573      556.20818      39431.581      1.2046014      22495.651      3447.726       19047.925    
     98000   310.62823      1366.3482      39634.268      1.1984411      22354.076      3369.4365      18984.639    
    100000   316.79426     -803.95493      39565.226      1.2005325      22467.524      3436.3205      19031.204    
    102000   314.79086     -1165.3086      39486.914      1.2029134      22345.005      3414.5893      18930.416    
    104000   321.57129     -406.11688      39471.85       1.2033725      22453.924      3488.1377      18965.786    
    106000   312.83274     -954.66846      39445.812      1.2041668      22383.924      3393.3493      18990.575    
    108000   316.70169     -722.18551      39508.95       1.2022425      22437.417      3435.3163      19002.101    
    110000   311.25764     -300.68864      39626.649      1.1986716      22312.153      3376.2638      18935.889    
    112000   322.07883      840.37745      39492.692      1.2027374      22486.198      3493.6431      18992.555    
    114000   315.90213     -183.51207      39215.412      1.2112416      22382.78       3426.6434      18956.137    
    116000   307.24738     -487.62005      39449.349      1.2040589      22368.551      3332.7639      19035.787    
    118000   314.96368      302.6012       39088.428      1.2151765      22389.618      3416.4639      18973.154    
    120000   323.19738      144.68805      39410.067      1.205259       22560.277      3505.7762      19054.501    
    122000   308.444       -1759.6352      39515.586      1.2020406      22387.348      3345.7438      19041.604    
    124000   307.76588      674.46477      39513.525      1.2021033      22255.084      3338.3882      18916.696    
    126000   313.85927      375.23744      39383.975      1.2060575      22426.579      3404.4841      19022.095    
    128000   310.78294     -138.63602      39414.258      1.2051308      22385.965      3371.1147      19014.85     
    130000   317.67144     -427.11648      39517.436      1.2019843      22472.207      3445.8354      19026.372    
    132000   312.03148     -1844.205       39207.946      1.2114722      22393.175      3384.6578      19008.517    
    134000   319.20718      54.688318      39557.648      1.2007624      22499.562      3462.4938      19037.068    
    136000   309.15702     -3128.0589      39462.886      1.2036458      22390.577      3353.478       19037.099    
    138000   309.49224     -403.09638      39533.153      1.2015064      22399.276      3357.1142      19042.162    
    140000   311.69614     -931.54698      39444.16       1.2042172      22317.149      3381.0203      18936.128    
    142000   308.61093      725.19111      39257.111      1.209955       22262.045      3347.5545      18914.491    
    144000   313.77553     -895.94138      39247.187      1.210261       22413.629      3403.5758      19010.053    
    146000   318.82879      1144.4998      39002.442      1.2178555      22348.477      3458.3894      18890.087    
    148000   319.92409      579.53748      39307.869      1.2083926      22471.117      3470.2703      19000.847    
    150000   318.056       -906.72433      39156.762      1.2130558      22441.392      3450.0068      18991.385    
    152000   311.22024      242.58972      39660.842      1.1976381      22346.415      3375.8581      18970.557    
    154000   314.01405      906.60544      39786.51       1.1938554      22510.257      3406.1631      19104.094    
    156000   315.30635      141.06837      39258.596      1.2099092      22438.564      3420.1809      19018.383    
    158000   307.86844      109.09025      39508.907      1.2022438      22205.985      3339.5006      18866.484    
    160000   312.79484      1233.1697      39761.043      1.19462        22417.557      3392.9381      19024.618    
    162000   316.18018     -165.02309      39686.091      1.1968762      22425.449      3429.6595      18995.79     
    164000   318.11136     -1148.0741      39624.01       1.1987514      22347.422      3450.6072      18896.815    
    166000   306.90844      515.47458      39870.495      1.1913405      22413.992      3329.0873      19084.905    
    168000   312.90475     -1695.4119      39662.229      1.1975963      22340.726      3394.1303      18946.596    
    170000   313.43991      215.6361       39341.273      1.2073666      22321.596      3399.9353      18921.661    
    172000   316.85195     -160.65857      39455.777      1.2038627      22482.399      3436.9463      19045.452    
    174000   316.19983     -783.21175      39399.148      1.205593       22306.49       3429.8726      18876.617    
    176000   311.90971     -697.70771      39575.942      1.2002074      22418.232      3383.337       19034.895    
    178000   310.61992      68.932157      39440.942      1.2043155      22359.72       3369.3464      18990.374    
    180000   323.01353      1725.8499      39498.119      1.2025721      22441.522      3503.7819      18937.741    
    182000   309.62524     -1434.3324      39733.512      1.1954477      22391.688      3358.5569      19033.131    
    184000   313.89513      726.20467      39142.556      1.2134961      22394.666      3404.8732      18989.793    
    186000   316.24692     -711.96094      39724.727      1.1957121      22385.737      3430.3834      18955.353    
    188000   325.47929     -231.60033      39808.366      1.1931999      22583.44       3530.5284      19052.911    
    190000   310.93004      1340.1474      39602.872      1.1993913      22329.164      3372.7103      18956.453    
    192000   314.16013     -60.50571       39575.464      1.2002219      22286.292      3407.7476      18878.544    
    194000   322.00696      689.52099      39451.694      1.2039873      22401.762      3492.8635      18908.898    
    196000   308.26384     -257.99226      39524.838      1.2017592      22328.621      3343.7896      18984.831    
    198000   325.59262     -1013.3729      39665.55       1.197496       22548.908      3531.7578      19017.15     
    200000   310.46096      329.63925      39261.701      1.2098135      22331.821      3367.6221      18964.199    
    202000   316.10991      707.697        39268.976      1.2095894      22423.18       3428.8972      18994.283    
    204000   320.40907      2569.6185      39166.185      1.212764       22440.064      3475.5309      18964.534    
    206000   311.66589     -942.6039       39157.591      1.2130301      22298.314      3380.6922      18917.621    
    208000   315.56382     -2154.2147      39417.108      1.2050437      22457.848      3422.9737      19034.875    
    210000   318.75301     -496.10286      39337.541      1.2074811      22518.224      3457.5674      19060.657    
    212000   310.18015      536.29893      39489.337      1.2028396      22356.86       3364.5762      18992.284    
    214000   311.94757      1922.5658      38987.181      1.2183322      22394.79       3383.7476      19011.043    
    216000   313.19363     -1028.3766      39184.03       1.2122116      22337.966      3397.2639      18940.702    
    218000   320.27807      976.6382       39411.581      1.2052127      22461.517      3474.11        18987.407    
    220000   315.3149       533.4442       39680.549      1.1970434      22421.687      3420.2736      19001.413    
    222000   313.09891     -1393.6734      39340.681      1.2073848      22403.612      3396.2364      19007.375    
    224000   315.26013      698.13415      39449.057      1.2040678      22372.264      3419.6796      18952.585    
    226000   313.00052     -631.99562      39474.023      1.2033062      22378.192      3395.1692      18983.023    
    228000   320.23613      961.35108      39590.317      1.1997716      22507.447      3473.6551      19033.792    
    230000   319.20131     -987.47927      39278.539      1.2092949      22435.487      3462.4301      18973.057    
    232000   323.24049      2257.77        39444.045      1.2042208      22506.173      3506.2438      18999.929    
    234000   312.12577     -2.3770413      39267.944      1.2096212      22369.158      3385.6806      18983.478    
    236000   315.30726      1027.7284      39422.254      1.2048864      22431.866      3420.1908      19011.675    
    238000   307.04007     -159.73419      39355.841      1.2069196      22231.799      3330.5151      18901.284    
    240000   313.35543      468.54822      38949.779      1.2195021      22382.284      3399.0189      18983.265    
    242000   315.97902      53.834236      39454.32       1.2039072      22465.983      3427.4774      19038.506    
    244000   313.6398       1078.8864      39229.593      1.2108037      22404.601      3402.1035      19002.497    
    246000   313.79092     -989.26179      39614.336      1.1990441      22320.546      3403.7427      18916.803    
    248000   305.84971     -355.86361      39374.239      1.2063557      22323.614      3317.6031      19006.011    
    250000   322.85383     -484.20193      39609.718      1.1991839      22541.748      3502.0497      19039.698    
    252000   311.46184     -352.99491      39588.769      1.1998185      22392.345      3378.4788      19013.867    
    254000   307.30461     -2251.6531      39480.934      1.2030956      22306.787      3333.3847      18973.402    
    256000   313.83968      1215.6599      39353.32       1.2069969      22527.167      3404.2717      19122.896    
    258000   308.36004      291.4163       39619.52       1.1988873      22366.22       3344.8331      19021.387    
    260000   312.56613      23.106379      39257.214      1.2099518      22394.071      3390.4573      19003.614    
    262000   313.44621      888.93066      39101.594      1.2147673      22389.105      3400.0036      18989.102    
    264000   311.19318      1916.8823      39434.398      1.2045153      22455.617      3375.5647      19080.053    
    266000   318.56028      881.58101      39058.511      1.2161072      22434.849      3455.4768      18979.373    
    268000   316.41724      487.13509      39277.842      1.2093164      22415.019      3432.2308      18982.788    
    270000   309.85172      963.35274      39218.993      1.211131       22309.709      3361.0136      18948.695    
    272000   318.72967     -1253.407       39461.759      1.2036802      22487.321      3457.3142      19030.007    
    274000   313.51583     -731.6273       39345.988      1.2072219      22477.428      3400.7588      19076.669    
    276000   312.9746      -209.79453      39632.194      1.1985039      22436.863      3394.888       19041.975    
    278000   307.41186     -2929.9784      39408.368      1.205311       22284.186      3334.548       18949.638    
    280000   309.92352     -490.85298      39294.465      1.2088048      22453.711      3361.7925      19091.919    
    282000   317.51314     -157.42691      39284.675      1.209106       22481.963      3444.1183      19037.844    
    284000   307.88568      402.68579      39674.889      1.1972141      22322.69       3339.6876      18983.002    
    286000   313.23207     -1846.7683      39754.983      1.1948021      22500.119      3397.6808      19102.439    
    288000   317.5427       86.0041        39396.289      1.2056805      22409.713      3444.4389      18965.274    
    290000   316.49154     -32.058596      39639.994      1.198268       22446.854      3433.0368      19013.817    
    292000   318.82994     -1607.4651      39137.895      1.2136406      22332.601      3458.4018      18874.199    
    294000   316.98977      1358.0319      39144.223      1.2134444      22385.167      3438.4412      18946.726    
    296000   311.74384     -222.31296      39306.666      1.2084296      22384.79       3381.5378      19003.252    
    298000   318.06031      1309.576       39276.307      1.2093636      22511.934      3450.0535      19061.881    
    300000   311.88209      1120.7462      39642.2        1.1982014      22359.91       3383.0373      18976.872    
    302000   316.81577     -555.59345      39599.937      1.1994801      22513.344      3436.5538      19076.79     
    304000   310.74031     -634.48541      39362.512      1.2067151      22362.716      3370.6523      18992.063    
    306000   314.96956      343.16894      39335.249      1.2075515      22354.528      3416.5277      18938.001    
    308000   313.26014     -577.36546      39854.206      1.1918275      22426.144      3397.9853      19028.159    
    310000   313.99545     -1302.8363      39364.026      1.2066687      22370.114      3405.9613      18964.153    
    312000   317.01099      465.48736      39305.221      1.208474       22435.928      3438.6714      18997.256    
    314000   312.08704     -259.83932      39491.571      1.2027715      22378.137      3385.2605      18992.877    
    316000   317.04687      1571.2725      39588.113      1.1998384      22415.908      3439.0606      18976.847    
    318000   318.85568     -927.14144      39125.062      1.2140386      22506.901      3458.681       19048.22     
    320000   312.5112       1962.4249      39267.136      1.2096461      22378.546      3389.8614      18988.685    
    322000   313.64057      1543.2989      39292.69       1.2088594      22394.38       3402.1119      18992.268    
    324000   307.43029      157.97799      39162.179      1.212888       22179.914      3334.748       18845.166    
    326000   319.63042     -1533.1404      39230.203      1.2107849      22443.391      3467.0848      18976.307    
    328000   310.78892     -19.886628      39599.355      1.1994978      22327.461      3371.1796      18956.281    
    330000   307.70597      1101.9713      39421.608      1.2049061      22302.544      3337.7383      18964.805    
    332000   309.32301     -652.74895      39612.038      1.1991137      22470.347      3355.2786      19115.068    
    334000   303.57838     -905.56736      39107.369      1.2145879      22354.045      3292.9656      19061.079    
    336000   309.39582      1555.2057      39290.142      1.2089378      22298.272      3356.0684      18942.204    
    338000   317.31104      611.30363      39436.952      1.2044373      22352.476      3441.926       18910.55     
    340000   311.99684     -284.09037      39435.935      1.2044684      22453.284      3384.2821      19069.002    
    342000   308.55314      585.79068      39520.464      1.2018922      22319.567      3346.9276      18972.639    
    344000   312.19274      1354.711       39345.151      1.2072476      22388.759      3386.4071      19002.352    
    346000   314.59328     -2326.5635      39350.54       1.2070822      22449.489      3412.4461      19037.042    
    348000   317.99482      1138.4361      39152.283      1.2131946      22395.801      3449.3431      18946.458    
    350000   315.50071     -1856.9633      39403.901      1.2054476      22381.712      3422.2892      18959.423    
    352000   321.39592      297.80232      39298.861      1.2086696      22414.466      3486.2355      18928.23     
    354000   314.72785     -692.41373      39576.373      1.2001943      22384.697      3413.9057      18970.791    
    356000   314.3474       202.36472      39367.545      1.2065608      22468.276      3409.779       19058.497    
    358000   317.15815      1497.9544      39297.525      1.2087107      22375.93       3440.2677      18935.662    
    360000   313.24057      1540.328       39292.914      1.2088525      22498.273      3397.773       19100.5      
    362000   306.28173      1118.3833      39704.875      1.19631        22323.708      3322.2893      19001.419    
    364000   315.30875     -487.96036      39579.856      1.2000887      22470.918      3420.2069      19050.711    
    366000   310.92898     -1237.4871      39646.471      1.1980723      22378.579      3372.6988      19005.881    
    368000   316.90055      348.10164      39355.513      1.2069297      22411.695      3437.4735      18974.222    
    370000   314.60301     -595.04035      39407.308      1.2053434      22351.573      3412.5516      18939.021    
    372000   316.18749      460.89831      39417.147      1.2050425      22364.613      3429.7387      18934.875    
    374000   308.76122     -862.25407      39357.502      1.2068687      22425.847      3349.1848      19076.663    
    376000   319.00485      2769.0778      39015.906      1.2174352      22401.391      3460.2992      18941.092    
    378000   299.09974     -1012.5476      39357.677      1.2068633      22224.155      3244.385       18979.77     
    380000   314.42812      40.698124      39577.495      1.2001603      22380.455      3410.6546      18969.801    
    382000   313.26259     -1147.0966      39508.695      1.2022502      22401.165      3398.0118      19003.153    
    384000   316.41761      875.97026      39401.295      1.2055273      22425.786      3432.2349      18993.551    
    386000   315.71331     -80.725198      39387.081      1.2059624      22455.734      3424.5952      19031.139    
    388000   312.97808      775.25113      39500.767      1.2024915      22379.615      3394.9257      18984.689    
    390000   314.41449     -1989.3345      39481.091      1.2030908      22394.276      3410.5067      18983.769    
    392000   307.10226     -173.39897      39149.479      1.2132815      22253.241      3331.1898      18922.051    
    394000   312.31819      587.01846      39288.845      1.2089777      22413.134      3387.7679      19025.367    
    396000   311.90304     -880.36866      39726.911      1.1956464      22360.613      3383.2646      18977.348    
    398000   321.12919      797.29914      39469.46       1.2034453      22492.569      3483.3422      19009.227    
    400000   313.79124     -295.32529      39383.411      1.2060748      22409.338      3403.7463      19005.591    
    402000   313.18293      2792.1419      39464.62       1.2035929      22334.321      3397.1477      18937.174    
    404000   319.18741      1117.2966      39448.928      1.2040717      22458.6        3462.2793      18996.321    
    406000   310.72841     -1836.8378      39122.075      1.2141313      22344.627      3370.5232      18974.104    
    408000   311.20907     -692.55118      39227.599      1.2108653      22374.167      3375.737       18998.43     
    410000   307.48441      1623.5992      39370.255      1.2064778      22280.992      3335.3349      18945.657    
    412000   316.38004     -1199.8275      38893.245      1.2212747      22433.69       3431.8274      19001.862    
    414000   309.04329      1410.4826      39287.805      1.2090097      22251.085      3352.2444      18898.841    
    416000   312.59622     -1024.2545      39285.286      1.2090872      22346.756      3390.7837      18955.972    
    418000   309.15881      1330.7789      39581.449      1.2000404      22428.943      3353.4975      19075.445    
    420000   307.98407      754.08124      39282.276      1.2091799      22247.906      3340.7548      18907.151    
    422000   312.1223       343.76066      39686.694      1.196858       22412.551      3385.643       19026.908    
    424000   306.92918      316.11173      39141          1.2135443      22334.7        3329.3123      19005.387    
    426000   310.43011      498.05875      39311.972      1.2082665      22303.999      3367.2875      18936.711    
    428000   314.92614      128.72177      39331.517      1.207666       22450.659      3416.0567      19034.602    
    430000   311.19952     -1003.7205      38958.148      1.2192401      22348.467      3375.6334      18972.834    
    432000   311.40228     -1270.3993      39194.608      1.2118845      22380.45       3377.8328      19002.617    
    434000   307.97414     -1534.9959      39438.309      1.2043959      22284.163      3340.6472      18943.516    
    436000   311.29758     -526.82562      39623.75       1.1987593      22430.557      3376.6971      19053.86     
    438000   311.91819     -2053.0766      39770.314      1.1943415      22414.532      3383.4289      19031.103    
    440000   310.17528      1352.8409      39382.988      1.2060877      22339.086      3364.5233      18974.563    
    442000   317.44043     -711.53694      39521.683      1.2018551      22396.469      3443.3295      18953.14     
    444000   321.45337      2914.6102      39150.421      1.2132523      22444.072      3486.8586      18957.213    
    446000   315.95914      484.91034      39407.902      1.2053252      22405.405      3427.2618      18978.143    
    448000   309.52118     -404.24944      39716.768      1.1959517      22447.041      3357.4282      19089.613    
    450000   307.08215      780.37051      39672.758      1.1972784      22419.348      3330.9716      19088.376    
    452000   308.35165      213.5251       39162.545      1.2128767      22293.482      3344.7421      18948.74     
    454000   310.11854     -1075.1         39301.64       1.2085841      22396.097      3363.9078      19032.189    
    456000   306.68953     -2770.1351      39305.068      1.2084787      22332.872      3326.7128      19006.159    
    458000   312.24434     -590.86805      39695.331      1.1965976      22313.328      3386.9667      18926.362    
    460000   315.96629     -1173.5536      39106.718      1.2146081      22379.57       3427.3394      18952.231    
    462000   307.93292      2574.7772      39128.012      1.2139471      22331.928      3340.2         18991.728    
    464000   316.70597      100.86411      38982.661      1.2184734      22474.631      3435.3628      19039.268    
    466000   313.79763     -2343.9796      39611.106      1.1991419      22432.065      3403.8155      19028.25     
    468000   315.91055     -570.76072      39410.477      1.2052465      22423.615      3426.7347      18996.88     
    470000   315.24062      311.54671      39486.535      1.2029249      22411.698      3419.4679      18992.23     
    472000   311.71318      831.44095      39351.757      1.2070449      22298.957      3381.2052      18917.752    
    474000   313.79213      1818.2959      39036.393      1.2167963      22391.756      3403.7559      18988        
    476000   308.91789      200.12582      39536.086      1.2014173      22305.155      3350.8842      18954.271    
    478000   313.43714     -694.44051      39482.209      1.2030567      22430.25       3399.9052      19030.345    
    480000   311.28198      200.64604      39576.59       1.2001877      22338.386      3376.5279      18961.858    
    482000   311.97358     -1703.7273      39509.567      1.2022237      22398.022      3384.0297      19013.993    
    484000   316.91131      1193.39        39800.058      1.193449       22411.938      3437.5902      18974.347    
    486000   309.00974     -1066.7452      39243.097      1.2103871      22325.41       3351.8805      18973.529    
    488000   313.88422      270.20896      39276.072      1.2093709      22441.2        3404.7548      19036.445    
    490000   315.39058      1346.2354      39405.321      1.2054042      22397.269      3421.0945      18976.174    
    492000   311.01641     -371.61384      39559.912      1.2006937      22349.643      3373.6472      18975.996    
    494000   309.62112     -1338.6561      39294.352      1.2088083      22316.379      3358.5123      18957.867    
    496000   313.91311      1609.96        39339.211      1.2074298      22377.773      3405.0682      18972.704    
    498000   323.86616     -10.053564      39493.349      1.2027174      22525.587      3513.0305      19012.556    
    500000   315.15983     -975.45693      39973.636      1.1882666      22412.334      3418.5915      18993.742    
Loop time of 1430.33 on 20 procs for 500000 steps with 3640 atoms

Performance: 15.101 ns/day, 1.589 hours/ns, 349.569 timesteps/s, 1.272 Matom-step/s
97.6% CPU use with 20 MPI tasks x no OpenMP threads

MPI task timing breakdown:
Section |  min time  |  avg time  |  max time  |%varavg| %total
---------------------------------------------------------------
Pair    | 778.32     | 854.63     | 931.69     | 152.4 | 59.75
Bond    | 192.85     | 223.13     | 265.09     | 141.8 | 15.60
Kspace  | 110.77     | 222.1      | 328.59     | 430.8 | 15.53
Neigh   | 36.139     | 36.17      | 36.203     |   0.4 |  2.53
Comm    | 63.579     | 64.392     | 65.439     |   5.6 |  4.50
Output  | 0.044831   | 0.049567   | 0.05429    |   1.3 |  0.00
Modify  | 18.247     | 19.979     | 21.282     |  26.6 |  1.40
Other   |            | 9.877      |            |       |  0.69

Nlocal:            182 ave         201 max         163 min
Histogram: 1 1 2 5 1 3 2 2 1 2
Nghost:        6159.85 ave        6217 max        6075 min
Histogram: 1 1 2 0 2 3 4 2 2 3
Neighs:        95130.1 ave      106112 max       84790 min
Histogram: 1 1 4 3 2 2 2 3 0 2

Total # of neighbors = 1902603
Ave neighs/atom = 522.69313
Ave special neighs/atom = 11.554945
Neighbor list builds = 10676
Dangerous builds = 0

unfix npt8
unfix data_output
undump traj

write_data step08_final.data
System init for write_data ...
PPPM initialization ...
  using 12-bit tables for long-range coulomb
  G vector (1/distance) = 0.16956875
  grid = 8 8 8
  stencil order = 5
  estimated absolute RMS force accuracy = 0.014375906
  estimated relative force accuracy = 4.3292613e-05
  using double precision KISS FFT
  3d grid and FFT values/proc = 567 32
Generated 190 of 190 mixed pair_coeff terms from sixthpower/sixthpower mixing rule

Total wall time: 0:23:50
