LAMMPS (22 Jul 2025 - Update 1)
# Step 4: NPT equilibration at 700 K, 100 bar for 1 ns

units real
atom_style full
boundary p p p

pair_style lj/class2/coul/long 12.0
bond_style class2
angle_style class2
dihedral_style class2
improper_style class2
kspace_style pppm 1e-4
pair_modify mix sixthpower

read_data step03_final.data
Reading data file ...
  orthogonal box = (-22.031109 -23.253323 -8.8204344) to (20.21209 13.025914 20.193093)
  5 by 3 by 1 MPI processor grid
  reading atoms ...
  3640 atoms
  reading velocities ...
  3640 velocities
  scanning bonds ...
  4 = max bonds/atom
  scanning angles ...
  6 = max angles/atom
  scanning dihedrals ...
  21 = max dihedrals/atom
  scanning impropers ...
  4 = max impropers/atom
  orthogonal box = (-22.031109 -23.253323 -8.8204344) to (20.21209 13.025914 20.193093)
  5 by 3 by 1 MPI processor grid
  reading bonds ...
  4020 bonds
  reading angles ...
  7100 angles
  reading dihedrals ...
  11170 dihedrals
  reading impropers ...
  3110 impropers
Finding 1-2 1-3 1-4 neighbors ...
  special bond factors lj:    0        0        0       
  special bond factors coul:  0        0        0       
     4 = max # of 1-2 neighbors
     9 = max # of 1-3 neighbors
    24 = max # of 1-4 neighbors
    27 = max # of special neighbors
  special bonds CPU = 0.001 seconds
  read_data CPU = 0.206 seconds

neighbor 2.0 bin
neigh_modify delay 0 every 1 check yes

timestep 0.5

thermo_style custom step temp press vol density etotal ke pe
thermo 2000
thermo_modify   flush yes

# ---------- Trajectory output ----------
dump traj all atom 10000 step0_trajectory.dump
dump_modify traj sort id

# Write restart files every 200,000 steps (~100 ps)
restart 50000 step01_restart_*.bin

fix npt4 all npt temp 700.0 700.0 100.0 aniso 98.6923 98.6923 1000.0 pchain 3

run 500000
PPPM initialization ...
  using 12-bit tables for long-range coulomb
  G vector (1/distance) = 0.16399703
  grid = 8 8 8
  stencil order = 5
  estimated absolute RMS force accuracy = 0.017813286
  estimated relative force accuracy = 5.364418e-05
  using double precision KISS FFT
  3d grid and FFT values/proc = 819 48
Generated 190 of 190 mixed pair_coeff terms from sixthpower/sixthpower mixing rule
Neighbor list info ...
  update: every = 1 steps, delay = 0 steps, check = yes
  max neighbors/atom: 2000, page size: 100000
  master list distance cutoff = 14
  ghost atom cutoff = 14
  binsize = 7, bins = 7 6 5
  1 neighbor lists, perpetual/occasional/extra = 1 0 0
  (1) pair lj/class2/coul/long, perpetual
      attributes: half, newton on
      pair build: half/bin/newton
      stencil: half/bin/3d
      bin: standard
Per MPI rank memory allocation (min/avg/max) = 18.33 | 18.68 | 18.71 Mbytes
   Step          Temp          Press          Volume        Density         TotEng         KinEng         PotEng    
         0   706.70578      1524.7203      44464.712      1.068248       31149.348      7665.7562      23483.591    
      2000   722.82571     -438.79407      45216.045      1.0504974      31568.801      7840.6118      23728.189    
      4000   706.66088      315.41465      44681.797      1.0630579      31160.901      7665.2692      23495.632    
      6000   702.78339      1901.7931      44178.45       1.0751699      31114.404      7623.2093      23491.195    
      8000   705.39388      2360.4703      45125.202      1.0526122      31247.008      7651.5258      23595.483    
     10000   697.65525     -918.1969       45773.864      1.0376956      31072.585      7567.5835      23505.001    
     12000   710.35485     -3125.4507      45698.79       1.0394003      31404.847      7705.3382      23699.509    
     14000   710.30182     -50.616236      45222.543      1.0503465      31291.477      7704.763       23586.714    
     16000   689.99714     -123.78569      44456.225      1.0684519      30944.69       7484.5148      23460.175    
     18000   715.00943      309.57607      44493.777      1.0675501      31182.882      7755.8272      23427.055    
     20000   698.29013     -1617.7232      44571.452      1.0656897      31111.99       7574.4701      23537.52     
     22000   705.06195      1249.6081      44709.333      1.0624032      31208.999      7647.9253      23561.074    
     24000   718.35074     -1842.1713      44538.608      1.0664756      31325.815      7792.071       23533.744    
     26000   690.87987     -948.03378      44722.617      1.0620876      30969.338      7494.0898      23475.249    
     28000   711.82322     -308.80076      44819.471      1.0597925      31282.25       7721.2658      23560.984    
     30000   708.47921      160.72122      45107.624      1.0530224      31214.075      7684.9928      23529.082    
     32000   704.27571     -1432.7837      45411.579      1.0459741      31138.356      7639.3968      23498.959    
     34000   712.97838      553.77771      44716.852      1.0622245      31493.111      7733.7961      23759.315    
     36000   697.50747     -443.859        45008.267      1.055347       31096.14       7565.9806      23530.159    
     38000   716.65097      826.94888      43945.061      1.08088        31158.527      7773.6333      23384.894    
     40000   706.57995      525.43221      44703.498      1.0625418      31365.711      7664.3913      23701.32     
     42000   689.84263     -1396.4713      44802.509      1.0601937      30887.464      7482.8387      23404.625    
     44000   702.64538     -1273.6291      45263.978      1.049385       31280.153      7621.7123      23658.44     
     46000   692.12689      533.73427      46166.855      1.0288623      31190.715      7507.6165      23683.099    
     48000   684.71155     -208.61887      45043.841      1.0545135      30986.04       7427.181       23558.859    
     50000   709.77862     -1401.0733      44902.474      1.0578334      31411.259      7699.0877      23712.172    
     52000   708.15467      1166.7441      45043.297      1.0545262      31103.804      7681.4726      23422.332    
     54000   690.34329     -1791.1013      45044.634      1.0544949      30974.039      7488.2695      23485.769    
     56000   709.91687      2126.5637      44157.686      1.0756754      31221.746      7700.5874      23521.158    
     58000   702.00241      2020.1845      45280.938      1.0489919      31199.516      7614.7379      23584.778    
     60000   691.82187     -1227.9015      44516.752      1.0669992      31029.802      7504.3079      23525.494    
     62000   705.9097      -1387.3678      44777.178      1.0607935      31412.971      7657.1209      23755.85     
     64000   702.49259     -636.27427      45099.98       1.0532009      31241.713      7620.055       23621.658    
     66000   699.60844      973.00696      44609.722      1.0647755      31151.29       7588.7701      23562.52     
     68000   703.79692     -368.10405      44946.458      1.0567982      31096.082      7634.2033      23461.879    
     70000   719.14161     -742.46993      45401.901      1.0461971      31552.993      7800.6497      23752.344    
     72000   701.09426     -1501.3745      43695.782      1.0870463      31073.27       7604.8871      23468.383    
     74000   688.25255      139.46716      45394.447      1.0463689      31143.039      7465.5909      23677.448    
     76000   686.01571     -691.40137      44667.993      1.0633864      30977.164      7441.3275      23535.836    
     78000   707.38142      503.20869      45063.575      1.0540517      31342.13       7673.085       23669.045    
     80000   713.23466      855.81199      44173.973      1.0752788      31380.403      7736.5761      23643.827    
     82000   705.41922      2237.2901      44238.569      1.0737087      31028.307      7651.8006      23376.506    
     84000   690.76837      2286.3899      43960.822      1.0804925      30954.882      7492.8804      23462.001    
     86000   703.31954     -1842.6741      43831.774      1.0836736      31204.737      7629.025       23575.712    
     88000   702.01431     -1203.3677      44933.966      1.057092       31280.46       7614.867       23665.593    
     90000   694.76864      132.74885      44247.311      1.0734966      30934.935      7536.272       23398.663    
     92000   696.93798     -137.03008      43759.824      1.0854554      31058.584      7559.8032      23498.78     
     94000   702.77227     -1381.9116      45254.264      1.0496102      31328.148      7623.0887      23705.059    
     96000   695.39125      1362.5667      43820.92       1.083942       30977.211      7543.0255      23434.186    
     98000   684.51096     -476.24188      44643.575      1.0639681      31182.644      7425.0052      23757.639    
    100000   700.65947      1954.9337      44783.365      1.0606469      31113.211      7600.1708      23513.041    
    102000   700.49388     -409.39702      43589.871      1.0896875      31150.816      7598.3747      23552.442    
    104000   714.116       -2789.0227      45479.148      1.0444201      31356.261      7746.1361      23610.124    
    106000   709.69772      85.045423      44718.488      1.0621857      31303.627      7698.2102      23605.417    
    108000   684.2278       377.00257      45397.727      1.0462933      31055.197      7421.9337      23633.263    
    110000   694.05359      78.496651      44586.244      1.0653361      30924.836      7528.5157      23396.321    
    112000   693.27786      5288.6505      44506.786      1.0672381      31211.014      7520.1012      23690.913    
    114000   684.50943     -461.6271       44602.632      1.0649447      31049.67       7424.9887      23624.681    
    116000   696.95638      1974.9595      45562.78       1.0425031      31015.417      7560.0028      23455.414    
    118000   693.72178      489.98623      44949.904      1.0567172      31175.889      7524.9165      23650.972    
    120000   711.04356      1575.9011      44580.961      1.0654624      31358.436      7712.8087      23645.628    
    122000   701.16667      233.93897      44348.508      1.071047       31001.945      7605.6725      23396.273    
    124000   715.21821     -870.36574      44613.439      1.0646868      31486.046      7758.0919      23727.954    
    126000   693.12397     -666.99746      44052.258      1.0782498      30952.189      7518.432       23433.757    
    128000   715.25108      2568.5404      43874.321      1.0826227      31423.764      7758.4485      23665.315    
    130000   699.09019     -3449.1844      44272.236      1.0728922      31147.137      7583.1485      23563.989    
    132000   693.75779      803.01991      44041.171      1.0785212      31159.075      7525.3072      23633.768    
    134000   696.63113      5.537529       44205.926      1.0745016      30896.606      7556.4747      23340.131    
    136000   697.40897     -491.47419      44287.306      1.0725271      31103.206      7564.9121      23538.294    
    138000   704.26188     -583.80839      44871.96       1.0585528      31183.289      7639.2467      23544.042    
    140000   723.04756      875.55106      43604.706      1.0893168      31459.242      7843.0182      23616.224    
    142000   693.80313      38.13495       44914.694      1.0575456      31079.507      7525.7989      23553.708    
    144000   698.25588      878.19886      45092.562      1.0533741      31006.139      7574.0986      23432.041    
    146000   690.17134     -2370.1143      45020.365      1.0550634      31116.734      7486.4044      23630.33     
    148000   704.76291      2687.7943      44949.142      1.0567351      31253.978      7644.6815      23609.296    
    150000   715.74899      671.83574      43753.813      1.0856045      31163.917      7763.8494      23400.068    
    152000   706.48981     -947.49717      45335.002      1.0477409      31223.217      7663.4135      23559.803    
    154000   717.50634      217.57158      45332.565      1.0477973      31489.667      7782.9117      23706.756    
    156000   704.27378      1605.4861      44357.438      1.0708314      31038.457      7639.3759      23399.081    
    158000   704.48282     -495.4962       44654.136      1.0637164      31382.384      7641.6434      23740.741    
    160000   704.72851      1878.4173      45617.308      1.0412569      31084.912      7644.3083      23440.604    
    162000   701.74223     -1922.8925      44496.12       1.0674939      31231.373      7611.9157      23619.457    
    164000   682.05043     -2587.2037      45846.965      1.036041       30794.594      7398.3155      23396.279    
    166000   706.45487      358.20068      44944.529      1.0568436      31243.906      7663.0345      23580.872    
    168000   717.48647      533.4275       44487.735      1.0676951      31461.752      7782.6961      23679.056    
    170000   693.01486     -3326.4483      44765.145      1.0610786      31123.507      7517.2485      23606.258    
    172000   690.36589     -2417.4019      44078.988      1.0775959      31122.558      7488.5147      23634.043    
    174000   699.94978     -3006.8297      43784.704      1.0848386      30984.238      7592.4727      23391.766    
    176000   704.35267      2942.6219      44290.328      1.072454       31253.259      7640.2315      23613.027    
    178000   690.66469      2803.9935      43738.019      1.0859965      31072.67       7491.7558      23580.914    
    180000   699.07955     -1144.2287      44147.808      1.0759161      31231.765      7583.0331      23648.732    
    182000   701.78935      265.57339      44146.948      1.0759371      31251.215      7612.4268      23638.789    
    184000   701.38379      1614.1191      44630.165      1.0642877      31129.617      7608.0277      23521.59     
    186000   694.73598      3833.0956      44580.025      1.0654848      30954.644      7535.9177      23418.727    
    188000   702.10528     -4812.8684      43447.004      1.0932707      31224.317      7615.8538      23608.464    
    190000   691.01559     -138.94828      44543.193      1.0663658      31152.84       7495.562       23657.278    
    192000   699.42816     -2059.0804      44878.346      1.0584021      31232.464      7586.8146      23645.65     
    194000   712.03622      893.85701      43810.006      1.0842121      31330.355      7723.5763      23606.779    
    196000   695.04036      246.77388      44741.115      1.0616485      31097.143      7539.2193      23557.924    
    198000   710.77044     -1807.1826      44421.393      1.0692897      31216.109      7709.8463      23506.263    
    200000   683.47209     -2021.6811      43693.782      1.0870961      30913.393      7413.7364      23499.656    
    202000   700.88209     -230.64694      44096.425      1.0771698      31237.885      7602.5856      23635.299    
    204000   717.22572      559.58888      43044.53       1.103493       31343.44       7779.8677      23563.572    
    206000   705.63953     -2349.7696      44226.332      1.0740058      31014.573      7654.1904      23360.383    
    208000   691.15999     -451.2983       43670.972      1.0876638      31091.111      7497.1283      23593.983    
    210000   685.6522       1289.7114      43873.282      1.0826484      30978.462      7437.3845      23541.078    
    212000   699.09406     -1751.398       43707.113      1.0867645      31139.862      7583.1906      23556.671    
    214000   694.51934      253.75452      43867.902      1.0827812      30837.08       7533.5679      23303.512    
    216000   701.26754      103.81948      44023.546      1.078953       31154.128      7606.7667      23547.361    
    218000   700.56639     -1001.5656      44406.232      1.0696548      31204.774      7599.1612      23605.613    
    220000   692.59072     -114.08211      44056.234      1.0781525      30900.465      7512.6477      23387.817    
    222000   694.01578      2586.5008      44770.59       1.0609496      31071.318      7528.1056      23543.212    
    224000   698.79778      250.11628      43779.227      1.0849743      31189.619      7579.9768      23609.642    
    226000   701.09493     -919.56669      44933.654      1.0570994      31332.438      7604.8943      23727.544    
    228000   677.91635      712.29587      44456.784      1.0684385      30840.6        7353.4724      23487.128    
    230000   698.40069     -282.8989       44947.114      1.0567828      31154.21       7575.6694      23578.54     
    232000   691.51686      638.51179      44110.821      1.0768183      31271.528      7500.9994      23770.528    
    234000   690.52165      888.6156       44452.764      1.0685351      31193.151      7490.2041      23702.946    
    236000   698.98301      1261.4319      44227.485      1.0739778      30947.849      7581.986       23365.863    
    238000   698.32807      196.42991      43999.714      1.0795374      31121.21       7574.8818      23546.329    
    240000   713.72041     -426.48992      44302.374      1.0721624      31095.978      7741.8451      23354.133    
    242000   680.57322     -743.43322      44556.47       1.0660481      31069.589      7382.2919      23687.297    
    244000   698.1523       1626.4532      45126.069      1.052592       31204.91       7572.9751      23631.935    
    246000   690.54915     -984.52017      44357.668      1.0708259      30921.352      7490.5025      23430.85     
    248000   693.4647      -1356.7131      44172.757      1.0753084      31047.034      7522.1279      23524.906    
    250000   701.9608      -1801.1478      44060.152      1.0780566      31309.266      7614.2865      23694.98     
    252000   681.52673     -3182.7152      44402.072      1.069755       31038.057      7392.6347      23645.422    
    254000   704.6897       1778.5223      44652.629      1.0637523      31044.835      7643.8874      23400.948    
    256000   695.6417      -835.13555      45391.54       1.0464359      31119.675      7545.7422      23573.933    
    258000   706.11287      700.78396      44710.686      1.062371       31350.3        7659.3247      23690.975    
    260000   706.93581      3055.2593      44348.686      1.0710427      31228.397      7668.2514      23560.145    
    262000   705.14454     -2003.8578      45297.917      1.0485987      31139.971      7648.8212      23491.15     
    264000   706.49654      418.8357       44991.776      1.0557338      31178.022      7663.4865      23514.535    
    266000   709.0546       162.93806      44229.191      1.0739364      31353.199      7691.2342      23661.965    
    268000   710.14381      2784.6624      45292.747      1.0487184      31236.961      7703.0491      23533.911    
    270000   699.23436      1290.9511      44451.588      1.0685633      31061.833      7584.7124      23477.12     
    272000   704.5776      -761.27811      45157.248      1.0518652      31232.697      7642.6714      23590.026    
    274000   706.78209      2161.2576      45192.359      1.051048       31134.014      7666.5839      23467.43     
    276000   688.70831      584.49227      45341.589      1.0475887      31015.927      7470.5346      23545.392    
    278000   695.9527       2460.441       44748.534      1.0614725      31222.643      7549.1157      23673.527    
    280000   702.38913     -1230.1278      44857.477      1.0588946      31213.644      7618.9327      23594.711    
    282000   693.58369      305.30158      44728.906      1.0619383      31063.867      7523.4186      23540.449    
    284000   696.70428     -960.52526      44328.135      1.0715393      30899.935      7557.2682      23342.667    
    286000   714.02967     -1109.1902      44431.249      1.0690525      31227.825      7745.1996      23482.626    
    288000   703.97113      2040.7762      45202.467      1.0508129      31003.716      7636.0929      23367.623    
    290000   691.24596     -781.32825      44147.682      1.0759192      31133.485      7498.0609      23635.424    
    292000   711.86303     -1004.5367      45117.82       1.0527844      31201.341      7721.6977      23479.643    
    294000   703.81403      92.592284      44357.635      1.0708267      31063.077      7634.3888      23428.688    
    296000   703.04103      642.84253      43959.646      1.0805214      31278.679      7626.004       23652.675    
    298000   694.12913     -1825.5944      44815.788      1.0598796      31012.735      7529.3352      23483.399    
    300000   703.42055     -2327.327       43830.753      1.0836989      31209.608      7630.1207      23579.487    
    302000   688.67102      504.80661      44482.765      1.0678144      31073.209      7470.1301      23603.079    
    304000   703.47821     -1136.9321      43728.836      1.0862246      31084.879      7630.7462      23454.133    
    306000   707.79532     -1052.2939      44044.114      1.0784492      31278.014      7677.5746      23600.439    
    308000   700.55475      2488.4276      43977.992      1.0800706      31001.863      7599.0349      23402.828    
    310000   685.00939      382.98033      44039.897      1.0785524      30901.755      7430.4118      23471.343    
    312000   699.20962     -701.03259      43964.755      1.0803958      31237.06       7584.444       23652.616    
    314000   704.61499     -942.4319       44269.442      1.0729599      31343.5        7643.077       23700.423    
    316000   694.08644     -1350.6938      43926.317      1.0813412      31028.122      7528.8721      23499.25     
    318000   704.47736      1661.9112      44371.437      1.0704936      31148.064      7641.5841      23506.48     
    320000   706.00726     -439.53289      44655.207      1.0636909      31219.253      7658.1792      23561.074    
    322000   697.91698      2005.9343      44623.225      1.0644533      31119.402      7570.4225      23548.979    
    324000   699.74143     -410.74238      43267.457      1.0978075      30888.07       7590.2126      23297.858    
    326000   695.495        1281.5214      44654.738      1.0637021      31121.607      7544.1509      23577.456    
    328000   707.29518     -146.0143       44670.975      1.0633154      31301.089      7672.1495      23628.94     
    330000   694.43977     -391.88051      44593.792      1.0651558      31186.361      7532.7047      23653.656    
    332000   702.82915     -592.4665       45280.591      1.049          31093.29       7623.7057      23469.584    
    334000   716.1726       3525.5778      44195.527      1.0747544      31385.283      7768.4443      23616.839    
    336000   705.53729      1810.4464      44146.386      1.0759508      31082.492      7653.0813      23429.411    
    338000   689.93314      4827.8589      43219.699      1.0990206      31195.513      7483.8205      23711.692    
    340000   686.87632      678.64215      44604.907      1.0648904      30890.868      7450.6627      23440.205    
    342000   711.1759      -2892.4655      44600.327      1.0649998      31153.798      7714.2443      23439.554    
    344000   711.87727     -752.3619       43521.771      1.0913926      30974.633      7721.8522      23252.781    
    346000   702.51081      2893.6782      44017.925      1.0790908      31185.701      7620.2526      23565.449    
    348000   693.54341     -459.51835      44078.276      1.0776133      30909.082      7522.9818      23386.1      
    350000   707.56151      130.64433      43756.757      1.0855315      31083.336      7675.0384      23408.297    
    352000   716.149        1112.0581      44412.171      1.0695117      31330.607      7768.1883      23562.418    
    354000   703.80093      1128.9253      44078.162      1.0776161      31271.183      7634.2468      23636.936    
    356000   701.73958      1256.3661      43888.031      1.0822846      31222.911      7611.887       23611.024    
    358000   714.89027     -510.8557       44142.108      1.076055       31378.643      7754.5347      23624.108    
    360000   702.34499      3711.1799      43607.022      1.0892589      31071.148      7618.4539      23452.694    
    362000   703.27832      529.97791      44239.141      1.0736949      31110.438      7628.578       23481.86     
    364000   689.02773      475.72428      44728.157      1.0619561      30814.566      7473.9994      23340.566    
    366000   699.52096      944.20108      44444.105      1.0687433      31228.114      7587.8213      23640.293    
    368000   711.08961      2449.0791      44984.657      1.0559009      31199.281      7713.3083      23485.973    
    370000   701.41044      1589.2489      44966.999      1.0563155      31153.448      7608.3167      23545.131    
    372000   717.6087      -466.36655      44805.34       1.0601267      31359.165      7784.022       23575.143    
    374000   691.95844      1142.292       45143.519      1.0521851      31128.394      7505.7893      23622.604    
    376000   688.19906      4059.5405      44492.174      1.0675886      30916.045      7465.0106      23451.034    
    378000   696.57249      1829.8829      44069.696      1.0778231      31100.054      7555.8387      23544.216    
    380000   702.88542     -778.61869      44840.497      1.0592955      31278.711      7624.3161      23654.395    
    382000   692.74605     -4446.1083      44089.514      1.0773387      31171.988      7514.3327      23657.655    
    384000   686.60666     -1970.8184      44973.94       1.0561525      30954.216      7447.7377      23506.478    
    386000   699.25185     -1691.7015      44099.892      1.0770851      31156.429      7584.9021      23571.527    
    388000   688.39626     -285.22218      44817.93       1.0598289      30802.796      7467.1497      23335.646    
    390000   707.46276      3261.9407      45264.392      1.0493754      31275.124      7673.9672      23601.157    
    392000   702.98142      790.85024      44029.959      1.0787959      31127.34       7625.3574      23501.983    
    394000   696.22216     -664.22381      44014.099      1.0791846      31129.745      7552.0386      23577.706    
    396000   672.46782     -1520.3619      43700.771      1.0869222      30951.396      7294.3712      23657.024    
    398000   710.26402     -1317.6867      44277.929      1.0727543      31157.162      7704.353       23452.809    
    400000   692.45339      1119.0272      44430.39       1.0690732      30970.91       7511.1581      23459.752    
    402000   670.48455      1146.8941      43939.867      1.0810078      30979.304      7272.8584      23706.446    
    404000   703.29548     -30.726854      45368.405      1.0469695      31207.354      7628.7641      23578.59     
    406000   684.97574     -359.01559      43627.849      1.0887389      30862.904      7430.0467      23432.858    
    408000   696.7358      -283.36037      44250.783      1.0734124      31136.452      7557.6101      23578.842    
    410000   698.23139     -691.61728      44417.347      1.0693871      30958.997      7573.833       23385.164    
    412000   695.37981      1060.012       44032.646      1.07873        31145.718      7542.9015      23602.817    
    414000   703.80362      1412.6066      43692.796      1.0871206      31247.952      7634.276       23613.676    
    416000   699.38856      2401.3715      43438.201      1.0934923      31215.199      7586.385       23628.814    
    418000   695.2349      -779.47826      44493.481      1.0675572      31034.037      7541.3296      23492.707    
    420000   697.76367     -1678.4065      43578.758      1.0899654      31201.92       7568.7596      23633.16     
    422000   711.24959     -1364.2949      44409.142      1.0695847      31301.698      7715.0437      23586.654    
    424000   695.00586     -3207.4355      43629.585      1.0886956      30917.026      7538.8452      23378.181    
    426000   708.62798     -3576.6471      44195.791      1.074748       31223.055      7686.6066      23536.449    
    428000   706.33509      1666.2811      44655.664      1.06368        31420.418      7661.7353      23758.683    
    430000   708.32825     -895.77496      44426.055      1.0691775      30992.239      7683.3554      23308.884    
    432000   707.3712       1724.6195      44085          1.077449       31202.336      7672.9741      23529.362    
    434000   699.86837      746.50806      44666.8        1.0634148      31092.412      7591.5897      23500.822    
    436000   703.90435     -3508.534       44703.87       1.062533       31149.823      7635.3686      23514.455    
    438000   677.55016     -1973.3755      44197.711      1.0747013      30932.245      7349.5003      23582.745    
    440000   699.26238     -457.72593      44150.28       1.0758559      31189.781      7585.0163      23604.764    
    442000   706.93487      754.64841      43735.052      1.0860702      31017.159      7668.2411      23348.917    
    444000   707.65477      1272.6457      44584.581      1.0653759      31258.959      7676.05        23582.909    
    446000   711.18605      417.78645      44315.512      1.0718445      31265.848      7714.3544      23551.494    
    448000   691.6126       1303.913       44419.948      1.0693245      31240.301      7502.0379      23738.263    
    450000   718.24125      3050.5969      43781.051      1.0849291      31370.098      7790.8834      23579.215    
    452000   697.73502      1281.5926      44712.837      1.0623199      31128.916      7568.4489      23560.468    
    454000   701.06448     -97.978525      44289.614      1.0724712      30934.353      7604.564       23329.789    
    456000   696.69128      851.97282      44723.147      1.062075       31251.382      7557.1272      23694.255    
    458000   704.03271      3184.045       44363.084      1.0706951      31079.373      7636.7609      23442.612    
    460000   700.48937     -1214.0775      44490.544      1.0676277      31162.564      7598.3257      23564.238    
    462000   704.70918      3866.8962      43710.675      1.0866759      31136.954      7644.0987      23492.855    
    464000   695.00483     -990.457        44106.139      1.0769326      31043.81       7538.834       23504.976    
    466000   680.30229      276.56861      44055.121      1.0781797      31021.253      7379.353       23641.9      
    468000   705.63468      1986.9626      43976.616      1.0801044      31197.992      7654.1378      23543.854    
    470000   719.92269     -213.01705      44240.393      1.0736645      31388.207      7809.1222      23579.085    
    472000   698.16331     -989.65875      44215.666      1.0742649      31066.869      7573.0946      23493.774    
    474000   696.9883      -201.94854      43900.263      1.081983       31210.129      7560.349       23649.78     
    476000   699.96482     -1491.3946      45133.2        1.0524257      31207.98       7592.6359      23615.344    
    478000   704.26824      1026.8971      43526.989      1.0912617      31158.808      7639.3157      23519.492    
    480000   701.88313      562.90839      44262.796      1.073121       31187.971      7613.4441      23574.527    
    482000   695.87823     -1687.4146      43969.66       1.0802753      31006.035      7548.3079      23457.727    
    484000   707.05027      3527.248       43732.147      1.0861424      31251.14       7669.4929      23581.648    
    486000   693.35496     -290.71606      44082.961      1.0774988      30983.342      7520.9376      23462.404    
    488000   701.25703      828.26193      43760.689      1.0854339      31124.723      7606.6527      23518.07     
    490000   694.44087     -137.53938      44161.125      1.0755917      31090.191      7532.7166      23557.474    
    492000   700.989       -327.61326      44243.537      1.0735882      31342.127      7603.7453      23738.382    
    494000   691.77125      2168.1042      43960.777      1.0804936      31059.828      7503.7588      23556.07     
    496000   700.24607      1243.0887      44081.822      1.0775267      31004.085      7595.6866      23408.398    
    498000   711.08149     -1621.5929      43788.529      1.0847439      31246.804      7713.2202      23533.583    
    500000   699.59715     -409.65447      44953.773      1.0566263      31160.349      7588.6476      23571.701    
Loop time of 1759.02 on 15 procs for 500000 steps with 3640 atoms

Performance: 12.280 ns/day, 1.954 hours/ns, 284.250 timesteps/s, 1.035 Matom-step/s
98.3% CPU use with 15 MPI tasks x no OpenMP threads

MPI task timing breakdown:
Section |  min time  |  avg time  |  max time  |%varavg| %total
---------------------------------------------------------------
Pair    | 893.11     | 999.01     | 1104       | 206.2 | 56.79
Bond    | 254.28     | 286.33     | 333.47     | 137.6 | 16.28
Kspace  | 157.68     | 296.28     | 436.41     | 511.2 | 16.84
Neigh   | 74.467     | 75.309     | 75.601     |   4.5 |  4.28
Comm    | 66.882     | 70.65      | 79.468     |  45.9 |  4.02
Output  | 0.040966   | 0.045526   | 0.055642   |   1.7 |  0.00
Modify  | 18.254     | 21.33      | 24.744     |  43.5 |  1.21
Other   |            | 10.06      |            |       |  0.57

Nlocal:        242.667 ave         261 max         223 min
Histogram: 1 0 2 2 2 3 1 0 2 2
Nghost:         6703.8 ave        6735 max        6676 min
Histogram: 3 1 1 2 0 0 3 3 1 1
Neighs:         112822 ave      123588 max      101959 min
Histogram: 2 1 0 2 2 2 3 1 0 2

Total # of neighbors = 1692323
Ave neighs/atom = 464.9239
Ave special neighs/atom = 11.554945
Neighbor list builds = 18068
Dangerous builds = 0

unfix npt4
undump traj

write_data step04_final.data
System init for write_data ...
PPPM initialization ...
  using 12-bit tables for long-range coulomb
  G vector (1/distance) = 0.16776748
  grid = 8 8 8
  stencil order = 5
  estimated absolute RMS force accuracy = 0.014795829
  estimated relative force accuracy = 4.4557198e-05
  using double precision KISS FFT
  3d grid and FFT values/proc = 819 48
Generated 190 of 190 mixed pair_coeff terms from sixthpower/sixthpower mixing rule

Total wall time: 0:29:19
